&CONTROL
  calculation   = 'scf',
  pseudo_dir    = '/util/academic/espresso/6.2.1/pseudopotentials/upf_files/',
  outdir        = './',
  prefix        = 'x0',
  disk_io       = 'low',
/

&SYSTEM
  ibrav       = 0,
  nat         = 25,
  ntyp        = 4,
  nspin       = 1,
  nbnd        = 100
  ecutwfc     = 30,
  ecutrho     = 300,
  occupations = 'smearing',
  smearing    = 'gaussian',
  degauss     = 0.01,
  nosym       = true,
/

&ELECTRONS
  electron_maxstep = 300,
  conv_thr         = 1.D-4,
  mixing_beta      = 0.30,
/

ATOMIC_SPECIES
C  12.010     C.pbe-n-rrkjus_psl.0.1.UPF 
H  1.007      H.pbe-rrkjus_psl.0.1.UPF 
Ir 192.217    Ir.pbe-n-rrkjus_psl.0.2.3.UPF
N  14.006     N.pbe-n-rrkjus_psl.0.1.UPF

K_POINTS gamma

CELL_PARAMETERS  angstrom
        7.0652699470        0.0000000000         0.0000000000
        0.0000000000        7.0652699470         0.0000000000
        0.0000000000        0.0000000000         7.0652699470 

ATOMIC_POSITIONS (angstrom)
Ir      -0.005337205   0.031459127   0.012213038
N        0.928195120  -1.440960337  -1.219772198
N       -1.731689066  -0.008310230  -1.235229079
N        0.930698998   1.519798934  -1.084872848
C       -0.513985604   1.610364079   1.067748109
C        1.484164148  -0.373786478   1.224969727
C        1.890059416  -1.964358220  -0.491980979
C        2.250071624  -1.423366587   0.792031369
C       -1.036023956  -1.264703485   1.019327789
C        0.566784864   2.705230318  -0.704301466
C       -0.021617334   2.783084324   0.604992633
C       -2.536070357  -0.895182994  -0.758487709
C       -2.178927879  -1.684871178   0.400195188
H        1.826238176   0.086274021   2.118258875
H        2.947671210  -1.921440015   1.424195037
H        2.610634687  -2.740219606  -0.733389545
H        0.730066236   3.459497008  -1.369824064
H       -0.049311889   3.712368587   1.095895356
H       -0.936699947   1.523528937   2.044308951
H       -2.753318848  -2.559108534   0.675283013
H       -0.661380265  -1.700806968   1.964912014
H       -3.451623167  -1.021200349  -1.278856541
H        0.774118856  -1.911841110  -2.162520399
H        1.397246997   1.453312469  -2.029021825
H       -2.044730746   0.687519711  -1.995268088


