&CONTROL
  calculation   = 'scf',
  pseudo_dir    = '/util/academic/espresso/6.2.1/pseudopotentials/upf_files/',
  outdir        = './',
  prefix        = 'x0',
  disk_io       = 'low',
/

&SYSTEM
  ibrav       = 0,
  nat         = 25,
  ntyp        = 4,
  nspin       = 1,
  nbnd        = 100
  ecutwfc     = 30,
  ecutrho     = 300,
  occupations = 'smearing',
  smearing    = 'gaussian',
  degauss     = 0.01,
  nosym       = true,
/

&ELECTRONS
  electron_maxstep = 300,
  conv_thr         = 1.D-4,
  mixing_beta      = 0.30,
/

ATOMIC_SPECIES
C  12.010     C.pbe-n-rrkjus_psl.0.1.UPF 
H  1.007      H.pbe-rrkjus_psl.0.1.UPF 
Ir 192.217    Ir.pbe-n-rrkjus_psl.0.2.3.UPF
N  14.006     N.pbe-n-rrkjus_psl.0.1.UPF

K_POINTS gamma

CELL_PARAMETERS  angstrom
        7.0652699470        0.0000000000         0.0000000000
        0.0000000000        7.0652699470         0.0000000000
        0.0000000000        0.0000000000         7.0652699470 

ATOMIC_POSITIONS (angstrom)
Ir      -0.009929962   0.031649864   0.010643475
N        0.922728129  -1.419491736  -1.229463498
N       -1.728119020  -0.019105668  -1.222911924
N        0.972467267   1.517772219  -1.097576790
C       -0.498433872   1.606315085   1.069972916
C        1.507876244  -0.362512840   1.172514706
C        1.900158027  -1.973731885  -0.505589287
C        2.249499878  -1.438685651   0.785242650
C       -1.039207264  -1.226029361   1.030402948
C        0.566256503   2.666059323  -0.671588684
C       -0.037275995   2.806487108   0.620683055
C       -2.545525234  -0.920547984  -0.731676134
C       -2.168883784  -1.654901163   0.423352886
H        1.784209724   0.136590251   2.128934658
H        3.018452102  -1.953323938   1.383169377
H        2.525065520  -2.849436944  -0.816200258
H        0.764094189   3.490522892  -1.449945294
H       -0.141817330   3.728378788   1.192520354
H       -0.949131705   1.467270632   2.086613270
H       -2.592483473  -2.684501459   0.483285352
H       -0.624993731  -1.696277635   1.915521141
H       -3.486467993  -1.135092980  -1.246315107
H        0.793979959  -1.891389925  -2.095664444
H        1.406678657   1.535053990  -2.026999068
H       -2.144470742   0.643645801  -1.824167211


