&CONTROL
  calculation   = 'scf',
  pseudo_dir    = '/util/academic/espresso/6.2.1/pseudopotentials/upf_files/',
  outdir        = './',
  prefix        = 'x0',
  disk_io       = 'low',
/

&SYSTEM
  ibrav       = 0,
  nat         = 25,
  ntyp        = 4,
  nspin       = 1,
  nbnd        = 100
  ecutwfc     = 30,
  ecutrho     = 300,
  occupations = 'smearing',
  smearing    = 'gaussian',
  degauss     = 0.01,
  nosym       = true,
/

&ELECTRONS
  electron_maxstep = 300,
  conv_thr         = 1.D-4,
  mixing_beta      = 0.30,
/

ATOMIC_SPECIES
C  12.010     C.pbe-n-rrkjus_psl.0.1.UPF 
H  1.007      H.pbe-rrkjus_psl.0.1.UPF 
Ir 192.217    Ir.pbe-n-rrkjus_psl.0.2.3.UPF
N  14.006     N.pbe-n-rrkjus_psl.0.1.UPF

K_POINTS gamma

CELL_PARAMETERS  angstrom
        7.0652699470        0.0000000000         0.0000000000
        0.0000000000        7.0652699470         0.0000000000
        0.0000000000        0.0000000000         7.0652699470 

ATOMIC_POSITIONS (angstrom)
Ir      -0.010427466   0.031868069   0.010093031
N        0.921970298  -1.431629015  -1.223328926
N       -1.727338624  -0.021564260  -1.214977148
N        0.981357337   1.515288295  -1.102740692
C       -0.507430360   1.597947830   1.072889515
C        1.514981835  -0.361324712   1.163396293
C        1.905432066  -1.969780846  -0.510670113
C        2.252736938  -1.424874601   0.777047638
C       -1.040170766  -1.212542273   1.035577979
C        0.567945645   2.663309290  -0.668460419
C       -0.040561916   2.812183424   0.622485802
C       -2.546641584  -0.926909429  -0.728085250
C       -2.166975703  -1.651229053   0.424715398
H        1.759614928   0.151097504   2.123156651
H        3.030638775  -1.953755558   1.376765508
H        2.497953123  -2.877170467  -0.852177751
H        0.756751473   3.472967404  -1.402007255
H       -0.147339293   3.723687969   1.196357189
H       -0.956105869   1.469134716   2.096758228
H       -2.560365675  -2.704510735   0.460901344
H       -0.619053395  -1.708889526   1.926863231
H       -3.492915995  -1.133993545  -1.218508840
H        0.771415418  -1.920578507  -2.108035539
H        1.395452257   1.537276847  -2.024035612
H       -2.169792485   0.641942659  -1.811383938


