&CONTROL
  calculation   = 'scf',
  pseudo_dir    = '/util/academic/espresso/6.2.1/pseudopotentials/upf_files/',
  outdir        = './',
  prefix        = 'x0',
  disk_io       = 'low',
/

&SYSTEM
  ibrav       = 0,
  nat         = 25,
  ntyp        = 4,
  nspin       = 1,
  nbnd        = 100
  ecutwfc     = 30,
  ecutrho     = 300,
  occupations = 'smearing',
  smearing    = 'gaussian',
  degauss     = 0.01,
  nosym       = true,
/

&ELECTRONS
  electron_maxstep = 300,
  conv_thr         = 1.D-4,
  mixing_beta      = 0.30,
/

ATOMIC_SPECIES
C  12.010     C.pbe-n-rrkjus_psl.0.1.UPF 
H  1.007      H.pbe-rrkjus_psl.0.1.UPF 
Ir 192.217    Ir.pbe-n-rrkjus_psl.0.2.3.UPF
N  14.006     N.pbe-n-rrkjus_psl.0.1.UPF

K_POINTS gamma

CELL_PARAMETERS  angstrom
        7.0652699470        0.0000000000         0.0000000000
        0.0000000000        7.0652699470         0.0000000000
        0.0000000000        0.0000000000         7.0652699470 

ATOMIC_POSITIONS (angstrom)
Ir      -0.007467283   0.031985996   0.012133117
N        0.922148154  -1.429252576  -1.225363824
N       -1.728966303  -0.014187969  -1.239482279
N        0.946271141   1.521722681  -1.085725223
C       -0.502642459   1.614826261   1.067971605
C        1.491114787  -0.367204927   1.203915718
C        1.890105179  -1.975746330  -0.494144447
C        2.255309217  -1.429112582   0.790636531
C       -1.037016082  -1.267127867   1.014651033
C        0.565297327   2.686847282  -0.688851124
C       -0.027788055   2.791642323   0.613555687
C       -2.541082307  -0.903141431  -0.746542402
C       -2.175205819  -1.671665130   0.413221134
H        1.845970972   0.093750579   2.136552612
H        2.966031431  -1.931347809   1.398123950
H        2.579863195  -2.760180233  -0.736918028
H        0.753877293   3.483216598  -1.442352918
H       -0.100004229   3.723277669   1.144683285
H       -0.928560991   1.491544426   2.040737595
H       -2.685377687  -2.600979414   0.586027625
H       -0.645960551  -1.682709513   1.923359745
H       -3.446329258  -1.074098395  -1.265352307
H        0.789945026  -1.917195948  -2.135283973
H        1.421077662   1.502062776  -2.040119767
H       -2.088022908   0.688273772  -1.929011125


