&CONTROL
  calculation   = 'scf',
  pseudo_dir    = '/util/academic/espresso/6.2.1/pseudopotentials/upf_files/',
  outdir        = './',
  prefix        = 'x0',
  disk_io       = 'low',
/

&SYSTEM
  ibrav       = 0,
  nat         = 25,
  ntyp        = 4,
  nspin       = 1,
  nbnd        = 100
  ecutwfc     = 30,
  ecutrho     = 300,
  occupations = 'smearing',
  smearing    = 'gaussian',
  degauss     = 0.01,
  nosym       = true,
/

&ELECTRONS
  electron_maxstep = 300,
  conv_thr         = 1.D-4,
  mixing_beta      = 0.30,
/

ATOMIC_SPECIES
C  12.010     C.pbe-n-rrkjus_psl.0.1.UPF 
H  1.007      H.pbe-rrkjus_psl.0.1.UPF 
Ir 192.217    Ir.pbe-n-rrkjus_psl.0.2.3.UPF
N  14.006     N.pbe-n-rrkjus_psl.0.1.UPF

K_POINTS gamma

CELL_PARAMETERS  angstrom
        7.0652699470        0.0000000000         0.0000000000
        0.0000000000        7.0652699470         0.0000000000
        0.0000000000        0.0000000000         7.0652699470 

ATOMIC_POSITIONS (angstrom)
Ir      -0.000872195   0.030727243   0.010444797
N        0.942516684  -1.463865976  -1.214334145
N       -1.729744142   0.008222990  -1.232196559
N        0.894729176   1.523968628  -1.079573793
C       -0.525265022   1.598484315   1.067193242
C        1.477831311  -0.388246922   1.248311703
C        1.898826227  -1.945809555  -0.483994178
C        2.229724268  -1.414250110   0.793423676
C       -1.037735665  -1.264923009   1.026081440
C        0.568543217   2.720209820  -0.717940191
C       -0.026884334   2.773804099   0.617956544
C       -2.529486468  -0.890341473  -0.778559225
C       -2.180698091  -1.703377315   0.374652600
H        1.801941400   0.177084577   2.138365724
H        2.939553863  -1.913392283   1.473195331
H        2.650850712  -2.749374109  -0.742638022
H        0.718667694   3.568184791  -1.357732278
H       -0.090963130   3.810762430   1.079230476
H       -0.977323832   1.581902933   2.063456626
H       -2.836524991  -2.501568958   0.803127263
H       -0.713737255  -1.729001735   2.007787227
H       -3.509137429  -0.962777347  -1.329178925
H        0.817056515  -1.938225134  -2.148789004
H        1.327088849   1.384514607  -1.975717447
H       -1.963780738   0.591928889  -2.023240579


