&CONTROL
  calculation   = 'scf',
  pseudo_dir    = '/util/academic/espresso/6.2.1/pseudopotentials/upf_files/',
  outdir        = './',
  prefix        = 'x0',
  disk_io       = 'low',
/

&SYSTEM
  ibrav       = 0,
  nat         = 25,
  ntyp        = 4,
  nspin       = 1,
  nbnd        = 100
  ecutwfc     = 30,
  ecutrho     = 300,
  occupations = 'smearing',
  smearing    = 'gaussian',
  degauss     = 0.01,
  nosym       = true,
/

&ELECTRONS
  electron_maxstep = 300,
  conv_thr         = 1.D-4,
  mixing_beta      = 0.30,
/

ATOMIC_SPECIES
C  12.010     C.pbe-n-rrkjus_psl.0.1.UPF 
H  1.007      H.pbe-rrkjus_psl.0.1.UPF 
Ir 192.217    Ir.pbe-n-rrkjus_psl.0.2.3.UPF
N  14.006     N.pbe-n-rrkjus_psl.0.1.UPF

K_POINTS gamma

CELL_PARAMETERS  angstrom
        7.0652699470        0.0000000000         0.0000000000
        0.0000000000        7.0652699470         0.0000000000
        0.0000000000        0.0000000000         7.0652699470 

ATOMIC_POSITIONS (angstrom)
Ir      -0.004174081   0.031192661   0.012157746
N        0.932341608  -1.448140574  -1.217185178
N       -1.732223513  -0.003720270  -1.233530476
N        0.923455407   1.517949685  -1.086555448
C       -0.518550856   1.606918953   1.067494020
C        1.481510352  -0.378226406   1.234283107
C        1.891198637  -1.957877411  -0.489589210
C        2.244430131  -1.420221568   0.792467728
C       -1.036197001  -1.264029472   1.021805270
C        0.567419156   2.712485479  -0.710276374
C       -0.018513799   2.778654979   0.598996781
C       -2.533302745  -0.892486252  -0.764422155
C       -2.180163567  -1.691169954   0.392447979
H        1.817773903   0.110854023   2.113971820
H        2.945111643  -1.919553299   1.442405353
H        2.631259353  -2.740945391  -0.727704072
H        0.721631331   3.473252013  -1.348563670
H       -0.061760311   3.749298616   1.091040862
H       -0.949995828   1.542495933   2.062115562
H       -2.786758484  -2.542279834   0.721864613
H       -0.673926592  -1.712320059   1.985726651
H       -3.470146155  -0.999017348  -1.294644532
H        0.766715127  -1.896212638  -2.161318064
H        1.374954687   1.429475008  -2.009519735
H       -2.018446832   0.665905619  -2.012431558


