 # Version information for this restart file 
 # current date 2021-06-17 12:32:46.816
 # current working dir /user/ub2042/exercises/2_fitting/MM_MD_workdir/md_settings
 # Program compiled at                              Thu Apr 22 21:44:59 EDT 2021
 # Program compiled on                cpn-k07-07-02.compute.cbls.ccr.buffalo.edu
 # Program compiled for                                                    local
 # Source code revision number                                       git:36754bb
 &GLOBAL
   PRINT_LEVEL  LOW
   PROJECT_NAME cp2k
   RUN_TYPE  MD
 &END GLOBAL
 &MOTION
   &MD
     ENSEMBLE  NVT
     STEPS  10000
     TIMESTEP     2.4999999999999996E+00
     STEP_START_VAL  2500
     TIME_START_VAL     6.2499999999996226E+03
     ECONS_START_VAL    -1.3925666412857368E+01
     TEMPERATURE     3.0000000000000000E+02
     &BAROSTAT
       PRESSURE     1.0100000000000000E+00
       TIMECON     9.9999999999999982E+03
     &END BAROSTAT
     &THERMOSTAT
       TYPE  CSVR
       &CSVR
         TIMECON     9.9999999999999982E+03
         &THERMOSTAT_ENERGY
              -9.0464899689876144E-02
         &END THERMOSTAT_ENERGY
         &RNG_INIT
Wiener process for Thermostat # 1        1 F T F   4.5885045939525038E-01        3336078289.0         441660928.0        2931313935.0        1048540172.0        1557258966.0        2798850846.0             12345.0             12345.0             12345.0             12345.0             12345.0             12345.0             12345.0             12345.0             12345.0             12345.0             12345.0             12345.0
         &END RNG_INIT
       &END CSVR
     &END THERMOSTAT
     &AVERAGES  T
       &RESTART_AVERAGES
         ITIMES_START  1
         AVECPU     1.7976179905235753E-02
         AVEHUGONIOT     0.0000000000000000E+00
         AVETEMP_BARO     0.0000000000000000E+00
         AVEPOT    -1.4303866113514989E+01
         AVEKIN     4.2311432682895156E-01
         AVETEMP     2.1463257442104961E+02
         AVEKIN_QM     0.0000000000000000E+00
         AVETEMP_QM     0.0000000000000000E+00
         AVEVOL     6.7483345830898639E+06
         AVECELL_A     1.8897261328855873E+02
         AVECELL_B     1.8897261328855873E+02
         AVECELL_C     1.8897261328855873E+02
         AVEALPHA     9.0000000000000000E+01
         AVEBETA     9.0000000000000000E+01
         AVEGAMMA     9.0000000000000000E+01
         AVE_ECONS    -2.7948285328906444E+00
         AVE_PRESS     0.0000000000000000E+00
         AVE_PXX     0.0000000000000000E+00
       &END RESTART_AVERAGES
     &END AVERAGES
     &PRINT
       &ENERGY  SILENT
         &EACH
           MD  10
         &END EACH
       &END ENERGY
     &END PRINT
   &END MD
   &PRINT
     &TRAJECTORY  SILENT
       &EACH
         MD  10
       &END EACH
     &END TRAJECTORY
     &CELL  SILENT
       &EACH
         MD  10
       &END EACH
     &END CELL
     &VELOCITIES  SILENT
       &EACH
         MD  10
       &END EACH
     &END VELOCITIES
     &FORCES  SILENT
       &EACH
         MD  10
       &END EACH
     &END FORCES
     &RESTART  SILENT
       &EACH
         MD  10
       &END EACH
     &END RESTART
   &END PRINT
 &END MOTION
 &FORCE_EVAL
   METHOD  FIST
   &MM
     &FORCEFIELD
       VDW_SCALE14     1.0000000000000000E+00
       EI_SCALE14     1.0000000000000000E+00
       SHIFT_CUTOFF  T
       DO_NONBONDED  T
       IGNORE_MISSING_CRITICAL_PARAMS  T
       &SPLINE
         R0_NB     2.5000000000000000E-01
       &END SPLINE
       &NONBONDED
         &LENNARD-JONES
           ATOMS Br Br
           EPSILON     1.2630795322675199E+02
           SIGMA     3.6900000000000004E+00
         &END LENNARD-JONES
         &LENNARD-JONES
           ATOMS Cs Pb
           EPSILON     8.6920055954630968E+01
           SIGMA     3.6699999999999999E+00
         &END LENNARD-JONES
         &LENNARD-JONES
           ATOMS Cs Cs
           EPSILON     2.2644852172126850E+01
           SIGMA     4.5300000000000002E+00
         &END LENNARD-JONES
         &LENNARD-JONES
           ATOMS Pb Pb
           EPSILON     3.3363415533600227E+02
           SIGMA     6.1000000000000005E+00
         &END LENNARD-JONES
         &LENNARD-JONES
           ATOMS Br Cs
           EPSILON     5.3481070753900497E+01
           SIGMA     3.6300000000000003E+00
         &END LENNARD-JONES
         &LENNARD-JONES
           ATOMS Br Pb
           EPSILON     2.0528187276773045E+02
           SIGMA     2.9800000000000000E+00
         &END LENNARD-JONES
       &END NONBONDED
       &CHARGE
         ATOM Cs
         CHARGE     4.1739999999999999E-01
       &END CHARGE
       &CHARGE
         ATOM Pb
         CHARGE     8.3479999999999999E-01
       &END CHARGE
       &CHARGE
         ATOM Br
         CHARGE    -4.1739999999999999E-01
       &END CHARGE
     &END FORCEFIELD
     &POISSON
       PERIODIC  XYZ
       &EWALD
         EWALD_TYPE  SPME
         GMAX  62 62 62
         O_SPLINE  4
       &END EWALD
     &END POISSON
     &PRINT
       &FF_INFO  LOW
         SPLINE_INFO  F
         SPLINE_DATA  F
       &END FF_INFO
     &END PRINT
   &END MM
   &SUBSYS
     &CELL
       A     1.0000000000000001E+02    0.0000000000000000E+00    0.0000000000000000E+00
       B     0.0000000000000000E+00    1.0000000000000001E+02    0.0000000000000000E+00
       C     0.0000000000000000E+00    0.0000000000000000E+00    1.0000000000000001E+02
       PERIODIC  XYZ
       MULTIPLE_UNIT_CELL  1 1 1
     &END CELL
     &COORD
Cs   -2.2349621835147007E-01   -1.6456846885253557E-01   -6.2355919377203239E+00
Cs    9.7111569878638448E-01   -5.4920548397765012E+00   -5.7583748067523732E+00
Cs    7.5959215834306648E-01   -1.1332657806923560E+01   -5.4615081342569844E+00
Cs   -5.2220402890235329E+00   -7.3674278907847981E+00   -5.2501754042865532E+00
Br   -7.4301744190582202E+00   -1.2296424363813259E+01   -7.4067435980151997E+00
Br    1.1462643667677705E+01   -3.1991232584955540E+00   -9.1648457523437550E+00
Br   -3.4850332503350656E+00    1.5044863203371452E+00   -1.1585756057941346E+01
Cs   -4.1320296886596763E-01    6.0287638801211436E+00   -6.9346703640076193E+00
Cs   -1.8083596089205864E-01   -1.9521104330088870E-02    3.3715273135522283E-01
Cs    2.2630382338542243E-01   -6.1946174911716696E+00    1.2659949172590463E+00
Br   -6.1445380578095374E+00   -3.5760855142487804E+00    3.4359145069423187E+00
Cs   -1.1090702120247249E+01   -5.5334006472416633E+00    1.2408069744420924E+01
Cs    1.1540731956826317E+01   -1.1034156128540218E+01   -1.6946599455372527E-01
Cs   -5.8408148508349775E+00    5.9007654072482500E+00   -6.5660674473907099E-01
Cs   -5.7352364827275271E-01    1.2062773151764686E+01    6.5392571788220522E-01
Cs    3.3315046743442572E-01    6.3224400785555659E+00   -5.3465417608943921E-01
Cs   -3.8328327399221596E-01   -2.2226877808049408E-01    5.6029995741717631E+00
Cs    1.3628238101231398E+00   -5.7320423893537527E+00    6.4899203532857141E+00
Cs    1.5923604415716244E+00   -1.1580981600593843E+01    6.4776691675049207E+00
Cs   -7.1891648636274592E+00    5.9941005041348294E+00    1.1633425267068811E+01
Cs   -6.3241413946729432E+00   -3.1241424464256373E-01   -1.1052072748944713E+01
Cs   -4.5624176055738168E+00   -1.2295019182041983E+01   -5.3495870443895903E+00
Cs   -5.8242027714525442E+00   -9.6022335493757460E-01    6.8841816446923980E+00
Br   -3.3596554630302551E+00   -2.8440576303771548E+00    4.2742800340630099E-01
Cs   -8.0690713340843989E-02    5.0006329243382819E+00    5.5613885984480165E+00
Br    1.2795083437492117E+01   -8.4241305100711088E+00   -9.5106912336912259E+00
Cs    1.0130285264065531E+00   -6.1712475801121220E+00    1.2365984555701591E+01
Br   -2.7835241606333456E+00   -5.9391973898891497E-02    3.1163049629624231E+00
Br   -8.1021874999649537E+00   -3.2813613853491610E+00    1.2654370432942430E+01
Cs    1.1713678434663663E+01    1.0629349317808234E+01   -7.2283151130016670E+00
Cs   -1.1392474952911648E+01   -6.6303706895822989E+00    6.8226740102857333E+00
Cs   -6.0265754798267190E+00   -5.8329382848973257E+00    7.0204077674398180E+00
Cs   -6.5638244533164798E+00    1.0785834547993726E+01   -6.4860943971146998E+00
Br   -1.1615947930074780E+01   -8.8329195949382910E+00    1.0738731112424734E+01
Br   -8.7284414015587366E+00   -8.8647494118008439E+00    6.6704846197133882E+00
Cs   -1.1397483023388872E+01   -6.1185221051490801E+00   -6.2915474650041805E+00
Cs   -6.1730839606804251E+00    6.0512278447686398E+00   -6.5908468334987536E+00
Br   -8.5510059303905841E+00   -6.1705630917746728E+00    1.0004293016736382E+01
Cs    1.2109012310697866E+01    7.0753141279790812E+00    1.0373230905094795E+01
Br   -1.2421502862984863E+01    8.0358640189040855E+00    7.5235444848163588E+00
Br   -6.3954337336821325E+00   -2.8683074088841667E+00   -2.5481268213416892E+00
Cs    2.5205542297355271E-01    3.2358351715242240E-01    1.0818794844901239E+01
Cs    1.0516389452748635E+01    5.9322844741079575E+00   -9.7157789172210340E-01
Cs   -1.0772543342390641E+01   -7.1143416130078707E+00   -1.1042483814444289E+01
Cs    1.1688844347299902E+01    6.1677951798234232E-01    5.2711092389733816E+00
Cs   -1.2392300851895190E+01    1.1547495967559525E+01   -6.4462074911225953E+00
Cs    1.2072732593429489E+01   -1.1012417725573572E+01    6.5786786750195487E+00
Cs    6.1581329997980765E+00   -6.5806396049423865E+00   -1.1288498401808377E+01
Cs    6.7064576710673744E+00   -1.0382911091227150E+01    6.4097257080736885E+00
Cs   -5.9024225150395067E+00   -1.1243531182827844E+01    7.0798556683747549E-01
Cs    7.0298649902318493E+00   -1.1698446385255970E+01   -1.1032909022638085E+01
Cs    1.0835958380469558E+01    5.7910083262321850E+00   -6.8514799324170568E+00
Cs    1.0952924572603040E+01    1.2292891872659094E+01    5.3799786138960544E+00
Cs    1.0976475213159974E+01    5.6030666504486781E+00   -1.2051612776911131E+01
Cs   -1.1078575328598755E-01   -6.3306907889270159E+00   -1.1794279643366281E+01
Cs   -1.1260923430453984E+01   -5.4684546670462786E-01   -5.9572345464164709E+00
Cs    6.1622556207490149E+00   -5.2134309700360530E+00    1.2115810219659817E+01
Cs    1.1731770723390936E+01   -5.1042481073188890E+00    5.8021267598817019E+00
Cs   -1.0603237286118045E+01   -1.1201689702565252E+01    1.2826876464582236E+01
Cs   -6.3195732048985409E-01   -1.0642539416836418E+00   -1.1092921139744456E+01
Cs   -3.5933023670165348E-01    1.1495032065956330E+01    5.6870383762682470E+00
Cs   -1.9086500428999928E+00    4.3915149231169694E+00   -1.2649431757171151E+01
Cs    5.6899168456409424E+00   -4.3612035048480396E-01   -5.9824574221030362E+00
Cs    6.5971874252533320E+00   -6.3988752722983628E+00   -6.0027554476142058E+00
Cs   -4.5101422530535311E+00   -1.2072269651634420E+01    6.6406495759108237E+00
Cs   -1.1558021715847572E+01   -1.0643299987613239E+00    6.9024527118911516E+00
Cs    5.8492668635458305E+00   -6.4495625795573230E-01   -1.1270601586027032E+01
Cs    6.1305461507816545E+00    1.1640170853047570E+01   -1.1847520064354091E+01
Cs    8.3694925245018847E-01    6.3971827447433487E+00    1.1412416210007349E+01
Cs   -5.9056200874437916E+00    1.1264781822997833E+01    6.0471479977957605E+00
Cs    5.5356225809226549E+00    1.0903557567161945E+01   -6.2803604838686011E+00
Cs    5.4211397168819033E+00    6.2024812906620781E+00   -6.3935168174025030E+00
Cs    5.7984800894792778E+00    7.2499296379392641E-01   -7.8469428468678451E-02
Cs    7.0449362327429821E+00   -5.3208753108001652E+00    1.0448883581802164E-01
Cs    6.6100286774754489E+00   -1.1072712909398001E+01   -2.1942070455105905E-01
Cs    6.0750019244031543E+00    5.9364723403305053E+00   -1.1591770371574725E+01
Cs   -5.6171698974203830E+00    6.2361951521382073E+00    5.9077054745351623E+00
Cs   -5.5634438077155979E+00   -6.0150414509066072E+00   -1.0523970835143214E+01
Cs    5.6853845220448012E+00    6.3644566192987027E+00   -6.5549161826077340E-01
Cs    4.9674418391909390E+00    2.0833687816450980E-01    5.8692020472608855E+00
Cs    6.5548904065709497E+00   -4.8672930817394029E+00    6.0125789853245850E+00
Cs   -6.0722855856441988E+00    1.1510597915662016E+01   -9.7661118867194974E-01
Cs    1.1834764458814766E+01    5.9806938511511099E-01    4.2854852773359146E-02
Cs   -5.8579849354015758E+00   -4.9308672336403081E-01    5.2350834098547316E-01
Cs   -1.1452846601448885E+01    5.0408468390114107E+00    5.7706248891289382E+00
Cs   -5.7828689038725685E+00    3.7010343802490860E-02    1.2098775918693994E+01
Cs    5.3312997142156675E+00    1.3331655855880337E+01    7.3653597130781208E+00
Cs    5.8695310618945431E+00    6.9200205732909952E+00    5.4596868063792190E+00
Cs    5.4267213363550875E+00    1.7691659781827431E+00    1.1706923926174992E+01
Cs    5.1158282817504359E+00    1.2428806975133330E+01    8.2892005766617083E-01
Cs    1.1036828815611607E+01   -3.8504796078488673E-01   -6.0574509816905158E+00
Cs    1.1576036602391873E+01   -5.2565584405827748E+00   -6.3045457526933646E+00
Cs    7.4339959651184211E+00   -1.1129694011971324E+01    1.1152466635128096E+01
Cs    1.0509473058214324E+01    1.2243846817338918E+01   -1.0061779755921219E+00
Cs   -1.1340024011075450E+01    8.9051564962424090E-01    1.1852212082630283E+01
Cs   -7.0340585780665981E+00    6.0668097694487209E+00   -1.1344942391240950E+01
Cs   -1.2755632106220373E+01    1.1607162224362769E+01   -1.0783656025304220E+00
Cs   -5.0938923750815102E+00   -5.8151780030010931E+00    1.2080827222220353E+01
Cs   -5.5324139525421927E+00   -1.0720173005720794E+01    1.2317536804041090E+01
Cs    6.2698976824311821E+00    7.1390769465534447E+00    1.0770716650951350E+01
Cs    1.1969810491432263E+01   -5.6586408798869252E+00   -9.8048057639200159E-01
Cs   -1.1144548404745841E+01   -1.0396681661423127E-01    4.5720338723670917E-01
Cs   -6.3904651863044144E+00    1.1968843335982275E+01   -1.0978137227443204E+01
Cs   -1.0858030973262835E+01    6.0388872921844907E+00   -8.2520322498027354E-01
Cs   -1.0113505533600962E+01   -1.1894170815147712E+01   -5.4212719324398986E+00
Cs   -1.1746629020929589E+01   -5.6114600045752434E+00    4.3688754803443808E-01
Cs   -5.2366087719164733E+00   -6.2637883221151789E+00    1.1064880406305140E+00
Cs   -1.0332711866343496E+01   -1.1877916293696577E+01    6.3381188116296530E+00
Cs    1.1884453132842490E+01   -5.4849260151384636E+00    1.1909155815921039E+01
Cs    1.1291928471034776E+01    6.6377550620344810E+00    5.5227718247002651E+00
Cs   -1.2048911068553734E+01    5.4444116304119188E+00   -7.0409967216273337E+00
Cs   -6.3168472103265794E+00   -5.5322936041486592E-01   -5.9194996913898938E+00
Cs   -1.2592493873071756E+01   -1.0506099886471542E+01    1.0935645059324346E+00
Cs    1.2129111680077040E+01   -8.9752526697112316E+00   -1.2546881735735759E+01
Cs   -5.7253878902202109E+00   -1.1878156956169322E+01   -1.0703154235313310E+01
Cs   -6.8143221909627627E-01    1.0516417218235100E+01   -1.2923047839218828E+01
Cs    1.4794480797740467E-01   -1.2203462019239673E+01   -1.0488199520793007E+01
Cs   -3.1191151183944987E-01    1.2170522017681145E+01   -6.1611869680939231E+00
Cs   -7.9746980937767624E+00    1.1168650803330754E+01    1.2690707258813818E+01
Cs    7.7835978800469796E-01   -1.1570090747184539E+01    6.7754965169108686E-02
Cs   -1.0728067961214125E+01    5.3880242128342082E-01   -1.3786416023274500E+01
Cs   -1.1849401492784741E+01    1.0938231121744002E+01    5.4853015350267569E+00
Cs    6.9712401500997112E+00   -1.1344511799081701E+01   -5.6070065461703722E+00
Cs    1.1468107323930825E+01   -3.7165193384397399E-01   -1.1191763417147936E+01
Cs    3.5742774230612639E-01    1.1185265137302071E+01    1.1260762465054341E+01
Pb    2.6311854103560028E+00   -3.0254058999621680E+00   -3.1688554125657902E+00
Pb    3.3924085557515915E+00   -8.8211858946204966E+00   -2.5527780517091876E+00
Pb   -9.1977670470435200E+00   -3.2516562666945688E+00    3.5036734546936232E+00
Pb   -2.4885261242011025E+00   -9.1798186114712585E+00   -2.6866372098528699E+00
Pb    2.5112382686629884E+00    9.0079112110749691E+00   -3.3560570644325431E+00
Pb    2.7833549666273445E+00    3.0301050868865187E+00   -3.4625503817558214E+00
Pb    2.9251190832927771E+00   -3.1143306718084602E+00    3.0263486984237908E+00
Pb    3.4504408275623484E+00   -9.0588410937407282E+00    3.4730887560899180E+00
Pb   -3.1032033802076748E+00    8.9011357155819955E+00    2.3755676313655347E+00
Pb    2.7977546708122172E+00    8.9588991643258922E+00    2.8046658050754041E+00
Pb    3.2275607984721444E+00    3.1253509252342004E+00    2.5794580539733123E+00
Pb    3.4026922807739051E+00   -2.3727112091646934E+00    9.3230994661271414E+00
Pb    3.5418809463499756E+00   -8.6737161258866404E+00    9.5566378124770033E+00
Pb   -3.0910478848212954E+00    2.9419422026391175E+00    2.9465126583544210E+00
Pb    3.1655004664182380E+00    9.5488177972803125E+00    8.6894628032474497E+00
Pb    3.0489351486948122E+00    3.6647983699236053E+00    8.5352954174261360E+00
Pb   -2.5646053135364499E+00   -3.2056435328221089E+00    9.2873318639039439E+00
Pb   -8.8219228981203024E+00   -9.0515940035996465E+00    3.5543329643899360E+00
Pb   -9.2290969739853423E+00    2.7788997379386506E+00   -3.2671446258087942E+00
Pb   -3.3628512193255657E+00   -3.6009765880178266E+00   -8.3774422994655868E+00
Pb   -2.5353710992378549E+00   -9.2561766346798446E+00    3.7103045078267352E+00
Pb   -3.2633522958548431E+00    8.9090922401610513E+00   -3.4400955175459003E+00
Pb   -2.5758602160212893E+00   -9.5646684399665904E+00    9.6064102181726998E+00
Pb   -9.1638166483774484E+00   -3.2582619529940176E+00   -2.7867953464945230E+00
Pb   -8.7972387300422206E+00   -9.1791097004566833E+00   -2.4398349327865017E+00
Pb   -3.0386924614740654E+00    2.8495245507408082E+00   -2.8165288824665966E+00
Pb   -8.7214645426974098E+00   -9.0892677578633538E+00    9.6993340455865837E+00
Pb   -9.4104155982663009E+00   -3.5830556271121705E+00   -8.9832028806372772E+00
Pb    8.2786452363638947E+00   -3.1463608300564641E+00   -9.2998224701611765E+00
Pb    1.0049263162471609E+01   -9.0201813852146699E+00   -9.1711254800289534E+00
Pb   -2.4519374467653359E+00   -9.6751021220431674E+00   -8.5911804795483775E+00
Pb   -9.5192821481934331E+00    8.8491501434237474E+00   -9.4517164969193157E+00
Pb    2.5049294996494962E+00   -3.4604463211488179E+00   -9.3779662126348988E+00
Pb    3.4334291822817256E+00   -9.4633152423774582E+00   -8.6164798109148855E+00
Pb   -3.3226803877234050E+00    2.7059427395736271E+00   -9.1016206038464222E+00
Pb    2.8840115109235591E+00    8.8161517480357325E+00   -9.5479665193450440E+00
Pb    2.7056472646683263E+00    2.6528892127948849E+00   -9.3101473523157381E+00
Pb    9.0740526480675641E+00   -2.8711123412796433E+00   -3.1217714376299597E+00
Pb    9.5105466471736992E+00   -9.1103672597813361E+00   -3.1771418818382511E+00
Pb   -8.5249346899082763E+00   -3.1855952293257843E+00    9.7323956921838715E+00
Pb    9.2839127145577667E+00    8.5869356794832292E+00   -9.9008001453460928E+00
Pb   -9.4755654718443036E+00    2.5124991944107649E+00   -9.0197430763722348E+00
Pb   -3.0246123984642477E+00    8.8756337247640165E+00    8.6957212077838228E+00
Pb    8.6655456254002452E+00    8.9920818351693583E+00   -3.8717209910501116E+00
Pb    8.7865872198056021E+00    3.1025419630793061E+00   -3.6081877901853980E+00
Pb    9.0883909137799712E+00   -2.4410373926650721E+00    3.0264262172029186E+00
Pb    9.2957610437960110E+00   -8.3198174819681299E+00    3.0000675133107504E+00
Pb    8.6292406284071319E+00    2.7747812860615793E+00   -9.6125387452595756E+00
Pb   -2.7418285774464293E+00    2.8034644060535552E+00    9.0106907406022412E+00
Pb    8.8097497726694485E+00    9.4351147501140389E+00    2.4569124399852007E+00
Pb    9.2986324331767509E+00    3.4134770668865468E+00    2.3957294956329167E+00
Pb    9.4029225047654723E+00   -2.1709225611854164E+00    9.0672201418363869E+00
Pb    9.5965181004974855E+00   -8.2850464945174753E+00    9.1820525121306051E+00
Pb    9.0739640706927425E+00    1.0105270026883183E+01    8.5888780000473659E+00
Pb    8.9956841347897321E+00    3.7959716004508435E+00    8.5656796639654083E+00
Pb   -8.9215696215801472E+00    2.8231418794669194E+00    9.1403721138477447E+00
Pb   -3.1823249195201551E+00   -3.0644166648584648E+00    3.3750594450693492E+00
Pb   -9.0278299168097202E+00    9.4173395358667396E+00    2.8603685122533600E+00
Pb   -9.3164697867709894E+00    8.5887347831512848E+00   -3.5222975348851655E+00
Pb   -8.3672117019810504E+00   -9.5281047154772658E+00   -8.3320201826866587E+00
Pb   -3.0813681406674669E+00    8.8364034443187887E+00   -9.3369427716316657E+00
Pb   -9.1746133744573530E+00    3.2012349767102233E+00    3.1612997975645829E+00
Pb   -9.8019314205322470E+00    8.9005562501681048E+00    8.9235045370567043E+00
Pb   -3.4218849568971157E+00   -2.9043489605241897E+00   -2.6192381097056194E+00
Br   -4.3626826472873415E-01   -3.0957867324436195E+00   -2.1217772771012742E+00
Br    2.7303256324725784E+00   -2.7881726586321984E+00   -6.2314557106795032E+00
Br    2.2814846678575083E+00   -1.7985390675946708E-01   -2.9830496295402793E+00
Br    5.6422849381605600E-01   -8.8498830647114417E+00   -2.7867015349840409E+00
Br    3.1815363852175174E+00   -9.1772547373854678E+00   -5.5018722785526073E+00
Br    3.5173035115014875E+00   -5.7655128910208200E+00   -3.7895400854777188E+00
Br   -4.0290553883692466E+00   -3.3037813547556647E+00   -5.5473348707021719E+00
Br   -8.2537069812137993E+00   -3.1407660880555759E+00    6.4757844756002561E+00
Br   -3.5504589046976731E+00   -8.0021008612304059E-02   -3.1279437646199271E+00
Br    3.6312213216195706E+00   -1.1798693414086076E+01   -2.4512796111234683E+00
Br    1.1819576780759748E+01   -2.8710228700822924E+00    3.4057555605527807E+00
Br   -5.6964731952673144E+00   -9.5635732449544246E+00   -2.1979512122518789E+00
Br   -1.1745306260875362E+01   -3.7899705891229574E+00    4.3994615894993787E+00
Br   -9.1211316301606686E+00   -3.0750625520175223E+00    3.7061855412196998E-01
Br    1.2047424463380729E+01   -7.9681758288544735E+00    1.8286381678684194E+00
Br   -3.5851020454083526E-01    9.1353407288293038E+00   -3.3352828600892952E+00
Br    2.4208319703037309E+00    8.5900472301476718E+00   -6.2893311993783279E+00
Br    2.8838931907140015E+00    1.1733856997800133E+01   -3.8525320344566478E+00
Br   -1.5919244806806976E-01    2.8221238587949840E+00   -3.3715288408823030E+00
Br    2.9467483624014306E+00    2.3342767940448224E+00   -6.4083141688132921E+00
Br    3.0936166041884698E+00    6.0511885792761957E+00   -3.0970322523902478E+00
Br   -1.9212703351016328E-01   -3.0044984325403989E+00    2.9654799048879621E+00
Br    2.7581061155408690E+00   -3.8174988880816860E+00   -1.8237287170248880E-03
Br    3.3977264928312567E+00   -1.3969157072100502E-01    2.3939048031428301E+00
Br    6.4886620408679085E-01   -9.0628626330893063E+00    3.6203851868550778E+00
Br    2.7596057400779261E+00   -9.0677396769188423E+00    3.7184963841156368E-02
Br    3.3746217334015105E+00   -6.0454309794242498E+00    3.6182978410581077E+00
Br   -6.5161223084400151E+00    8.4617172015173825E+00   -8.9975253641875508E+00
Br   -3.7213376075888007E+00    8.6077139539559830E+00   -1.2161364872671689E+01
Br    4.2733335607164680E+00   -1.1652789651710654E+01    3.4715645056735305E+00
Br   -3.1761683448528766E+00    1.1580619772089779E+01   -9.7645399849912788E+00
Br   -2.9581228544324083E+00    5.6570282183152214E+00   -9.7751261471357900E+00
Br   -9.2080939338489713E+00   -4.1723826754326165E-01    3.0178783397694109E+00
Br   -2.4079146107243727E+00   -9.6084122774980472E+00   -5.5752616456018735E+00
Br   -6.0695965609973870E+00    8.6108073328419241E+00    3.2833908201348980E+00
Br   -3.3263724158048125E+00    9.2537826550795312E+00   -4.6306568348857124E-01
Br   -2.7840025425243282E+00    1.1623403989247683E+01    3.3023938212933404E+00
Br   -2.8011770654530321E-01    8.7200263416443384E+00    2.0027105627565081E+00
Br    2.6961564794000563E+00    8.9742959529924970E+00   -3.4672429963656942E-01
Br    2.2864446962135672E+00    1.1790046237551444E+01    2.8808708417241884E+00
Br    1.0358835810523623E-01    2.7100923646717634E+00    2.8885433493640602E+00
Br    2.9532878610312876E+00    3.1570063852798174E+00   -5.9351904594868332E-01
Br    3.1197624297114643E+00    5.9098969604488225E+00    2.7004289613141834E+00
Br    8.0704759142561380E-02   -3.4518617132181313E+00    9.6575223280698186E+00
Br    3.4148643282978912E+00   -3.0690222410788093E+00    5.9975465547206284E+00
Br    3.3448852732876988E+00    6.9209140489543042E-01    8.8757898819805874E+00
Br    7.1918124230765912E-01   -8.7945400000823781E+00    9.5874579679882288E+00
Br    3.6687778248425480E+00   -8.6869389315884185E+00    6.5944988112317766E+00
Br    3.5989668293221269E+00   -5.4647641509028091E+00    9.3127087165250941E+00
Br   -1.1971338349449343E+01    2.5344608690748665E+00    3.5821275586908845E+00
Br   -1.0073946097197986E+01    2.9895679331694356E+00    1.2718180279157096E-01
Br    4.2581419717570173E+00   -1.1402892590389607E+01    9.6884724084163203E+00
Br   -9.2340960798192793E+00    6.1413347676668044E+00    2.9894802589681708E+00
Br   -8.2703075628567202E+00   -1.7350617706938157E-01    9.5762139092686880E+00
Br   -3.0221321052756842E+00   -6.2139325028542141E+00   -2.7240260013678497E+00
Br   -5.9547029761853967E+00    3.0547994690364124E+00    2.8616192845868453E+00
Br   -2.7397279158154286E+00    2.4579619500346643E+00    2.6992069971778377E-02
Br   -3.0665876998169463E+00    6.0027786673270533E+00    2.0512400463335987E+00
Br   -1.2925441318023587E-01    8.5179709326678577E+00    8.4864604354779765E+00
Br    3.5120414607482426E+00    9.4016171103621087E+00    5.7997128575416035E+00
Br    2.1319895839153431E+00    1.2160318053519209E+01    8.7005709867471257E+00
Br    1.0631662730521362E-02    3.3115057223566984E+00    8.6053974472986994E+00
Br    2.6063115015893574E+00    2.8996811782862117E+00    5.6173462236800340E+00
Br    3.2873449649328870E+00    6.6208015230806421E+00    8.7679034247845689E+00
Br   -5.5621458182913024E+00   -3.2619657648228575E+00    9.3219896658732395E+00
Br    3.0275011671761103E+00   -2.4127564204241683E+00    1.2234646110108130E+01
Br   -3.0021358729926466E+00   -3.4980251747931010E+00    6.4037964554058497E+00
Br   -2.2271473875751329E+00   -4.4267745158010563E-01    8.7393212591313443E+00
Br   -2.2618924712483164E+00   -1.2071266706863794E+01   -2.6621238969022070E+00
Br    3.4555958303581611E+00   -8.3096901465475650E+00    1.2625233916111975E+01
Br   -1.1682816648257729E+01    3.6078712753698721E+00   -4.4443224995899797E+00
Br   -2.0597194550060811E+00   -1.1973507754922009E+01    4.1533948942511953E+00
Br   -1.1832444090379674E+01   -3.3561794433959209E+00   -2.2832212119121373E+00
Br    3.2517343950109052E+00    9.3694518167207939E+00    1.1615419103611339E+01
Br   -8.8649417197872911E+00   -2.8721578519979429E+00   -6.0987251083396288E+00
Br   -9.6853846238178107E+00   -2.3587903250459122E-01   -2.9800952041127307E+00
Br    2.8827437064062238E+00    3.6801768724818231E+00    1.1448473100900172E+01
Br   -6.3835533459309621E+00    9.2003809093044531E+00   -3.6093094818559255E+00
Br   -3.2942216485632736E+00    8.5305193114770130E+00   -6.3317337801225557E+00
Br   -3.4332711219713588E+00    1.1818523461665308E+01   -4.0466735079740195E+00
Br   -5.7510658906671015E+00    2.8707071777180251E+00   -2.9716573234451911E+00
Br   -1.1497338769732696E+01   -9.7790400421643948E+00    4.4060400261518078E+00
Br   -3.2660396107168257E+00    3.8539507585757189E+00   -6.3597541372336490E+00
Br   -6.2608006490669368E+00   -3.1504106471239144E+00   -8.5693185053253291E+00
Br   -2.7756892070947972E+00   -3.8806747703745081E+00   -1.1148460418440090E+01
Br   -3.3621882547969366E+00   -6.0325864481646641E-01   -8.5888261858030770E+00
Br   -2.5108175288567391E+00    2.8680995344514462E+00    1.1963875152988104E+01
Br   -5.6502235438986208E+00   -9.4423635590735131E+00    9.0845615436396461E+00
Br   -2.3928516523345356E+00   -9.4095061207548927E+00    6.7962051878846967E+00
Br   -3.2197480739986686E+00   -6.5166432540821484E+00    8.9504516886176582E+00
Br   -9.4246050187477142E+00   -8.9235701380174763E+00    4.1477176367564522E-01
Br   -8.8279495318017123E+00   -6.2557796737686280E+00    3.3454400908179660E+00
Br   -9.1271796100321456E+00    8.4397439104488683E+00    1.1735686518660243E+01
Br    1.1959145219021735E+01    9.4571797613510498E+00    2.1858512711999190E+00
Br   -8.4368608888209220E+00   -8.8551383321414860E+00    1.2490440904129132E+01
Br    1.1422864432143374E+01    8.6089647647405094E+00   -3.5554722346977048E+00
Br    1.2020042574231995E+01    2.8462175982330575E+00    2.5053611547702315E+00
Br   -8.7536491463544959E+00    2.7587744588191088E+00    1.1929304981394106E+01
Br   -1.2200278764179648E+01   -4.7841564125614351E+00   -9.1728685523305700E+00
Br    1.1982003667340202E+01   -2.1004913552756110E+00    7.9810587104185347E+00
Br   -5.3234063488011234E+00   -9.1454848365908123E+00    2.9050624982873061E+00
Br    5.3833782699761885E+00   -3.5636765052840289E+00   -8.7973592902226940E+00
Br    7.9776156615611118E+00   -3.0188918010601546E+00   -1.2005928762767111E+01
Br    1.2415714541765864E+01   -8.0072086160907840E+00    9.5222048978930047E+00
Br    8.7848836371292389E+00   -2.3790096092013124E-01   -9.2696749731482395E+00
Br   -9.7139210529493258E+00   -1.1918893590476657E+01    9.4401619175908014E+00
Br   -2.0773128874388216E+00   -9.0758355194093294E+00    4.8216706322168340E-01
Br   -2.5247837240969773E+00   -6.2931298714150774E+00    3.2386008558840391E+00
Br    6.5423471300939795E+00   -8.7114425442413452E+00   -8.6772657507534223E+00
Br   -5.3896995545441078E+00   -9.3256501990257732E+00   -8.1773824485907767E+00
Br    8.8399131668577517E+00   -9.2043421533038430E+00   -1.1803210589417787E+01
Br    8.7842654893702239E+00   -6.1090644632557760E+00   -9.4546436476972744E+00
Br   -3.6864669260272276E+00   -1.2142305710843964E+01    9.9895794886963021E+00