 # Version information for this restart file 
 # current date 2021-06-17 12:35:00.210
 # current working dir /user/ub2042/exercises/2_fitting/MM_MD_workdir/md_settings
 # Program compiled at                              Thu Apr 22 21:44:59 EDT 2021
 # Program compiled on                cpn-k07-07-02.compute.cbls.ccr.buffalo.edu
 # Program compiled for                                                    local
 # Source code revision number                                       git:36754bb
 &GLOBAL
   PRINT_LEVEL  LOW
   PROJECT_NAME cp2k
   RUN_TYPE  MD
 &END GLOBAL
 &MOTION
   &MD
     ENSEMBLE  NVT
     STEPS  10000
     TIMESTEP     2.4999999999999996E+00
     STEP_START_VAL  9970
     TIME_START_VAL     2.4924999999995514E+04
     ECONS_START_VAL    -1.3925666412857368E+01
     TEMPERATURE     3.0000000000000000E+02
     &BAROSTAT
       PRESSURE     1.0100000000000000E+00
       TIMECON     9.9999999999999982E+03
     &END BAROSTAT
     &THERMOSTAT
       TYPE  CSVR
       &CSVR
         TIMECON     9.9999999999999982E+03
         &THERMOSTAT_ENERGY
              -3.1791989612294735E-01
         &END THERMOSTAT_ENERGY
         &RNG_INIT
Wiener process for Thermostat # 1        1 F T F   2.7653048661578805E-01        4127636088.0        4103140563.0        2040976024.0         115846524.0         859054296.0        2160992230.0             12345.0             12345.0             12345.0             12345.0             12345.0             12345.0             12345.0             12345.0             12345.0             12345.0             12345.0             12345.0
         &END RNG_INIT
       &END CSVR
     &END THERMOSTAT
     &AVERAGES  T
       &RESTART_AVERAGES
         ITIMES_START  1
         AVECPU     1.7887824908232427E-02
         AVEHUGONIOT     0.0000000000000000E+00
         AVETEMP_BARO     0.0000000000000000E+00
         AVEPOT    -1.4242017489210141E+01
         AVEKIN     4.8586495013909281E-01
         AVETEMP     2.4646398965229471E+02
         AVEKIN_QM     0.0000000000000000E+00
         AVETEMP_QM     0.0000000000000000E+00
         AVEVOL     6.7483345830912264E+06
         AVECELL_A     1.8897261328855686E+02
         AVECELL_B     1.8897261328855686E+02
         AVECELL_C     1.8897261328855686E+02
         AVEALPHA     9.0000000000000000E+01
         AVEBETA     9.0000000000000000E+01
         AVEGAMMA     9.0000000000000000E+01
         AVE_ECONS    -3.8401863238866105E+00
         AVE_PRESS     0.0000000000000000E+00
         AVE_PXX     0.0000000000000000E+00
       &END RESTART_AVERAGES
     &END AVERAGES
     &PRINT
       &ENERGY  SILENT
         &EACH
           MD  10
         &END EACH
       &END ENERGY
     &END PRINT
   &END MD
   &PRINT
     &TRAJECTORY  SILENT
       &EACH
         MD  10
       &END EACH
     &END TRAJECTORY
     &CELL  SILENT
       &EACH
         MD  10
       &END EACH
     &END CELL
     &VELOCITIES  SILENT
       &EACH
         MD  10
       &END EACH
     &END VELOCITIES
     &FORCES  SILENT
       &EACH
         MD  10
       &END EACH
     &END FORCES
     &RESTART  SILENT
       &EACH
         MD  10
       &END EACH
     &END RESTART
   &END PRINT
 &END MOTION
 &FORCE_EVAL
   METHOD  FIST
   &MM
     &FORCEFIELD
       VDW_SCALE14     1.0000000000000000E+00
       EI_SCALE14     1.0000000000000000E+00
       SHIFT_CUTOFF  T
       DO_NONBONDED  T
       IGNORE_MISSING_CRITICAL_PARAMS  T
       &SPLINE
         R0_NB     2.5000000000000000E-01
       &END SPLINE
       &NONBONDED
         &LENNARD-JONES
           ATOMS Br Br
           EPSILON     1.2630795322675199E+02
           SIGMA     3.6900000000000004E+00
         &END LENNARD-JONES
         &LENNARD-JONES
           ATOMS Cs Pb
           EPSILON     8.6920055954630968E+01
           SIGMA     3.6699999999999999E+00
         &END LENNARD-JONES
         &LENNARD-JONES
           ATOMS Cs Cs
           EPSILON     2.2644852172126850E+01
           SIGMA     4.5300000000000002E+00
         &END LENNARD-JONES
         &LENNARD-JONES
           ATOMS Pb Pb
           EPSILON     3.3363415533600227E+02
           SIGMA     6.1000000000000005E+00
         &END LENNARD-JONES
         &LENNARD-JONES
           ATOMS Br Cs
           EPSILON     5.3481070753900497E+01
           SIGMA     3.6300000000000003E+00
         &END LENNARD-JONES
         &LENNARD-JONES
           ATOMS Br Pb
           EPSILON     2.0528187276773045E+02
           SIGMA     2.9800000000000000E+00
         &END LENNARD-JONES
       &END NONBONDED
       &CHARGE
         ATOM Cs
         CHARGE     4.1739999999999999E-01
       &END CHARGE
       &CHARGE
         ATOM Pb
         CHARGE     8.3479999999999999E-01
       &END CHARGE
       &CHARGE
         ATOM Br
         CHARGE    -4.1739999999999999E-01
       &END CHARGE
     &END FORCEFIELD
     &POISSON
       PERIODIC  XYZ
       &EWALD
         EWALD_TYPE  SPME
         GMAX  62 62 62
         O_SPLINE  4
       &END EWALD
     &END POISSON
     &PRINT
       &FF_INFO  LOW
         SPLINE_INFO  F
         SPLINE_DATA  F
       &END FF_INFO
     &END PRINT
   &END MM
   &SUBSYS
     &CELL
       A     1.0000000000000001E+02    0.0000000000000000E+00    0.0000000000000000E+00
       B     0.0000000000000000E+00    1.0000000000000001E+02    0.0000000000000000E+00
       C     0.0000000000000000E+00    0.0000000000000000E+00    1.0000000000000001E+02
       PERIODIC  XYZ
       MULTIPLE_UNIT_CELL  1 1 1
     &END CELL
     &COORD
Cs   -7.4086939456131240E-01   -5.0157677645745080E-01   -5.8739609000435005E+00
Cs    3.3742680743836756E-01   -5.9485181049411251E+00   -4.3539689204372625E+00
Cs    2.1563639544711690E+00   -1.2004538402847009E+01   -3.2007650856198318E+00
Cs   -4.3692810308324725E+00   -7.9127631538923175E+00   -3.4782833985005821E+00
Br   -7.6261696958362419E+00   -1.4951507762280819E+01   -5.3416367926196813E+00
Br    1.1827321373262436E+01   -2.2816317507317696E+00   -9.5663579027743211E+00
Br   -5.5983632012777536E+00   -1.2008918590618132E+00   -1.1780440977975507E+01
Cs   -9.6812132951135665E-01    4.7813251153519403E+00   -6.7993605250545599E+00
Cs    1.1367284312054681E-02   -8.7099309185654816E-01   -2.0174196306455552E-01
Cs    8.6397263547738734E-01   -5.5592174833253987E+00    9.4975127249955538E-01
Br   -5.0589200844430007E+00   -3.6371653295441426E+00    4.2381591144304540E+00
Cs   -9.8150862064732713E+00   -6.0840745689977442E+00    1.4206833078086474E+01
Cs    1.3839828610447608E+01   -8.5513341248232990E+00    2.4807867364314180E-02
Cs   -6.6170551864805454E+00    4.6422232119342182E+00    4.1733008235837832E-01
Cs   -2.1693102304038554E+00    1.0559908751339794E+01   -2.4104042776521801E+00
Cs   -9.0697396979774225E-01    5.7179263947952670E+00   -9.4820450430813019E-01
Cs    8.4246307044197888E-01    1.4809777441125984E+00    4.8196160919088129E+00
Cs    1.9937571878687610E+00   -4.0191785979531360E+00    7.4450577498416939E+00
Cs    2.9679853618357748E+00   -1.0500600474418873E+01    7.2644780027265572E+00
Cs   -6.2539504676875080E+00    6.7999677445810471E+00    9.8671829099802899E+00
Cs   -6.8681391022417611E+00   -3.9096141166122620E+00   -1.0473568222920171E+01
Cs   -4.9664533607076322E+00   -1.3926047188468202E+01   -3.2004309401426903E+00
Cs   -5.7648694138932610E+00    7.5760235705918033E-01    6.8952260748313039E+00
Br   -2.4892368926284121E+00   -3.7003441476950338E+00    1.2890836459472348E+00
Cs   -3.7592893166099273E-01    6.5172572356738652E+00    5.3590797997322941E+00
Br    1.2261199474218614E+01   -7.9144785981840675E+00   -8.9056452548061866E+00
Cs    2.2171358624022766E+00   -4.2026881411395873E+00    1.1966333526438824E+01
Br   -2.3911292993058089E+00   -2.1273395310600970E-01    3.0697642316381346E+00
Br   -5.8824879668698200E+00   -2.3647643664318658E+00    1.3252871613320147E+01
Cs    1.3578571241979946E+01    1.0342985094729707E+01   -7.3888125847301591E+00
Cs   -8.9559447860755483E+00   -6.4932254208256568E+00    8.8667221992532728E+00
Cs   -4.4115930628941102E+00   -5.8459418512461072E+00    7.9235904555472114E+00
Cs   -8.9061362460531228E+00    9.2220394788179281E+00   -7.8831065276516936E+00
Br   -8.7480223940711195E+00   -9.4122826614193205E+00    1.2896286381678305E+01
Br   -5.6589709800420209E+00   -1.0045731955063738E+01    8.3377759705315135E+00
Cs   -1.0788311635109885E+01   -7.8837978144690082E+00   -2.9765917106059412E+00
Cs   -7.7508471850262755E+00    3.6523709330378131E+00   -6.7932684454878274E+00
Br   -6.1228168262148612E+00   -6.3066173372316143E+00    1.0837027213088811E+01
Cs    1.0376502907226429E+01    1.0051915848431568E+01    9.8322895532829637E+00
Br   -1.2982957366581294E+01    7.8359862735813461E+00    9.0568065832895428E+00
Br   -5.2418476034302222E+00   -4.7716398043558970E+00   -1.1821862239839056E+00
Cs    1.4692120887508680E+00    2.1723238209204281E+00    1.1308149719836244E+01
Cs    1.0091771082610302E+01    7.8745698304490990E+00   -1.7710411092177147E+00
Cs   -1.1673882607563284E+01   -9.8084509712363435E+00   -8.4153357462875409E+00
Cs    1.2406584539569431E+01    4.7029682766179128E+00    4.8074597156060568E+00
Cs   -1.3400283384735017E+01    8.2272965652086043E+00   -7.7017772302330743E+00
Cs    1.3536355360255307E+01   -7.7366636188303870E+00    6.1880725163515962E+00
Cs    6.5921413812868028E+00   -7.5815221854903339E+00   -1.0972073137599434E+01
Cs    8.5296809532696898E+00   -8.7907429776079340E+00    7.1195461518673966E+00
Cs   -3.6619040531831657E+00   -1.1436612926798595E+01    2.8758581647227035E+00
Cs    6.6751576092078801E+00   -1.3114125517302277E+01   -9.4878597844682826E+00
Cs    9.2208363631355184E+00    6.2452195067750287E+00   -8.0596635659604718E+00
Cs    8.3379378320605877E+00    1.5767191147805221E+01    2.5206312386288898E+00
Cs    9.0159164134001273E+00    5.3155226541696479E+00   -1.3066628109735552E+01
Cs    8.8043355258360323E-02   -7.9431583977388804E+00   -1.1095515602682010E+01
Cs   -1.2415745258609855E+01   -2.5922390647503839E+00   -5.0957780262235115E+00
Cs    8.7453025957405828E+00   -2.1718543709526443E+00    1.1275352451347764E+01
Cs    1.2751443026396595E+01   -2.4800566694449500E+00    5.1977207504435121E+00
Cs   -7.4444904659255471E+00   -1.0133334064732397E+01    1.6011024958343686E+01
Cs   -1.9126646609208069E+00   -3.0909369572677776E+00   -1.1357444925502215E+01
Cs   -2.1043381096498823E+00    1.2109711738801437E+01    3.8040859521940340E+00
Cs   -2.1211774576666169E+00    2.9709269137480749E+00   -1.2975010745325317E+01
Cs    5.7949817808204021E+00   -8.0788006922897404E-01   -6.6666933072812613E+00
Cs    6.4562445156588444E+00   -5.5451958653339259E+00   -6.0951957586947145E+00
Cs   -2.2729940162779254E+00   -1.0971122026451015E+01    9.1252318208981880E+00
Cs   -1.0825992988956797E+01   -1.3971674593344909E+00    7.0272369142260898E+00
Cs    4.6036222136352780E+00   -1.4173614792881968E+00   -1.1779355453058614E+01
Cs    4.3990069162533256E+00    1.0092844290978551E+01   -1.3335769329905649E+01
Cs   -1.1533354556838074E+00    8.1320924028279826E+00    1.0183303982116204E+01
Cs   -7.7689398211661169E+00    1.1114198746919426E+01    4.4942151357443620E+00
Cs    4.5705936595258407E+00    1.1107989931447138E+01   -8.9860551972720497E+00
Cs    4.3725939129500029E+00    5.9225120207463799E+00   -7.6434595178584628E+00
Cs    4.7045203114510672E+00    8.4598548498508441E-01   -7.2442016688680677E-01
Cs    7.8192639052276816E+00   -4.9821584603560902E+00    9.9873895918248978E-01
Cs    8.1144900195387226E+00   -9.6243987365342676E+00    1.0502776652327930E+00
Cs    3.8462719029162722E+00    4.4980510432326577E+00   -1.2432504646144947E+01
Cs   -6.2386553519818335E+00    5.6218528190279766E+00    5.9891319749448071E+00
Cs   -5.9774872436188096E+00   -8.8645410842497689E+00   -8.9935090907664268E+00
Cs    3.6909124246420921E+00    7.5303248434097974E+00   -1.7708505968086921E+00
Cs    7.0376248537135631E+00    2.4352537027042613E+00    4.9046744260054469E+00
Cs    7.4574390518685734E+00   -3.4966276850797615E+00    5.5295336079558863E+00
Cs   -6.9137716690451869E+00    1.0714747268154111E+01   -2.6563373556443071E+00
Cs    1.1503841947653328E+01    2.0529741446836298E+00   -1.3792568741051776E+00
Cs   -5.5602765351776950E+00   -1.5751574326682065E+00    2.7505700408452416E-01
Cs   -1.2411860857343356E+01    4.1104530283063401E+00    5.8366822801558627E+00
Cs   -4.0700173135047271E+00    1.4984081789080865E+00    1.2884662283687140E+01
Cs    3.3555379390781250E+00    1.2812040373030110E+01    4.2586087415476355E+00
Cs    5.2844475564820197E+00    7.9256804194327977E+00    3.7210023099113338E+00
Cs    9.3673742206784318E+00    3.8640596213949712E+00    1.1187261435109573E+01
Cs    3.2673060709061570E+00    1.2998749062193152E+01   -1.9393568838833020E+00
Cs    1.1133883387769288E+01    1.1429115932679990E+00   -6.9253978265127643E+00
Cs    1.2571052686428427E+01   -5.8893415365783737E+00   -6.5177867139876549E+00
Cs    9.7620205927676871E+00   -7.2300679078300654E+00    1.1989121500041906E+01
Cs    9.0935304697594397E+00    1.2785140229045895E+01   -2.3165579873892397E+00
Cs   -1.1280551456630313E+01    5.4342085271711271E+00    1.0914084063877191E+01
Cs   -8.2583476438076246E+00    1.8978007063475013E+00   -1.1551990947066404E+01
Cs   -1.4001924394648727E+01    9.2753275742506478E+00   -1.5015674622134716E+00
Cs   -2.9003356569606473E+00   -5.3921571952408698E+00    1.3412541155976887E+01
Cs   -1.8307752923727649E+00   -9.7237777092908697E+00    1.4948571958176522E+01
Cs    5.3037210410095437E+00    8.4509858571558176E+00    9.3997406105874930E+00
Cs    1.2583870481489740E+01   -3.9410732044220911E+00   -4.1129335209567813E-01
Cs   -1.1148043523826297E+01   -2.0058543041613595E+00    8.5254220761865473E-01
Cs   -8.5321101267017294E+00    6.3822160956313265E+00   -1.4170981880689206E+01
Cs   -1.3138526545737740E+01    3.8853656436106863E+00    5.8354463422492209E-01
Cs   -1.0229119165567605E+01   -1.3209251007912822E+01   -2.5728348969340953E+00
Cs   -1.0267067746117192E+01   -7.2350125806789194E+00    2.4989714580212610E+00
Cs   -4.8253025075588143E+00   -6.6372775403791922E+00    2.0988834277184840E+00
Cs   -7.5039268491224469E+00   -1.2791666808560246E+01    8.9651299320768594E+00
Cs    1.3723124624214540E+01   -1.4383106814661899E+00    1.0501673046221288E+01
Cs    1.0290486509558956E+01    9.5435130159460808E+00    3.8756363669665483E+00
Cs   -1.3851576715529786E+01    2.1869214274453159E+00   -5.9656265820561911E+00
Cs   -6.6930898488894117E+00   -2.4027682110937785E+00   -5.7792648215342250E+00
Cs   -8.7239735970160908E+00   -1.3210761812166961E+01    2.5731799653906933E+00
Cs    1.1988096161697904E+01   -6.4218465731826004E+00   -1.1855646357356560E+01
Cs   -4.8226703970857576E+00   -1.5525999660353079E+01   -8.4214888895049089E+00
Cs   -2.4737570428092517E+00    8.8452531151100260E+00   -1.2872290786440461E+01
Cs    7.0208786486602792E-01   -1.3162121758024680E+01   -1.0153601761109044E+01
Cs   -2.7147032254438508E+00    9.1794893498233776E+00   -7.8196236651468114E+00
Cs   -8.0788935739292267E+00    1.1295964307734261E+01    8.7854894122617413E+00
Cs    3.1133573955355613E+00   -1.1575114016328888E+01    2.0301785255223317E+00
Cs   -1.2724801033758055E+01    1.7953135502492932E+00   -1.2724798544151867E+01
Cs   -1.3975197113458140E+01    9.9398965051759198E+00    4.7979246449475097E+00
Cs    8.5696117122688040E+00   -1.1633733364707771E+01   -4.2764762287639986E+00
Cs    1.0900478321832063E+01    3.5617550629764727E-01   -1.1653606693823868E+01
Cs   -1.1375266350619893E+00    1.2636816061362431E+01    9.5708905448937678E+00
Pb    3.2641625964433540E+00   -2.6200079384105766E+00   -2.7853090480987146E+00
Pb    4.6308917764294657E+00   -8.6238931900244289E+00   -1.9253489061539670E+00
Pb   -7.9783521620328655E+00   -3.7421494120238412E+00    4.7933628193064628E+00
Pb   -1.3134238844552513E+00   -1.0257194075157821E+01   -1.1290882782679899E+00
Pb    5.0468539509271049E-01    9.0477688824928251E+00   -4.7468370707944203E+00
Pb    1.9649052562951483E+00    3.0215918144279352E+00   -3.6928234463506664E+00
Pb    4.0825552690085152E+00   -1.7003556321956237E+00    3.3671440184623895E+00
Pb    5.0954680832626140E+00   -7.6548787830764367E+00    4.1482076697807750E+00
Pb   -4.9307582530991043E+00    8.6796306715416929E+00    1.0757703089318880E+00
Pb    9.5308171040043033E-01    9.9018879548541356E+00    9.1373700807849179E-01
Pb    2.8806164402826244E+00    4.2886399780814228E+00    2.0776621658607612E+00
Pb    4.7780056788799241E+00   -3.3032149362499880E-01    9.1927166888895293E+00
Pb    5.4089241259563945E+00   -6.0804684939559159E+00    1.0172355523485667E+01
Pb   -2.9383643129353301E+00    2.6940809441934102E+00    2.5636045958210882E+00
Pb    1.8129207695451877E+00    1.0534787899729960E+01    7.5434053265156455E+00
Pb    3.1753611264918957E+00    5.0249956925195951E+00    7.9300481008910486E+00
Pb   -1.3366459042534373E+00   -1.7106747484219571E+00    1.0005777728038279E+01
Pb   -7.0316219615061017E+00   -9.5439840646174918E+00    5.8983152527387066E+00
Pb   -9.8931090728380138E+00    1.2924642899408290E+00   -2.6836462229479379E+00
Pb   -3.2428662166099049E+00   -5.2984746947937946E+00   -7.4541774807026551E+00
Pb   -4.6715306248072408E-01   -8.9321350769502779E+00    4.6054672393560478E+00
Pb   -5.2924945911280048E+00    7.0438438611604575E+00   -4.9342838140811445E+00
Pb   -2.2167931631884982E-01   -7.8126703118861842E+00    1.0778517515940457E+01
Pb   -8.2856528486852756E+00   -4.6046469482525376E+00   -1.2496416540226138E+00
Pb   -7.3947875028209902E+00   -1.0513507474436349E+01   -2.1838910605042886E-01
Pb   -3.5011685008075655E+00    1.3339308151994296E+00   -3.1653640460810277E+00
Pb   -6.0331555592535171E+00   -8.9223406152942832E+00    1.2142364805369233E+01
Pb   -9.3222043137772452E+00   -6.1199870325961951E+00   -6.8321956778135231E+00
Pb    8.9828793850734723E+00   -3.5438930360647740E+00   -9.2286163097864105E+00
Pb    1.0177566629117774E+01   -9.9550616763571451E+00   -8.3508285849057131E+00
Pb   -2.1001654874559712E+00   -1.1120219887927338E+01   -7.3092642426840886E+00
Pb   -1.1146513817668668E+01    5.6791989721596989E+00   -1.0481791412966915E+01
Pb    2.6449048953801260E+00   -4.1842062834226326E+00   -8.5931908533951482E+00
Pb    3.9214341086764817E+00   -1.0187898454916816E+01   -7.5911339875680319E+00
Pb   -4.6043632436396944E+00    2.2696894751438296E-01   -9.3940324841835654E+00
Pb    7.4639927563992581E-01    7.5754558097187612E+00   -1.0575498409243494E+01
Pb    1.3804380822559075E+00    1.6608833080068532E+00   -9.5624257060565796E+00
Pb    9.2426105291135148E+00   -1.8786511077869585E+00   -3.4278946386864808E+00
Pb    1.0647719350834933E+01   -7.6754960401548011E+00   -2.7179574339168342E+00
Pb   -7.2138744134289050E+00   -2.9866789044057098E+00    1.0715790062062961E+01
Pb    7.1893836780918328E+00    8.0424928604451225E+00   -1.0874517984004086E+01
Pb   -1.0700007619361935E+01    3.7412986999419508E-02   -8.5675568977419552E+00
Pb   -4.2711576701710445E+00    9.7179397365418829E+00    6.9100817215863293E+00
Pb    7.1283446834778701E+00    9.7877461820095828E+00   -5.2938990085205893E+00
Pb    7.9842773273165921E+00    3.9545450237448896E+00   -4.1335334131534758E+00
Pb    9.9768515018588317E+00   -6.5183851802710824E-01    2.3143592948780660E+00
Pb    1.0870040293830705E+01   -6.6268224022162849E+00    3.2857440066558992E+00
Pb    7.3922177953885537E+00    2.1908454794981864E+00   -9.9516617601511435E+00
Pb   -2.5727130488831369E+00    4.0541454815747553E+00    8.6835895807563777E+00
Pb    6.7285497982314331E+00    1.0608201167349822E+01    8.0034603553713179E-01
Pb    9.0397525720315013E+00    5.0775502165244042E+00    1.6333067709492746E+00
Pb    1.0483342462777403E+01    1.1392295045258367E+00    7.9037864430698734E+00
Pb    1.1269916151553108E+01   -4.8994337921388151E+00    9.0578026230706072E+00
Pb    7.2940386157132338E+00    1.2761530500464946E+01    6.5098153734681006E+00
Pb    9.2761737423471899E+00    6.8110205172639491E+00    7.2181134164546874E+00
Pb   -8.5595521017606426E+00    2.7827455055678341E+00    9.2168424255090340E+00
Pb   -1.8671244848212141E+00   -3.2815620126494309E+00    4.1208538481531889E+00
Pb   -1.1010701261114850E+01    7.9021600588513197E+00    1.7455468236822502E+00
Pb   -1.1122140598646000E+01    6.8048171936195736E+00   -4.3629910534201253E+00
Pb   -7.7602400736986263E+00   -1.2137828780744284E+01   -6.1912696101252127E+00
Pb   -5.3611243181512505E+00    6.0151572704141083E+00   -1.0844985362910638E+01
Pb   -9.0346679959741305E+00    1.7669273185736323E+00    3.3027160574772134E+00
Pb   -1.0615792812322651E+01    8.5259944533334338E+00    8.1145503317270791E+00
Pb   -2.5068477098703386E+00   -4.2679429372749924E+00   -1.6346225712773557E+00
Br    4.5783594535203648E-01   -3.8999340360461288E+00   -2.0974549968429201E+00
Br    3.6157891470825070E+00   -3.9664907396698132E+00   -5.5429046562283117E+00
Br    2.1631988531737094E+00   -1.1537741684998264E-01   -3.5547143386371265E+00
Br    1.6857030073470052E+00   -9.2669039599249068E+00   -1.3130877782843280E+00
Br    4.7313848903303137E+00   -9.8700053115295834E+00   -4.5242903334345606E+00
Br    3.9566859865016801E+00   -5.4912131144511918E+00   -2.3597392546578551E+00
Br   -2.7524916852321404E+00   -4.7318938916093485E+00   -4.6327519299488351E+00
Br   -7.9155078900795024E+00   -3.5666964939679389E+00    7.8570896290247241E+00
Br   -2.5597043821215908E+00   -1.4748613314488528E+00   -2.7297900147273291E+00
Br    4.7403704317008835E+00   -1.1375730127214203E+01   -1.3072093134067417E+00
Br    1.2988745420145959E+01   -8.7173609325833046E-01    1.8505315621998444E+00
Br   -4.6102782736377792E+00   -1.0093724454051570E+01   -9.4056761820780788E-01
Br   -1.0645747633183618E+01   -4.4378571081988945E+00    4.7207797673044603E+00
Br   -8.2747352187484946E+00   -3.8673059394940106E+00    1.6825335168707030E+00
Br    1.3836474794183045E+01   -6.2267441295468409E+00    3.0895554480354779E+00
Br   -2.1036906658042223E+00    7.7203426133935853E+00   -4.9924616748544617E+00
Br    9.8191436697289636E-01    8.3000236704458139E+00   -7.7940311142968719E+00
Br   -7.1623088308965221E-01    1.1267436631074078E+01   -5.7005207495828261E+00
Br   -8.1194357245364224E-01    2.0069714979635047E+00   -3.2471039294014794E+00
Br    1.3849291735793721E+00    2.6914464441546251E+00   -6.6441856245892996E+00
Br    1.4302259970318978E+00    6.1772785471155007E+00   -4.5399936527727824E+00
Br    1.1950386416712202E+00   -2.0818101064911625E+00    3.4005149720439860E+00
Br    3.1030653053180011E+00   -2.0408351554205471E+00    2.3087232259062637E-01
Br    3.6433012354138459E+00    1.5170870370409104E+00    2.8219652107972242E+00
Br    2.4316812148054514E+00   -8.4645771305876689E+00    3.9083046384979476E+00
Br    4.9539992656442964E+00   -7.9258776004030818E+00    8.3283069423984646E-01
Br    4.7237648237246059E+00   -4.8605066948061477E+00    3.6757059684430780E+00
Br   -8.2457820639410269E+00    5.1842511523294963E+00   -1.0929828126188337E+01
Br   -4.9712557390057759E+00    5.6808960070180445E+00   -1.3557032208589339E+01
Br    5.3307397103413212E+00   -1.0673334304471210E+01    4.5327625254030481E+00
Br   -5.2872397401059779E+00    9.0191315286033245E+00   -1.0912983118722030E+01
Br   -5.1090497341363132E+00    3.1177680334950550E+00   -1.0297646131001351E+01
Br   -8.4462368085786448E+00   -7.8640196938976004E-01    4.7581109683351013E+00
Br   -1.8202892059304014E+00   -1.1021599898184352E+01   -4.1584895648709450E+00
Br   -7.4491200568227747E+00    8.1648169260343995E+00    2.3537185215669014E+00
Br   -4.7684532974742471E+00    8.2676737085715661E+00   -1.7411591068178396E+00
Br   -5.8090624061822789E+00    1.1439403971158912E+01    2.2146669999284277E-01
Br   -1.9756830852402749E+00    9.6786718389568058E+00    7.2524023773425450E-01
Br    1.2272371800738988E+00    9.1231477480131975E+00   -1.7553868708396843E+00
Br    9.5571679982359992E-01    1.2967626621804820E+01    6.5248688845918512E-01
Br   -4.5402543863898664E-02    2.8886938529997588E+00    1.9230307012890295E+00
Br    2.1432641379288859E+00    3.4064985725421058E+00   -8.1298590084431699E-01
Br    1.6891707392031574E+00    6.9736574472429851E+00    1.7904283003455310E+00
Br    1.3917868328810654E+00   -9.2595212651585912E-01    9.4648990873885825E+00
Br    4.0133384670146173E+00   -7.8379443406598481E-01    6.3680717038256667E+00
Br    3.9067364453433147E+00    2.3938107555928902E+00    8.8368814912626270E+00
Br    2.5582392514073664E+00   -7.0926139429202628E+00    1.0090061966615146E+01
Br    5.4681879114975125E+00   -6.7909035828224562E+00    7.0866708379277297E+00
Br    5.2374204159826236E+00   -3.2631285654164945E+00    9.6114577120848423E+00
Br   -1.1884273386206937E+01    9.4673042666139351E-01    3.1771645606286372E+00
Br   -9.2787096200081010E+00    1.8715005790257839E+00    1.1727531596793923E-02
Br    6.9378434819514050E+00   -8.6552463421102708E+00    1.0707060957574464E+01
Br   -9.7960853844838525E+00    4.6319591017520123E+00    2.9529631235315961E+00
Br   -8.1076999745611911E+00    5.8438568780818850E-02    9.5671381877104249E+00
Br   -1.7405617143823606E+00   -7.0811744287915461E+00   -1.7372640238726609E+00
Br   -6.0066903346384422E+00    2.1631219566026632E+00    2.8188804323773340E+00
Br   -3.0500966153330364E+00    2.3050527659123143E+00   -3.5337696772516242E-01
Br   -3.3030362656342938E+00    5.4957699207179234E+00    1.8751330028707800E+00
Br   -1.3356455130957092E+00    9.7640908212094644E+00    7.1261039117229643E+00
Br    5.1235517909713124E-01    9.7775796539778881E+00    4.0236713785577463E+00
Br    1.1662214584553650E+00    1.3187686092356079E+01    6.7548454202566370E+00
Br    4.0424542096585153E-01    3.8569003682581551E+00    7.4665516887525767E+00
Br    3.1448236656276918E+00    5.1881266582395362E+00    4.8105193121446135E+00
Br    2.0232398957826021E+00    7.6503240442879514E+00    7.7136927807755260E+00
Br   -4.8173699884251331E+00   -2.2917853487584665E+00    9.3225381250611772E+00
Br    4.4345016044116887E+00    3.0036101584243968E-01    1.1954942744613742E+01
Br   -1.1232382356572312E+00   -2.3740910597311955E+00    6.9331787803602474E+00
Br   -2.2627196758601995E+00    1.2167971220182716E+00    9.2570198404657109E+00
Br   -1.5702794038282262E+00   -1.2924736721721658E+01   -8.2224884752036498E-01
Br    5.9313873427505444E+00   -5.0981586093149689E+00    1.2715224551415316E+01
Br   -1.2518983163694255E+01    3.4768396855716238E-01   -1.8401438871826663E+00
Br   -1.4335501062530789E-01   -1.1575206987921110E+01    5.3889719250533945E+00
Br   -1.0971252722936832E+01   -4.8685553485419364E+00   -1.1073120834441001E+00
Br    1.2089175631804858E+00    1.0407209458721743E+01    1.0383581023046167E+01
Br   -8.7311421204501514E+00   -5.3434849865892184E+00   -4.0141273657686680E+00
Br   -8.7894157548909675E+00   -1.7489964537781431E+00   -1.9390959590208223E+00
Br    3.0789970447173975E+00    5.7605085180457705E+00    1.0838633115914373E+01
Br   -8.0941336050525923E+00    6.5660329717492409E+00   -4.8033381570984632E+00
Br   -4.6775838792861268E+00    5.8362829452550047E+00   -7.5126967418529773E+00
Br   -5.0226935385141527E+00    9.9311517300867553E+00   -5.3976363816023873E+00
Br   -6.5307663312455411E+00    1.1806699042272464E+00   -2.9381633070409072E+00
Br   -9.8438278097267933E+00   -1.0095070764240569E+01    6.6922470699650152E+00
Br   -3.8189184452149600E+00    1.0797034114320079E+00   -6.1428402250108718E+00
Br   -6.2526741169217015E+00   -5.4973793379049534E+00   -7.3803304438716557E+00
Br   -3.3272375718855396E+00   -6.0925654749528322E+00   -1.0333549351426877E+01
Br   -3.9104205681806801E+00   -2.5728991540304658E+00   -8.2313096048127825E+00
Br   -1.5543210312683513E+00    4.3618987688471478E+00    1.1249051817805768E+01
Br   -2.9530622156496125E+00   -8.6091358255380452E+00    1.1402332964989698E+01
Br    1.2413170418005859E-02   -8.6731554497492613E+00    7.6978893836656592E+00
Br   -1.2994205758114441E+00   -4.7742587443891251E+00    1.0367900494184148E+01
Br   -6.8003415226854464E+00   -9.6757469600828738E+00    2.8186775685531420E+00
Br   -7.3031262430781174E+00   -6.5707118619917084E+00    5.4576288895500289E+00
Br   -9.3896467441791014E+00    8.9444448248844033E+00    1.0539035851519571E+01
Br    9.8366960015869367E+00    1.1077759579425674E+01    4.1911182361855304E-01
Br   -5.5048525199441283E+00   -7.3259543750934464E+00    1.4421605356265694E+01
Br    9.9188519962788924E+00    1.0236150420253255E+01   -4.8486493813733045E+00
Br    1.1482069438277041E+01    5.9284959675505782E+00    6.2298469692289582E-01
Br   -7.5764402925254712E+00    4.2991819613539013E+00    1.1985600077278853E+01
Br   -1.1996110904322061E+01   -7.0153520466701433E+00   -6.1297916646736903E+00
Br    1.3147486089705568E+01    1.8732102175724057E+00    6.4384557271191003E+00
Br   -3.9930542100461675E+00   -8.7119795381095226E+00    5.5234715859724473E+00
Br    5.5557761960778311E+00   -3.3231345323128791E+00   -8.9451254437457504E+00
Br    9.0346552947454786E+00   -4.6372416244096408E+00   -1.2082921543777124E+01
Br    1.4041368960514049E+01   -4.4948425346747500E+00    8.0563053907840754E+00
Br    8.1225370001798485E+00   -7.4804490682241687E-01   -9.8555708882530819E+00
Br   -5.6969493470864707E+00   -1.1724126019098174E+01    1.3040672004717939E+01
Br   -1.5105147162334625E+00   -9.3911171211087776E+00    1.9741270906199380E+00
Br   -8.9147129920087886E-01   -5.9796141193783114E+00    3.9331983095000309E+00
Br    7.3836101611003651E+00   -1.0133387837727311E+01   -7.5480298002542137E+00
Br   -4.8332547021310255E+00   -1.2065618057962364E+01   -6.4684788310987145E+00
Br    8.5570592313820661E+00   -1.0747752398040220E+01   -1.1053955926500706E+01
Br    8.8536314325969805E+00   -6.0681731420336016E+00   -8.5140613973572048E+00
Br    5.5444511723675727E-01   -1.0348563972516049E+01    1.1621947202207785E+01