 # Version information for this restart file 
 # current date 2021-06-17 12:34:43.016
 # current working dir /user/ub2042/exercises/2_fitting/MM_MD_workdir/md_settings
 # Program compiled at                              Thu Apr 22 21:44:59 EDT 2021
 # Program compiled on                cpn-k07-07-02.compute.cbls.ccr.buffalo.edu
 # Program compiled for                                                    local
 # Source code revision number                                       git:36754bb
 &GLOBAL
   PRINT_LEVEL  LOW
   PROJECT_NAME cp2k
   RUN_TYPE  MD
 &END GLOBAL
 &MOTION
   &MD
     ENSEMBLE  NVT
     STEPS  10000
     TIMESTEP     2.4999999999999996E+00
     STEP_START_VAL  9000
     TIME_START_VAL     2.2499999999996515E+04
     ECONS_START_VAL    -1.3925666412857368E+01
     TEMPERATURE     3.0000000000000000E+02
     &BAROSTAT
       PRESSURE     1.0100000000000000E+00
       TIMECON     9.9999999999999982E+03
     &END BAROSTAT
     &THERMOSTAT
       TYPE  CSVR
       &CSVR
         TIMECON     9.9999999999999982E+03
         &THERMOSTAT_ENERGY
              -2.8924268317976520E-01
         &END THERMOSTAT_ENERGY
         &RNG_INIT
Wiener process for Thermostat # 1        1 F T F   1.8360017598728720E-01        2587283350.0         742073417.0         736784705.0        2193663472.0        2811323491.0        3638979434.0             12345.0             12345.0             12345.0             12345.0             12345.0             12345.0             12345.0             12345.0             12345.0             12345.0             12345.0             12345.0
         &END RNG_INIT
       &END CSVR
     &END THERMOSTAT
     &AVERAGES  T
       &RESTART_AVERAGES
         ITIMES_START  1
         AVECPU     1.7906589507435740E-02
         AVEHUGONIOT     0.0000000000000000E+00
         AVETEMP_BARO     0.0000000000000000E+00
         AVEPOT    -1.4248875582944434E+01
         AVEKIN     4.7935892878195208E-01
         AVETEMP     2.4316368988795702E+02
         AVEKIN_QM     0.0000000000000000E+00
         AVETEMP_QM     0.0000000000000000E+00
         AVEVOL     6.7483345830912245E+06
         AVECELL_A     1.8897261328855686E+02
         AVECELL_B     1.8897261328855686E+02
         AVECELL_C     1.8897261328855686E+02
         AVEALPHA     9.0000000000000000E+01
         AVEBETA     9.0000000000000000E+01
         AVEGAMMA     9.0000000000000000E+01
         AVE_ECONS    -3.8018682436464748E+00
         AVE_PRESS     0.0000000000000000E+00
         AVE_PXX     0.0000000000000000E+00
       &END RESTART_AVERAGES
     &END AVERAGES
     &PRINT
       &ENERGY  SILENT
         &EACH
           MD  10
         &END EACH
       &END ENERGY
     &END PRINT
   &END MD
   &PRINT
     &TRAJECTORY  SILENT
       &EACH
         MD  10
       &END EACH
     &END TRAJECTORY
     &CELL  SILENT
       &EACH
         MD  10
       &END EACH
     &END CELL
     &VELOCITIES  SILENT
       &EACH
         MD  10
       &END EACH
     &END VELOCITIES
     &FORCES  SILENT
       &EACH
         MD  10
       &END EACH
     &END FORCES
     &RESTART  SILENT
       &EACH
         MD  10
       &END EACH
     &END RESTART
   &END PRINT
 &END MOTION
 &FORCE_EVAL
   METHOD  FIST
   &MM
     &FORCEFIELD
       VDW_SCALE14     1.0000000000000000E+00
       EI_SCALE14     1.0000000000000000E+00
       SHIFT_CUTOFF  T
       DO_NONBONDED  T
       IGNORE_MISSING_CRITICAL_PARAMS  T
       &SPLINE
         R0_NB     2.5000000000000000E-01
       &END SPLINE
       &NONBONDED
         &LENNARD-JONES
           ATOMS Br Br
           EPSILON     1.2630795322675199E+02
           SIGMA     3.6900000000000004E+00
         &END LENNARD-JONES
         &LENNARD-JONES
           ATOMS Cs Pb
           EPSILON     8.6920055954630968E+01
           SIGMA     3.6699999999999999E+00
         &END LENNARD-JONES
         &LENNARD-JONES
           ATOMS Cs Cs
           EPSILON     2.2644852172126850E+01
           SIGMA     4.5300000000000002E+00
         &END LENNARD-JONES
         &LENNARD-JONES
           ATOMS Pb Pb
           EPSILON     3.3363415533600227E+02
           SIGMA     6.1000000000000005E+00
         &END LENNARD-JONES
         &LENNARD-JONES
           ATOMS Br Cs
           EPSILON     5.3481070753900497E+01
           SIGMA     3.6300000000000003E+00
         &END LENNARD-JONES
         &LENNARD-JONES
           ATOMS Br Pb
           EPSILON     2.0528187276773045E+02
           SIGMA     2.9800000000000000E+00
         &END LENNARD-JONES
       &END NONBONDED
       &CHARGE
         ATOM Cs
         CHARGE     4.1739999999999999E-01
       &END CHARGE
       &CHARGE
         ATOM Pb
         CHARGE     8.3479999999999999E-01
       &END CHARGE
       &CHARGE
         ATOM Br
         CHARGE    -4.1739999999999999E-01
       &END CHARGE
     &END FORCEFIELD
     &POISSON
       PERIODIC  XYZ
       &EWALD
         EWALD_TYPE  SPME
         GMAX  62 62 62
         O_SPLINE  4
       &END EWALD
     &END POISSON
     &PRINT
       &FF_INFO  LOW
         SPLINE_INFO  F
         SPLINE_DATA  F
       &END FF_INFO
     &END PRINT
   &END MM
   &SUBSYS
     &CELL
       A     1.0000000000000001E+02    0.0000000000000000E+00    0.0000000000000000E+00
       B     0.0000000000000000E+00    1.0000000000000001E+02    0.0000000000000000E+00
       C     0.0000000000000000E+00    0.0000000000000000E+00    1.0000000000000001E+02
       PERIODIC  XYZ
       MULTIPLE_UNIT_CELL  1 1 1
     &END CELL
     &COORD
Cs   -4.5330324819326173E-01   -1.2953502747275807E+00   -5.1961972298772885E+00
Cs    5.3927902660376448E-01   -7.0566527391987384E+00   -5.7161344812065868E+00
Cs    1.2237550805560620E+00   -1.1445998079296686E+01   -4.1609263120359516E+00
Cs   -5.4843566749041628E+00   -7.8765190963275886E+00   -3.9887117734200097E+00
Br   -7.8488263231532622E+00   -1.4786445896293310E+01   -6.0640467523524491E+00
Br    1.1742836239128501E+01   -3.0080286476246858E+00   -1.1277308859233134E+01
Br   -2.8930053611976350E+00   -3.7212958457568279E-01   -1.1615564941185635E+01
Cs   -1.2108110968064365E+00    4.8897021199479855E+00   -6.1711305714751727E+00
Cs   -9.1144953350169255E-01   -2.6213592048926943E-01    6.6388404865951461E-02
Cs    1.1195475241270196E+00   -5.0390719922740050E+00    8.8038036979551326E-01
Br   -4.9132976438630829E+00   -4.0507772629347567E+00    3.8411178743357821E+00
Cs   -9.7653927898026893E+00   -4.8052437088657580E+00    1.3732547688905855E+01
Cs    1.3155344668431056E+01   -9.3177183103649899E+00   -4.3093886849223662E-01
Cs   -7.2132121900775985E+00    4.3721955782342352E+00   -1.4571918317197158E-01
Cs   -1.7414891638943459E+00    1.0486085054707599E+01   -1.5096828634163924E+00
Cs   -1.3262619188798594E+00    5.5565826128903826E+00   -2.7385563739427166E-01
Cs    8.9122471872978351E-02    9.4661564241665364E-01    5.8623171868960311E+00
Cs    1.3406405159714250E+00   -5.2672336220902505E+00    6.7246284282480771E+00
Cs    3.0926644540498245E+00   -1.1681256301497671E+01    7.1716572786318649E+00
Cs   -6.4730598874886320E+00    5.8872866217829287E+00    1.2923963223741721E+01
Cs   -5.9347614488744993E+00   -3.0324182324967008E+00   -1.1261503925897873E+01
Cs   -4.4154679783232424E+00   -1.3641356097137164E+01   -3.3830248489667318E+00
Cs   -5.4845307950570419E+00    4.3405364494507892E-01    6.1503536594797819E+00
Br   -1.8037461371759256E+00   -3.1181112452137616E+00    9.7235168583998954E-01
Cs   -5.1776095414725554E-01    6.6279978601192573E+00    5.3626297499613562E+00
Br    1.2254086030978943E+01   -8.9023799930021283E+00   -1.0065549374046727E+01
Cs    2.0753351207729405E+00   -3.6546389834151363E+00    1.2428799661854688E+01
Br   -2.6339564848459331E+00   -1.8601564627671683E-02    3.1057195191889853E+00
Br   -7.0953418247355557E+00   -2.8590056375264910E+00    1.2719578396669604E+01
Cs    8.4956165133099049E+00    1.2278212530264653E+01   -9.2642638209113883E+00
Cs   -1.0626257627437745E+01   -6.4587492915433886E+00    7.7152481279030578E+00
Cs   -4.3626795377326806E+00   -5.7619143463080364E+00    6.8988612911395295E+00
Cs   -7.5377283157113713E+00    9.1532713331028290E+00   -6.4671073660794196E+00
Br   -8.7292397904858046E+00   -8.9308426838337862E+00    1.2360626666763544E+01
Br   -6.5140108437152922E+00   -9.3422552889769133E+00    8.4685697049881874E+00
Cs   -1.1082348634013080E+01   -8.8473516860719528E+00   -3.0442408349630412E+00
Cs   -7.3162775856994351E+00    3.8824669569317791E+00   -6.5869231949751876E+00
Br   -7.2071436764994310E+00   -6.0748172453178917E+00    1.0327418418027507E+01
Cs    1.0686673854070325E+01    9.6087205331794436E+00    9.6569789136912902E+00
Br   -1.2951932614110921E+01    7.8932689139399708E+00    8.1674419859258425E+00
Br   -5.5064244204706059E+00   -4.2817820382853187E+00   -2.1118461215751059E+00
Cs    9.8688679485241904E-01    1.7521638213553317E+00    1.1190689817043429E+01
Cs    1.0480892432764064E+01    7.7053148209747366E+00   -1.2566701212303795E+00
Cs   -1.1456919216278527E+01   -9.3320383913869769E+00   -8.4181258970235451E+00
Cs    1.1500980864438020E+01    1.9270176847219216E+00    4.7016367155189949E+00
Cs   -1.3589357480580613E+01    8.3136840571216517E+00   -7.4131551022795668E+00
Cs    1.3272593739496992E+01   -7.5319766720484660E+00    6.5338977263888829E+00
Cs    5.4869190387817266E+00   -6.3696922915986649E+00   -1.1072190594812586E+01
Cs    8.5293260447730042E+00   -9.1137078234748969E+00    6.4126807195003774E+00
Cs   -3.4830772097143470E+00   -1.2045743457368815E+01    2.9730635530565848E+00
Cs    5.7633313263642414E+00   -1.2155303213135452E+01   -1.0441038398692964E+01
Cs    1.0816275517810734E+01    8.3175248521035456E+00   -7.5771959387862751E+00
Cs    1.1208258385952474E+01    1.2976452735007840E+01    3.7144589961194909E+00
Cs    1.0074238342466995E+01    5.3217130121756284E+00   -1.3054085001274222E+01
Cs    3.6817694878774126E-01   -6.4886678447005925E+00   -1.1389277728970770E+01
Cs   -1.1656480941336069E+01   -3.1799495765830543E+00   -5.9914774080955207E+00
Cs    7.5587314665448639E+00   -2.5241831750847896E+00    1.1933334026370026E+01
Cs    1.2201929533200994E+01   -2.4392984131967927E+00    5.4218902374132947E+00
Cs   -7.8568617069983784E+00   -9.8067597172599008E+00    1.5606524391734679E+01
Cs    6.7759651724178660E-01   -1.3987811560068548E+00   -1.2856366784604624E+01
Cs   -1.5318267175234568E+00    1.2558243408799578E+01    3.8413599569308854E+00
Cs   -2.4831874522279318E-01    3.7050333690494983E+00   -1.2966949426597456E+01
Cs    6.4984133606765200E+00   -4.1175159303671943E-01   -6.8205923598384928E+00
Cs    6.3568322943965248E+00   -5.9576820071782501E+00   -5.4677772950377586E+00
Cs   -3.1098933845739172E+00   -1.0440456088222332E+01    9.1636966797937767E+00
Cs   -1.0126319910815871E+01   -1.8741549958588306E+00    6.5870963681633325E+00
Cs    5.2925690539046881E+00   -1.7686046807042366E+00   -1.2343204486608863E+01
Cs    3.9484457081815290E+00    1.0294021826080602E+01   -1.3883003183672999E+01
Cs    2.2134464772563520E-01    6.9478611497794605E+00    1.0346983407647366E+01
Cs   -8.0764446226053348E+00    1.1565342939129742E+01    5.2433173094534258E+00
Cs    4.1307258605479449E+00    1.0526329062922915E+01   -8.8598324210829507E+00
Cs    5.5285020431295058E+00    5.6731191091880016E+00   -7.9232072671824412E+00
Cs    6.1783518048307302E+00    9.6480627960234500E-01   -4.8541650202986902E-01
Cs    6.2886502355438001E+00   -4.8068815619347633E+00    1.2561648233427927E-01
Cs    7.0272147607455810E+00   -1.1435247286128099E+01    5.3675555893918891E-01
Cs    5.0817892540728620E+00    4.3201313724360553E+00   -1.2932201673583394E+01
Cs   -7.6328742939450827E+00    6.1725975974220519E+00    5.6364551695602696E+00
Cs   -6.3586556371076295E+00   -9.3776873476023273E+00   -9.4964609725852931E+00
Cs    4.1098952654736580E+00    6.5965875372669460E+00   -1.7767304102674208E+00
Cs    6.6119660587694735E+00    1.7335912379799230E+00    5.5233059513816958E+00
Cs    7.3656220372889472E+00   -3.8586908868292089E+00    5.2818042372409391E+00
Cs   -7.2881055514074928E+00    9.6050626072986010E+00   -1.1038625582295407E+00
Cs    1.1622434791568802E+01    1.9963610072739923E+00   -9.1083663550907767E-01
Cs   -5.9215522144328121E+00   -1.0589381696380220E+00    1.3477764436058883E+00
Cs   -1.2090277238390232E+01    4.1986892390654447E+00    6.5505103904961466E+00
Cs   -4.7679674513582988E+00    1.3675791276533285E+00    1.1236268023746607E+01
Cs    4.6432176482241214E+00    1.4523261562468537E+01    3.4139304205003862E+00
Cs    4.7079718953922720E+00    8.0246472155061106E+00    5.4904790500030920E+00
Cs    6.3228386160341143E+00    2.4659651648268093E+00    1.1246784053498631E+01
Cs    3.7408681279964511E+00    1.1514040780086150E+01   -2.4961479308687387E+00
Cs    1.1761839535536796E+01    1.2411216161927243E+00   -6.0398067588301405E+00
Cs    1.1693966810664010E+01   -5.3632013405471888E+00   -5.5285647168631042E+00
Cs    9.1052537947620369E+00   -8.2314106129210955E+00    1.1397434350324913E+01
Cs    7.7666207230658086E+00    1.4416711922012208E+01   -4.3700440763038477E+00
Cs   -1.2334461845596742E+01    5.3455688305396549E+00    1.0882146033339518E+01
Cs   -5.8963821340028177E+00    3.9445367190551939E+00   -1.2922360030716041E+01
Cs   -1.3028137594116094E+01    7.8445034587122251E+00   -7.3495163460412483E-01
Cs   -3.8950153995355898E+00   -4.8335712171616514E+00    1.1899755958364757E+01
Cs   -2.4810521874819358E+00   -9.7549730444850429E+00    1.4096975295282588E+01
Cs    5.4879912663378345E+00    8.6449794602499495E+00    9.8698927913328589E+00
Cs    1.2971762602469967E+01   -3.3662514243584236E+00    2.8945081434648190E-01
Cs   -1.2553083170953892E+01   -2.2457993588387595E+00    1.3333817704744966E+00
Cs   -7.7617638875959569E+00    1.0211879512023748E+01   -1.0870247118240410E+01
Cs   -1.2002100702661519E+01    3.0655806724073558E+00    3.9665854802690698E-01
Cs   -8.8407998410898756E+00   -1.5846007273065281E+01   -2.8614974681528880E+00
Cs   -1.0682312916647454E+01   -8.0647702773678809E+00    1.6321550388519559E+00
Cs   -5.6526766989629014E+00   -7.0140039749067560E+00    1.0899868591256099E+00
Cs   -8.7305298580808319E+00   -1.1817833135251870E+01    1.0479440253219716E+01
Cs    1.3579581980270248E+01   -2.0183081189051943E+00    1.0270387251429668E+01
Cs    1.0087034569856383E+01    8.7624795727308058E+00    3.5810990893170573E+00
Cs   -1.2152181980353561E+01    2.8246672903556114E+00   -6.6438748117193498E+00
Cs   -5.7016870442982510E+00   -1.9365785234868389E+00   -5.0893960371482390E+00
Cs   -9.1710214777872370E+00   -1.3937147620729769E+01    4.5167851412631670E+00
Cs    1.1259047691204666E+01   -6.1169598044927271E+00   -1.2332009321520083E+01
Cs   -6.0586709446838185E+00   -1.4025963096559483E+01   -8.5805085684186011E+00
Cs   -2.4200919405546766E+00    9.5763118917805876E+00   -1.3338601730415112E+01
Cs   -2.2841896845135190E-01   -1.2773068701948143E+01   -9.2851754070913977E+00
Cs   -1.6836109607714118E+00    1.0607755953790813E+01   -8.2777434077806724E+00
Cs   -7.9806521405351702E+00    1.2318684425266074E+01    1.0284734828618372E+01
Cs    2.2991397442167787E+00   -1.0419805989700821E+01    1.5502307599196619E+00
Cs   -1.1418411048318484E+01    2.6828675344918675E+00   -1.1873344384769224E+01
Cs   -1.3244093011190852E+01    1.0510487190206311E+01    5.7754204071709303E+00
Cs    7.5273285801477385E+00   -1.1710108483882200E+01   -5.0514153483853157E+00
Cs    1.1944809866742556E+01    2.4632576306013923E-01   -1.1902223255922461E+01
Cs   -1.2560482405637194E+00    1.3346234669277779E+01    9.1222530873468362E+00
Pb    3.0019704496431014E+00   -2.9305665896448860E+00   -3.1553890024961788E+00
Pb    3.6912523132347088E+00   -8.6463580340552255E+00   -1.9148017886054778E+00
Pb   -7.9924153429647600E+00   -4.2764514174410140E+00    4.1761900373260863E+00
Pb   -1.9211643407335133E+00   -9.8886222134857409E+00   -9.3891881417107081E-01
Pb    1.4836275257175493E+00    8.6616080830787396E+00   -4.8426835410747833E+00
Pb    2.7091887556687868E+00    2.8681522038383656E+00   -3.7356423646594248E+00
Pb    4.1845333484881326E+00   -1.9171205189058989E+00    2.8491671931473217E+00
Pb    4.6082562035813091E+00   -8.0607942687195013E+00    4.2146364704422004E+00
Pb   -4.5076510757641550E+00    8.8065509449276504E+00    1.9311964702769973E+00
Pb    1.4588315619765477E+00    9.5723112107900992E+00    1.3927334452107565E+00
Pb    2.6137661660362190E+00    3.9504379449856453E+00    2.2689584341868461E+00
Pb    4.2129472312306877E+00   -1.2436990190469404E+00    8.9105501355556029E+00
Pb    5.4310339463516666E+00   -6.8415467466872828E+00    9.7365648988920341E+00
Pb   -3.4239613908713777E+00    2.8732809259741270E+00    2.5677386501210915E+00
Pb    1.9540605528653316E+00    1.0459375152900039E+01    7.2291661697041052E+00
Pb    2.9556411324815826E+00    4.6500615591664074E+00    8.4584106111817992E+00
Pb   -2.0328566968976669E+00   -2.0000075924334961E+00    9.6093424644333236E+00
Pb   -7.5190959177601284E+00   -1.0087929216503426E+01    5.6137969693874625E+00
Pb   -9.4754314581576189E+00    5.2018116303301443E-01   -2.4121614450391853E+00
Pb   -2.8611594425027591E+00   -4.8942945016974235E+00   -7.8468080135121339E+00
Pb   -1.1330724721936138E+00   -8.8262234951614644E+00    4.9882702595633814E+00
Pb   -4.3763504422430941E+00    7.4831984097218900E+00   -4.1869618538728028E+00
Pb   -1.0566226990147004E-01   -7.7206631778608115E+00    1.0825610341546192E+01
Pb   -8.5906602266329379E+00   -5.5137330921000984E+00   -1.7917402761696581E+00
Pb   -7.9090505789129502E+00   -1.1516251287649798E+01   -1.1562025138144999E-02
Pb   -3.3788275951007321E+00    1.7764613714063306E+00   -3.3766281553124280E+00
Pb   -6.1990130834651094E+00   -8.5748444698301007E+00    1.1180805697527575E+01
Pb   -8.9395405577709930E+00   -6.2379940268551941E+00   -7.4087843179117465E+00
Pb    8.9800099584939499E+00   -3.4339515151019206E+00   -9.7462313373518530E+00
Pb    9.4220383885685290E+00   -9.6975675035383375E+00   -8.8618094708969419E+00
Pb   -2.8611409565488453E+00   -1.0983551044005788E+01   -6.6657117986078775E+00
Pb   -1.0208310378244223E+01    5.9561962960344070E+00   -9.3976612151670160E+00
Pb    3.0172776145171465E+00   -4.1189983909108934E+00   -9.0124224704765155E+00
Pb    3.2048584621602640E+00   -9.6547473444609224E+00   -7.6460711764538045E+00
Pb   -3.8612886165463505E+00    9.5908259604116375E-01   -9.3231397556881905E+00
Pb    1.6608904809092782E+00    8.0005227752875214E+00   -1.0901928945932641E+01
Pb    2.1426651501335434E+00    2.1128302654075846E+00   -9.8668730350844704E+00
Pb    9.2451504231262689E+00   -2.2431878070486242E+00   -3.4108428482745032E+00
Pb    9.7733037658549549E+00   -8.3451653917307045E+00   -2.9877104957015472E+00
Pb   -8.2057843703903739E+00   -2.7874956605050909E+00    1.0229494146516235E+01
Pb    7.5610681705331286E+00    8.3489919838621720E+00   -1.1629009905496590E+01
Pb   -9.2949986365524175E+00   -4.0144976224369883E-01   -8.8065607981776584E+00
Pb   -4.0876598762688721E+00    1.0148126224956073E+01    7.5458895127563235E+00
Pb    7.0724975832884622E+00    9.7890114624058882E+00   -5.6887901747283669E+00
Pb    8.6332863813532619E+00    4.2951765126669343E+00   -3.9725109389552022E+00
Pb    9.7352994610234749E+00   -6.9891677769973592E-01    2.1460370074621946E+00
Pb    1.0638570427673720E+01   -6.6395254512612460E+00    2.9904789718163616E+00
Pb    8.7297671912031980E+00    2.7880835693181414E+00   -9.6640580195345827E+00
Pb   -3.2745820413293534E+00    4.2999161275358526E+00    8.6765587753044020E+00
Pb    7.3471048105988794E+00    1.1133267482144385E+01    5.5844296880028432E-01
Pb    8.6175339643289846E+00    5.3736475937035157E+00    1.9309939018094493E+00
Pb    9.9084069288179126E+00    7.0719347978315439E-01    8.3035682246351215E+00
Pb    1.1167934300262674E+01   -5.4653375578673300E+00    9.2569017188753371E+00
Pb    7.7234663432490818E+00    1.2243925516683994E+01    6.9112806008366965E+00
Pb    9.2463554508690322E+00    6.3125288682719987E+00    7.4820030067740984E+00
Pb   -8.9693908872420316E+00    3.1831655948839965E+00    9.4997692230159636E+00
Pb   -1.8495722475777350E+00   -2.7262656108117089E+00    3.8311422011335159E+00
Pb   -1.0308725417649049E+01    7.7948745535381310E+00    2.5268624047592625E+00
Pb   -1.0291950461864610E+01    6.6006172511824968E+00   -3.7232181977603713E+00
Pb   -8.9764804971253600E+00   -1.2163444218219832E+01   -6.1713132569731837E+00
Pb   -4.2155433133961004E+00    7.0423623918912819E+00   -1.0386258839812417E+01
Pb   -9.1707407875651263E+00    1.7647734326687039E+00    3.5922294118135198E+00
Pb   -1.0428160884623125E+01    8.8187557037455591E+00    8.3164957365070755E+00
Pb   -2.4907685038741763E+00   -3.8892454397402463E+00   -1.8109802081231057E+00
Br    3.1736633250490420E-01   -3.5987515739930878E+00   -2.3143125042545298E+00
Br    2.6505151323109821E+00   -3.6234375280370137E+00   -6.1075054535053441E+00
Br    2.8778874413338094E+00    3.3873763637555308E-02   -3.3798474932502098E+00
Br    5.0389588505247307E-01   -8.3495750838053198E+00   -2.1753386985332956E+00
Br    3.2541417003441677E+00   -8.6889783020584801E+00   -4.7831186991906707E+00
Br    3.6136971592974994E+00   -5.6358932048140344E+00   -2.3083950657601386E+00
Br   -2.2785514607757138E+00   -4.7150399778763941E+00   -4.5626865151573490E+00
Br   -7.5188736499629227E+00   -4.1487548945046413E+00    6.9469449108785426E+00
Br   -3.0601960607250955E+00   -1.0100499981541273E+00   -2.9066474888093627E+00
Br    3.0684678354937565E+00   -1.1349884721185845E+01   -1.5088313473498991E+00
Br    1.2775814769687006E+01   -4.4023178146011627E-01    2.3889552138006680E+00
Br   -4.9650373254663283E+00   -1.0306066096738048E+01   -1.1948277930310518E-01
Br   -1.0676236393963983E+01   -4.6251016412099748E+00    4.7288590210202432E+00
Br   -8.2158342283722341E+00   -5.0420311823856307E+00    1.1980080646902245E+00
Br    1.3650510547478792E+01   -6.5075722681401240E+00    2.5217795974309123E+00
Br   -1.4939383149050167E+00    7.8688181099340566E+00   -4.5127249235875375E+00
Br    1.5812427612945039E+00    8.1075522594693155E+00   -7.8691289604604178E+00
Br    6.0294750590957102E-01    1.1133743838755063E+01   -6.1369329297417847E+00
Br   -5.3196101553642094E-01    1.9630894986687011E+00   -3.6645347018755086E+00
Br    2.7376925242730215E+00    2.5349049615489418E+00   -6.6554230800582221E+00
Br    1.6490489459105091E+00    5.5176867896696606E+00   -4.2010489918916125E+00
Br    1.3131570735592812E+00   -2.0642247310764223E+00    3.1480073363681180E+00
Br    4.0048110169187181E+00   -2.2682324487537717E+00   -1.0573721923474609E-01
Br    4.0386902290284743E+00    1.1359104058772387E+00    3.0609538567684593E+00
Br    1.7841234573119193E+00   -8.4137994432995242E+00    4.5496971412682070E+00
Br    4.3324079570518093E+00   -8.0879852856545256E+00    8.5113391564225593E-01
Br    4.4050884454502812E+00   -5.1162241377573325E+00    3.3051795083900566E+00
Br   -6.8852331314165012E+00    7.1740781177164505E+00   -9.4632024779169530E+00
Br   -4.7494318811877356E+00    7.4008378276967983E+00   -1.3127525411234011E+01
Br    5.0691581098988925E+00   -1.1002058256151054E+01    4.0040052478309907E+00
Br   -4.2335833999728090E+00    1.0062380874457366E+01   -1.0809029938428578E+01
Br   -4.1206688284141419E+00    4.0804401436980786E+00   -1.0050255328707198E+01
Br   -8.5973760602458551E+00   -1.4194672195512206E+00    3.8399043472327441E+00
Br   -2.5753760848628624E+00   -1.0939435419641471E+01   -3.7394614517936593E+00
Br   -7.6072652439293638E+00    7.9994783680761472E+00    2.3337229656933038E+00
Br   -4.0662449962045235E+00    7.7646622896674051E+00   -1.0874362950897669E+00
Br   -5.2132806215286207E+00    1.0975241563095748E+01    7.0997287527531094E-01
Br   -1.3415742888302060E+00    9.0077652611737093E+00    1.7980846137234701E+00
Br    1.3866430515396215E+00    8.9776290651696495E+00   -1.9020590717274097E+00
Br    1.0333474432866838E-01    1.2694175812548240E+01    2.8369052754581886E-01
Br   -6.3370543485920061E-01    3.6301755582344786E+00    2.5978081099641250E+00
Br    2.7527211183384583E+00    3.4215782266618824E+00   -4.8504993826569914E-01
Br    1.7018868277710422E+00    6.6512228765511612E+00    1.1671158495800482E+00
Br    1.3932539968336226E+00   -1.5104409005585961E+00    8.7663999708795490E+00
Br    4.7735277929657443E+00   -1.9550429308681050E+00    5.9445882578293059E+00
Br    3.4336328037692119E+00    1.7348461153242098E+00    8.8161957430630356E+00
Br    2.6657425402517436E+00   -6.6596136598956388E+00    1.0502101054165019E+01
Br    4.7270340507259334E+00   -7.4948562751372361E+00    7.0830711913934055E+00
Br    4.4123372507176208E+00   -3.9657264864755639E+00    9.1890542207343415E+00
Br   -1.1935569198048654E+01    1.2816003164455216E+00    3.4420297789908298E+00
Br   -9.1660595778339538E+00    1.3849876027751544E+00    5.3179100836389681E-01
Br    6.6322554400199207E+00   -9.3282548529658129E+00    9.7527612115937341E+00
Br   -9.1057293869288571E+00    4.5262265010889751E+00    2.9231108369794421E+00
Br   -8.3391210303992587E+00   -2.1969192460430759E-01    9.2485134139596266E+00
Br   -2.7959978520862157E+00   -7.1010316616274336E+00   -8.9079687058783030E-01
Br   -6.2653894450505909E+00    1.8420790614753499E+00    3.1388286423223999E+00
Br   -3.2906657258474925E+00    3.0260700845724524E+00   -1.7860766053954866E-01
Br   -4.0043819380219121E+00    5.7113826529357103E+00    2.6001775063393104E+00
Br   -1.0371549047951361E+00    9.9936599700070552E+00    7.8036661785899781E+00
Br    1.6733674508199372E+00    9.9447352398784918E+00    4.5155833866924810E+00
Br    9.4715642736847094E-01    1.3278447720469028E+01    6.3849205289402340E+00
Br   -1.4256930171222221E-01    4.2531588384245103E+00    8.2352261238273829E+00
Br    2.7154725111667815E+00    4.4524979169435337E+00    5.3217674234248902E+00
Br    2.5009541280704171E+00    7.5145473530065416E+00    8.0162516794395309E+00
Br   -4.6716215633454006E+00   -2.5476427082458275E+00    9.2250446539242095E+00
Br    4.1086688297133085E+00   -7.7173728123065444E-01    1.1788487115218464E+01
Br   -1.8856266273177051E+00   -2.5752824281326578E+00    6.7871608049118928E+00
Br   -2.7581811075065530E+00    8.8701299494902730E-01    8.6838381119788135E+00
Br   -1.3094586487861770E+00   -1.2518057469254902E+01   -3.0967787667825691E-01
Br    6.5935026572413564E+00   -5.9609557461648048E+00    1.2179262012330044E+01
Br   -1.2080185751527587E+01    5.7492783909184400E-03   -1.7901133860494212E+00
Br   -5.6267312526013114E-01   -1.1416543487519300E+01    6.0829767282025493E+00
Br   -1.1114542424282234E+01   -6.3617546097626940E+00   -1.1972296340230211E+00
Br    1.8582022412049142E+00    1.0728797501422898E+01    1.0009077537549850E+01
Br   -8.3434859984375294E+00   -5.8953429873823815E+00   -4.5703780784873764E+00
Br   -9.2295068785207182E+00   -2.4972554302091301E+00   -1.7322322201918039E+00
Br    2.5885040673814990E+00    4.7590600230621476E+00    1.1345331929815401E+01
Br   -7.2514925238873253E+00    6.7438314815595186E+00   -4.2156245669535677E+00
Br   -3.7773158083052776E+00    7.3051874743453631E+00   -7.0330364916635535E+00
Br   -4.8987376184496103E+00    1.0266274208959159E+01   -4.0677826044316259E+00
Br   -6.4643213454954660E+00    1.1957034575420249E+00   -2.1865775527571083E+00
Br   -1.0078582744294831E+01   -9.4547969304228481E+00    6.5523698456951651E+00
Br   -3.2466514175241490E+00    1.3798089243413680E+00   -6.3376326094827551E+00
Br   -6.0269979568228482E+00   -5.8553704751229496E+00   -7.7316922321655452E+00
Br   -2.8766680854095568E+00   -4.9653080347158118E+00   -1.0980784404513443E+01
Br   -3.9397048322525157E+00   -1.9487763672902112E+00   -7.9347100282540337E+00
Br   -3.4896582298904040E+00    4.6131479198296441E+00    1.1553385110432872E+01
Br   -3.3284877814910310E+00   -8.1871254981305910E+00    1.1037366367128032E+01
Br   -6.7714953029235569E-01   -7.6223117909031757E+00    7.9096467183076715E+00
Br   -9.5542906630462865E-01   -4.8701480574938421E+00    1.0549645349546880E+01
Br   -7.6390759439942624E+00   -1.1628755893768510E+01    2.8106936867173618E+00
Br   -8.1089862882499464E+00   -7.6254997131645537E+00    3.9869447131448461E+00
Br   -9.4440595748984073E+00    8.9347426905133158E+00    1.1268606665791781E+01
Br    1.0194845591670585E+01    1.0864767355278163E+01    7.4505117310586044E-01
Br   -6.0600698227520660E+00   -7.6203999687777308E+00    1.4025848936947000E+01
Br    9.5189860256933603E+00    1.1205194586749318E+01   -6.4177919932587217E+00
Br    1.1463632588061293E+01    5.6874282536184353E+00    1.6628753936349669E+00
Br   -9.1611520396688597E+00    2.6765497479003417E+00    1.2354530099427372E+01
Br   -1.1605861944151437E+01   -6.3745103222416963E+00   -6.9741291726924555E+00
Br    1.2898310669394398E+01    7.4738449194976819E-01    7.6393201904848773E+00
Br   -3.9530418468134632E+00   -9.0279687801151436E+00    4.8374288299533497E+00
Br    5.9938460156787894E+00   -3.5125227610382757E+00   -9.3747299913625852E+00
Br    8.2313689554730871E+00   -4.4952114961463412E+00   -1.2267982559889635E+01
Br    1.3834617149696392E+01   -4.9306887556126906E+00    8.1532330490086924E+00
Br    9.1159705836420688E+00   -2.8103264636054481E-01   -9.7501690998405035E+00
Br   -5.5360786159946889E+00   -1.1085830366156863E+01    1.2000834140774776E+01
Br   -1.1735468998871912E+00   -9.5255907551112067E+00    1.9470468978692270E+00
Br   -1.0206459295863399E+00   -5.7142029707093878E+00    4.1942212600407913E+00
Br    6.3331776109095044E+00   -1.0000517388484687E+01   -7.9194840753725826E+00
Br   -5.7708828376068873E+00   -1.1254650680791485E+01   -6.4144382109043105E+00
Br    7.7910019246029387E+00   -8.7768811323875120E+00   -1.1102824676281426E+01
Br    9.5648164621410618E+00   -5.6984274527600114E+00   -8.2655347243263346E+00
Br   -2.4347628249479239E-01   -1.0691775305997863E+01    1.0844450475929310E+01