 # Version information for this restart file 
 # current date 2021-06-17 12:32:19.782
 # current working dir /user/ub2042/exercises/2_fitting/MM_MD_workdir/md_settings
 # Program compiled at                              Thu Apr 22 21:44:59 EDT 2021
 # Program compiled on                cpn-k07-07-02.compute.cbls.ccr.buffalo.edu
 # Program compiled for                                                    local
 # Source code revision number                                       git:36754bb
 &GLOBAL
   PRINT_LEVEL  LOW
   PROJECT_NAME cp2k
   RUN_TYPE  MD
 &END GLOBAL
 &MOTION
   &MD
     ENSEMBLE  NVT
     STEPS  10000
     TIMESTEP     2.4999999999999996E+00
     STEP_START_VAL  1000
     TIME_START_VAL     2.5000000000000191E+03
     ECONS_START_VAL    -1.3925666412857368E+01
     TEMPERATURE     3.0000000000000000E+02
     &BAROSTAT
       PRESSURE     1.0100000000000000E+00
       TIMECON     9.9999999999999982E+03
     &END BAROSTAT
     &THERMOSTAT
       TYPE  CSVR
       &CSVR
         TIMECON     9.9999999999999982E+03
         &THERMOSTAT_ENERGY
              -3.7042648428513625E-02
         &END THERMOSTAT_ENERGY
         &RNG_INIT
Wiener process for Thermostat # 1        1 F T F   1.0152681475302341E+00        4151329329.0        2923023059.0        3467513410.0         632595511.0         113404566.0        2008274716.0             12345.0             12345.0             12345.0             12345.0             12345.0             12345.0             12345.0             12345.0             12345.0             12345.0             12345.0             12345.0
         &END RNG_INIT
       &END CSVR
     &END THERMOSTAT
     &AVERAGES  T
       &RESTART_AVERAGES
         ITIMES_START  1
         AVECPU     1.7926823368063206E-02
         AVEHUGONIOT     0.0000000000000000E+00
         AVETEMP_BARO     0.0000000000000000E+00
         AVEPOT    -1.4318290131425123E+01
         AVEKIN     4.0830277189864456E-01
         AVETEMP     2.0711913901058722E+02
         AVEKIN_QM     0.0000000000000000E+00
         AVETEMP_QM     0.0000000000000000E+00
         AVEVOL     6.7483345830898909E+06
         AVECELL_A     1.8897261328856308E+02
         AVECELL_B     1.8897261328856308E+02
         AVECELL_C     1.8897261328856308E+02
         AVEALPHA     9.0000000000000000E+01
         AVEBETA     9.0000000000000000E+01
         AVEGAMMA     9.0000000000000000E+01
         AVE_ECONS    -2.2771165885482336E+00
         AVE_PRESS     0.0000000000000000E+00
         AVE_PXX     0.0000000000000000E+00
       &END RESTART_AVERAGES
     &END AVERAGES
     &PRINT
       &ENERGY  SILENT
         &EACH
           MD  10
         &END EACH
       &END ENERGY
     &END PRINT
   &END MD
   &PRINT
     &TRAJECTORY  SILENT
       &EACH
         MD  10
       &END EACH
     &END TRAJECTORY
     &CELL  SILENT
       &EACH
         MD  10
       &END EACH
     &END CELL
     &VELOCITIES  SILENT
       &EACH
         MD  10
       &END EACH
     &END VELOCITIES
     &FORCES  SILENT
       &EACH
         MD  10
       &END EACH
     &END FORCES
     &RESTART  SILENT
       &EACH
         MD  10
       &END EACH
     &END RESTART
   &END PRINT
 &END MOTION
 &FORCE_EVAL
   METHOD  FIST
   &MM
     &FORCEFIELD
       VDW_SCALE14     1.0000000000000000E+00
       EI_SCALE14     1.0000000000000000E+00
       SHIFT_CUTOFF  T
       DO_NONBONDED  T
       IGNORE_MISSING_CRITICAL_PARAMS  T
       &SPLINE
         R0_NB     2.5000000000000000E-01
       &END SPLINE
       &NONBONDED
         &LENNARD-JONES
           ATOMS Br Br
           EPSILON     1.2630795322675199E+02
           SIGMA     3.6900000000000004E+00
         &END LENNARD-JONES
         &LENNARD-JONES
           ATOMS Cs Pb
           EPSILON     8.6920055954630968E+01
           SIGMA     3.6699999999999999E+00
         &END LENNARD-JONES
         &LENNARD-JONES
           ATOMS Cs Cs
           EPSILON     2.2644852172126850E+01
           SIGMA     4.5300000000000002E+00
         &END LENNARD-JONES
         &LENNARD-JONES
           ATOMS Pb Pb
           EPSILON     3.3363415533600227E+02
           SIGMA     6.1000000000000005E+00
         &END LENNARD-JONES
         &LENNARD-JONES
           ATOMS Br Cs
           EPSILON     5.3481070753900497E+01
           SIGMA     3.6300000000000003E+00
         &END LENNARD-JONES
         &LENNARD-JONES
           ATOMS Br Pb
           EPSILON     2.0528187276773045E+02
           SIGMA     2.9800000000000000E+00
         &END LENNARD-JONES
       &END NONBONDED
       &CHARGE
         ATOM Cs
         CHARGE     4.1739999999999999E-01
       &END CHARGE
       &CHARGE
         ATOM Pb
         CHARGE     8.3479999999999999E-01
       &END CHARGE
       &CHARGE
         ATOM Br
         CHARGE    -4.1739999999999999E-01
       &END CHARGE
     &END FORCEFIELD
     &POISSON
       PERIODIC  XYZ
       &EWALD
         EWALD_TYPE  SPME
         GMAX  62 62 62
         O_SPLINE  4
       &END EWALD
     &END POISSON
     &PRINT
       &FF_INFO  LOW
         SPLINE_INFO  F
         SPLINE_DATA  F
       &END FF_INFO
     &END PRINT
   &END MM
   &SUBSYS
     &CELL
       A     1.0000000000000001E+02    0.0000000000000000E+00    0.0000000000000000E+00
       B     0.0000000000000000E+00    1.0000000000000001E+02    0.0000000000000000E+00
       C     0.0000000000000000E+00    0.0000000000000000E+00    1.0000000000000001E+02
       PERIODIC  XYZ
       MULTIPLE_UNIT_CELL  1 1 1
     &END CELL
     &COORD
Cs   -1.9047549866302128E-02    1.4673425705211027E-01   -5.5958444076463199E+00
Cs   -2.2438958592346273E-01   -6.2009201072466462E+00   -5.5509383483313721E+00
Cs   -2.4671607769463116E-01   -1.1628323679725478E+01   -5.5221762519411879E+00
Cs   -6.3156222092334877E+00   -5.9615435021577534E+00   -6.2275333791065881E+00
Br   -9.4084028106846276E+00   -1.2160414955348958E+01   -8.1703685595924043E+00
Br    1.1817703013265794E+01   -2.7092390800651618E+00   -8.9096877880494691E+00
Br   -2.4359850921563782E+00    2.4150447855806951E+00   -1.1685840609627165E+01
Cs    4.2628746121116190E-01    5.5351244131523432E+00   -5.8338213767623177E+00
Cs    6.2451319939957839E-01    2.0170047481989469E-02    7.6348620589257538E-02
Cs    3.7206304427489850E-01   -5.6080045775500968E+00   -3.4164859933945146E-01
Br   -5.7103424159123106E+00   -3.0191856369489938E+00    2.9732197656882611E+00
Cs   -1.0311092717032828E+01   -6.0857575750078654E+00    1.2659577706182935E+01
Cs    1.1439842445847898E+01   -1.2339593827609823E+01    1.4304482034074331E+00
Cs   -5.8030730062754872E+00    6.0494586806366168E+00   -4.9146045910679326E-01
Cs    7.9349705827072359E-01    1.1285100962710036E+01   -7.2255079524341959E-01
Cs   -2.8494818056746340E-01    5.9714768151420641E+00    2.9095529022391114E-01
Cs    4.3662664011349395E-01   -4.1245705902248188E-03    6.5495921374020583E+00
Cs    4.4247790205471949E-01   -5.0150926702110299E+00    5.5491491075196846E+00
Cs    7.1290895611171978E-01   -1.1408643156666018E+01    6.4633707492017658E+00
Cs   -6.6083022492344599E+00    6.6429954582215052E+00    1.2004918489275680E+01
Cs   -4.8353245795808864E+00   -6.5559145841040820E-02   -1.1616315883795748E+01
Cs   -5.5228457459361016E+00   -1.1651313649947696E+01   -6.1153459400582202E+00
Cs   -5.2109253265505542E+00    1.4569976888026820E-01    5.5498612234225950E+00
Br   -2.9774531852442081E+00   -2.7386102785045288E+00    1.0668047031016969E-01
Cs    7.3324917547114643E-01    6.8298978547659255E+00    5.8433138171390109E+00
Br    1.1664921544300121E+01   -8.6840067968932448E+00   -8.9032838714971838E+00
Cs    1.6847497750177451E-01   -5.4454108133474834E+00    1.1633022877229118E+01
Br   -2.8796915583671807E+00    2.9499882892148088E-01    2.9143269414620541E+00
Br   -8.4974123775396198E+00   -3.3226285342028601E+00    1.1964774347329996E+01
Cs    1.0668854736903500E+01    1.2725501623696802E+01   -6.3973440470751832E+00
Cs   -1.0463298604192277E+01   -5.9704720291138900E+00    5.5703951970559444E+00
Cs   -5.3735208338224485E+00   -6.0996909392196841E+00    6.0634851386764899E+00
Cs   -7.1398745066629798E+00    1.1007417486031425E+01   -5.9167429461899319E+00
Br   -1.1372633294515198E+01   -8.4518407382011205E+00    9.9296525507535733E+00
Br   -9.1542900017572855E+00   -8.8697326778184102E+00    5.8095704179310710E+00
Cs   -1.2329317551982015E+01   -5.7327200062644321E+00   -5.6942172507073261E+00
Cs   -6.3986776227136026E+00    5.1986689653701204E+00   -6.4285408062933076E+00
Br   -8.5234716231782155E+00   -6.0185688623181770E+00    9.4033475197319412E+00
Cs    1.0939935331257029E+01    5.7307441371618566E+00    1.1565146154214428E+01
Br   -1.1902388211734687E+01    8.7789835274346526E+00    8.1243006880584296E+00
Br   -6.2068416047682708E+00   -3.3962124737101114E+00   -3.0770106821609797E+00
Cs    7.5319783884102232E-01    2.7963865384422570E-01    1.1882612002624667E+01
Cs    1.1278330331822639E+01    5.6090817961501482E+00    1.2176522418567810E-01
Cs   -1.1101351009347448E+01   -6.6901288499025355E+00   -1.1340000777376551E+01
Cs    1.2195124004054387E+01    5.7521689422894928E-01    4.9612280665898201E+00
Cs   -1.1731568309600139E+01    1.0601774390737138E+01   -6.3913291184353076E+00
Cs    1.1679830256864504E+01   -1.1725143478241760E+01    7.1562237710524563E+00
Cs    5.5648040055626220E+00   -5.5661673888826444E+00   -1.1309884529827883E+01
Cs    5.5885252676659807E+00   -1.1504889623784708E+01    5.4915448354389031E+00
Cs   -5.7216453134019973E+00   -1.1531584509043713E+01   -3.2339562629103935E-01
Cs    6.4024674367069041E+00   -1.1544387501471594E+01   -1.1620699503867742E+01
Cs    1.1969696968643742E+01    6.5621809905594697E+00   -5.9366482160469563E+00
Cs    1.1504010096982768E+01    1.1191232141549468E+01    5.6803809222013371E+00
Cs    1.0908753304785469E+01    6.1675965706380955E+00   -1.2253904305653222E+01
Cs    7.1729482311117990E-02   -5.4993692187999939E+00   -1.1164501214952949E+01
Cs   -1.1672551778975459E+01   -2.0519663573893543E-01   -5.8327964118561102E+00
Cs    6.1773735346721903E+00   -5.5022044619073203E+00    1.0761493671863761E+01
Cs    1.1303425775203738E+01   -5.5354067815886987E+00    6.2056838292536023E+00
Cs   -1.1007475553759827E+01   -1.1176187261061363E+01    1.1851571190088261E+01
Cs   -1.0366819398425958E-01    2.3722597777939258E-01   -1.1232438326598354E+01
Cs    2.5668280800392695E-01    1.2554160966729413E+01    6.6192889966371444E+00
Cs   -5.3842936464116620E-01    5.4489570067914403E+00   -1.1087174833067081E+01
Cs    5.8438212143070549E+00   -5.2068453951938354E-01   -5.8083014624642253E+00
Cs    5.7145467316850942E+00   -6.8568717147937326E+00   -6.0187524818125802E+00
Cs   -5.5686733701446638E+00   -1.1559387994504187E+01    5.3667631428010329E+00
Cs   -1.1378617864293899E+01   -7.8747083727829972E-02    6.9988317479852045E+00
Cs    5.5700941363465573E+00   -1.8895738818081742E-01   -1.1010015042148865E+01
Cs    5.4677083152196007E+00    1.0608101399465509E+01   -1.1431285305091212E+01
Cs    8.1128376829981019E-01    6.5438884483156734E+00    1.1965943173653780E+01
Cs   -5.3178147554319768E+00    1.2033299947029048E+01    6.6429741306432915E+00
Cs    5.0620741634231248E+00    1.1067635251496439E+01   -5.4853001635217256E+00
Cs    6.4249736023898096E+00    5.5338123157283627E+00   -6.4456584131311985E+00
Cs    6.4267794512648013E+00    1.9957623469719132E-02    1.2601277432422864E-01
Cs    6.1632973761108500E+00   -5.1581017867682641E+00    4.3626137194641351E-01
Cs    6.7186051119605565E+00   -1.0967150045607902E+01    1.8395609451761263E-01
Cs    5.7770784934395998E+00    5.6391470657522555E+00   -1.1433902804684690E+01
Cs   -5.8279931611881652E+00    6.1037314810807564E+00    6.3506040258572396E+00
Cs   -5.5867123058652606E+00   -7.2281246093507097E+00   -1.2475018074366279E+01
Cs    5.2535901178144266E+00    6.5067677210718351E+00    2.9011856422557364E-01
Cs    6.9044176644198290E+00    3.1679386904557766E-01    6.4064934418536126E+00
Cs    5.5445827287602176E+00   -6.0402039830954539E+00    5.6260320160642276E+00
Cs   -5.8167145495659991E+00    1.1293849178176144E+01   -3.1887987654428618E-01
Cs    1.1070387983353326E+01    2.4187557266503298E-01   -9.3829118342528203E-02
Cs   -5.9699902127486055E+00    3.4727757575311380E-01    1.0528663015155513E+00
Cs   -1.1462085121053230E+01    5.8872607657031510E+00    6.6871356987914901E+00
Cs   -5.1099150690499444E+00   -1.4627476817863894E-01    1.2037933303687543E+01
Cs    5.7387213644562260E+00    1.2392421796429508E+01    6.1057914523906254E+00
Cs    6.4980370236812428E+00    5.3691003097726391E+00    5.7280962724035600E+00
Cs    6.6549696793850108E+00    6.5378671949491163E-01    1.1181669924793956E+01
Cs    6.6205045208507629E+00    1.1462863072017083E+01    3.1906933265338960E-01
Cs    1.1302663025027572E+01   -6.2187665716435114E-01   -6.0163738244224527E+00
Cs    1.1675175419656076E+01   -6.2976648185818229E+00   -6.3268476165882834E+00
Cs    5.8966039031611084E+00   -1.0768518824579704E+01    1.1327622665256508E+01
Cs    1.2267236000290593E+01    1.0820157470295017E+01   -6.9132869466188462E-01
Cs   -1.0217620319787354E+01   -4.4700559331919770E-01    1.2237594001871917E+01
Cs   -5.7951219224795700E+00    6.0806352100126579E+00   -1.1746754755157088E+01
Cs   -1.1908094226280010E+01    1.0679991260352210E+01   -3.5172083092320994E-01
Cs   -5.8253843702086359E+00   -5.5421695021073418E+00    1.1142021776411521E+01
Cs   -4.9137585496380050E+00   -1.1288142983116886E+01    1.1514863698345033E+01
Cs    6.4896324327535249E+00    7.3860459368347717E+00    1.2114399232045855E+01
Cs    1.1537871035367974E+01   -6.5677422255188755E+00   -1.4657721791401244E+00
Cs   -1.0968729543584272E+01   -7.3593501189665089E-01    2.8268777849136301E-02
Cs   -6.0624384583595292E+00    1.1141036683204932E+01   -1.1583436292596295E+01
Cs   -1.1057951486934938E+01    5.6365904034493948E+00   -4.9107574885686101E-01
Cs   -1.2059725879593124E+01   -1.0919641884263241E+01   -6.6946703484597183E+00
Cs   -1.1794074890338322E+01   -5.5132453224537219E+00    4.6386397005568647E-01
Cs   -5.8336168719666022E+00   -5.9079856610785040E+00    1.5839689756327510E-01
Cs   -1.1916053209760861E+01   -1.1484371043062660E+01    6.4160124497918156E+00
Cs    1.1718173631725826E+01   -5.8950225779147463E+00    1.1451589351247502E+01
Cs    1.0575375271860212E+01    6.3770395651673857E+00    5.7472035306859555E+00
Cs   -1.1351805809709012E+01    5.2104151507291334E+00   -6.1379234161271459E+00
Cs   -5.8416978688097689E+00   -2.3360160867018878E-01   -6.1535976875926295E+00
Cs   -1.0376929142727102E+01   -1.2138387590609312E+01   -3.2549877774613389E-01
Cs    1.2747762650294108E+01   -1.1884243592103052E+01   -9.5913866854179286E+00
Cs   -1.0597802459738302E+01   -1.2184042335511821E+01   -1.2518315960054910E+01
Cs   -1.2267551566769865E+00    1.1049028987133156E+01   -1.1344028458221285E+01
Cs    1.0705425563058640E-01   -1.1034450222801370E+01   -1.1926210697424814E+01
Cs   -2.8412918735292048E-01    1.0605680012723507E+01   -6.2322430246264533E+00
Cs   -1.2117279338490899E+01    1.1032846752318457E+01    1.0534899446800534E+01
Cs    1.4002571990317828E-01   -1.1288272195426806E+01   -1.2012132501523873E-01
Cs   -1.2376381820324891E+01    2.3863162374026187E-01   -1.0949559320426873E+01
Cs   -1.1324646413439163E+01    1.1334753195018237E+01    5.4920054183447649E+00
Cs    6.3870847387462417E+00   -1.1318802193334644E+01   -5.7393813689005624E+00
Cs    1.1440969762422975E+01   -4.3408070673167370E-01   -1.1288962880755406E+01
Cs    5.5359160588412348E-01    1.1832416880882480E+01    1.1709042028480118E+01
Pb    2.9419783984937333E+00   -2.9952442035821703E+00   -3.0305899497050945E+00
Pb    3.2981245310733893E+00   -8.8976728955907660E+00   -3.1271859308293024E+00
Pb   -8.7165986689532229E+00   -3.2330198729418131E+00    3.2281230091832636E+00
Pb   -2.7626526475327280E+00   -9.2348714884963545E+00   -3.0826836962598834E+00
Pb    3.0673330267126366E+00    8.8021167302224441E+00   -2.8836766253513981E+00
Pb    3.3108217992724858E+00    2.8177531406688767E+00   -2.9920327705049261E+00
Pb    3.1190882882949995E+00   -2.8353326243132231E+00    2.9783875071988120E+00
Pb    3.2147359608815638E+00   -8.9466960791562826E+00    3.0436409501989083E+00
Pb   -3.0774621340383206E+00    9.6024042874025284E+00    3.2660780759530796E+00
Pb    2.9183793954903066E+00    9.0627730375087356E+00    3.0800449671162862E+00
Pb    3.1182747014837178E+00    2.9209144084058720E+00    3.2705255857703990E+00
Pb    3.1443389635371948E+00   -2.5869289114883447E+00    9.1385529451755740E+00
Pb    3.0251974448900323E+00   -8.6511692578218575E+00    8.8067194065208536E+00
Pb   -2.8451884584134755E+00    3.3603110178020059E+00    3.1440709224141150E+00
Pb    3.0573593290697358E+00    9.8537403764475506E+00    8.9223670305498111E+00
Pb    3.2286700155790977E+00    3.4718002730230069E+00    9.1444046750006187E+00
Pb   -2.6779292773485626E+00   -2.8113019622607003E+00    8.9815519193837581E+00
Pb   -8.7609390331847479E+00   -9.0140889800257735E+00    2.4718750210692577E+00
Pb   -8.5449527648161538E+00    2.4358826250069332E+00   -2.6885620093194742E+00
Pb   -2.9932066795953585E+00   -3.6776684634215542E+00   -8.6736236971795009E+00
Pb   -2.5299484072226921E+00   -8.9519928403484528E+00    2.8166159308607908E+00
Pb   -2.8477356959410733E+00    8.7003656323163199E+00   -3.0695227176234554E+00
Pb   -2.6033919549509310E+00   -8.8656061620997981E+00    8.9323080520091480E+00
Pb   -9.4697097962798455E+00   -3.3029059282953255E+00   -3.4497142787295725E+00
Pb   -8.7611496116090102E+00   -9.3617790250547799E+00   -3.3455193067710742E+00
Pb   -2.8227739985034708E+00    2.7738202277667035E+00   -2.8460871435869466E+00
Pb   -8.6790246298999918E+00   -9.0737517914873465E+00    8.9553624664225833E+00
Pb   -9.0096590565800341E+00   -3.4617862589101001E+00   -9.2889121243555142E+00
Pb    8.8462637775051576E+00   -3.1068608257477059E+00   -9.2118026631688874E+00
Pb    9.0051676961874811E+00   -8.8899417235172198E+00   -9.0627497937883223E+00
Pb   -2.9544301509325104E+00   -9.6516623788295934E+00   -9.1306603624664984E+00
Pb   -9.1136774932981091E+00    8.2640482952042316E+00   -9.2871267212912496E+00
Pb    2.8017673114230495E+00   -3.2727168212138298E+00   -8.9120567465645060E+00
Pb    2.8227136045152621E+00   -9.1072343400876896E+00   -8.9719373496954589E+00
Pb   -3.0066053995246373E+00    2.6667702902660948E+00   -8.8802846359476835E+00
Pb    2.6428366338812062E+00    8.8437472886465116E+00   -9.1178336863410472E+00
Pb    3.2542572724427035E+00    2.6974085923188600E+00   -9.0823013230717198E+00
Pb    8.8361235864614578E+00   -3.0373378251819050E+00   -3.1944490147597371E+00
Pb    9.1505549039446201E+00   -9.0640177489939511E+00   -3.1351041048470849E+00
Pb   -8.5794285164232669E+00   -2.7747202690610799E+00    9.2012750462141746E+00
Pb    9.1857787318192177E+00    9.3286586561669242E+00   -9.2468744004095136E+00
Pb   -8.9762055402637966E+00    2.3015458017007746E+00   -8.8311946891367636E+00
Pb   -3.0334569438600218E+00    9.5648847827243220E+00    9.4312338803518596E+00
Pb    8.8839898800564061E+00    9.0125754452350524E+00   -3.3563159336682657E+00
Pb    9.5000558780925601E+00    3.1107676598360867E+00   -3.2957432983627579E+00
Pb    9.2106442207195496E+00   -2.9392035386619337E+00    2.8790386814991691E+00
Pb    9.3285127273969817E+00   -8.8943273185786964E+00    3.1623873518304109E+00
Pb    9.2277281457820060E+00    2.9598398149214167E+00   -9.2498909257104067E+00
Pb   -2.7290840615656373E+00    3.6281358793138216E+00    9.2314817082035674E+00
Pb    9.0064404970044478E+00    9.2825608839114597E+00    2.7636973651019252E+00
Pb    9.1314865781668715E+00    3.1377726094955647E+00    2.8153161039820964E+00
Pb    9.4988646014262752E+00   -2.5010482401224863E+00    9.1991336637509349E+00
Pb    9.0344242311995568E+00   -8.6032504879638907E+00    8.9439674097214112E+00
Pb    8.9682101866399258E+00    9.5239514942846615E+00    8.9513295870276792E+00
Pb    9.3362136084226091E+00    3.3308419148960859E+00    9.0634631826689400E+00
Pb   -8.8266691298668309E+00    3.1784717668193947E+00    9.1027713485615340E+00
Pb   -2.7934067678054477E+00   -2.7005930069196715E+00    2.9578382905152125E+00
Pb   -9.0536435207118551E+00    9.3887655573680320E+00    2.5911401601160975E+00
Pb   -8.9076003059024949E+00    8.3791440162713009E+00   -3.3518827503095170E+00
Pb   -9.0255799849788776E+00   -9.6060067326410312E+00   -9.1694619308282803E+00
Pb   -3.3932251478516648E+00    8.5198733560540880E+00   -8.8300335427498347E+00
Pb   -9.0598789425955975E+00    3.0471176162250635E+00    3.2381687445579135E+00
Pb   -9.1739222826953650E+00    9.2587322758502459E+00    8.5429091025020156E+00
Pb   -3.2558879870576787E+00   -3.1621165387117767E+00   -2.8667681999340489E+00
Br    1.4499457912613298E-01   -2.7049257833419613E+00   -2.7852532283342413E+00
Br    2.9547003558004845E+00   -3.0254099939368553E+00   -6.1766671767371770E+00
Br    3.2399339676877599E+00   -4.3995461753457759E-03   -3.0104354486788312E+00
Br    2.0042364897008727E-01   -8.9160822696880615E+00   -3.3049960811116961E+00
Br    3.2342279706495898E+00   -9.2942248086800969E+00   -6.0832642317998102E+00
Br    2.7737852894967450E+00   -5.9968800849381392E+00   -3.5009564680540106E+00
Br   -3.1192277210894730E+00   -3.5802785535024131E+00   -5.7062403013715892E+00
Br   -8.3252227821801146E+00   -3.1185945107169371E+00    6.0891726040363254E+00
Br   -2.7127478938117853E+00   -7.0236935465324807E-02   -3.2251603285031289E+00
Br    2.3075997047474326E+00   -1.1794484140395026E+01   -3.2162255354297482E+00
Br    1.1868234369864476E+01   -2.1811984571026652E+00    2.9864709774843377E+00
Br   -5.7428446667101145E+00   -9.0030074752894365E+00   -2.8839949430049954E+00
Br   -1.1509816589671372E+01   -3.2595152808779266E+00    3.3523246497243369E+00
Br   -9.0088845812148453E+00   -3.6153346308299454E+00   -1.3927114233770430E-01
Br    1.1851850312755131E+01   -1.0006242717631201E+01    3.7689445529885752E+00
Br    2.5460237400136924E-02    8.5552319762309139E+00   -2.8779466069822255E+00
Br    2.3170498156802868E+00    8.6535034777281155E+00   -5.9623524293688668E+00
Br    3.0788528825072548E+00    1.1537627478986089E+01   -3.0043107212402984E+00
Br    4.2316808557647029E-01    2.6640170970675929E+00   -2.2245333154932960E+00
Br    3.0098023870319524E+00    3.0117927833276474E+00   -6.2464629847779714E+00
Br    3.2060259399479261E+00    5.8181146858671742E+00   -3.3769321375331915E+00
Br    9.2215500876992609E-02   -2.2045858114211945E+00    2.8013796202551982E+00
Br    3.2597361014879684E+00   -3.1260613466849230E+00   -1.6782548780337744E-01
Br    3.5300879385178918E+00   -9.3628176331964547E-02    2.3903757799747476E+00
Br    2.9866608900434316E-01   -9.3440991148970305E+00    2.9990620606569562E+00
Br    3.3642901485046823E+00   -8.7134038083876515E+00   -2.5432896579048730E-01
Br    2.9028278802146450E+00   -5.9523293860671247E+00    3.1394369844859491E+00
Br   -6.1685239358700485E+00    8.1588815200813869E+00   -8.4695215979136993E+00
Br   -3.3283076679873891E+00    8.5155839812488718E+00   -1.1520990639003347E+01
Br    4.1865216798025342E+00   -1.1528102251611973E+01    2.5585491455693452E+00
Br   -3.8662302984139001E+00    1.1718107877461179E+01   -9.1319685521792877E+00
Br   -3.4463629016621278E+00    5.3660508492194614E+00   -9.4976399146982295E+00
Br   -8.7553324538530610E+00   -2.4480693781993071E-01    2.9991577909844520E+00
Br   -3.0556015860978305E+00   -9.1368646560326869E+00   -6.1790894135596437E+00
Br   -6.2857470303514242E+00    1.0059094634291608E+01    2.8904246106019946E+00
Br   -3.0296305621365658E+00    8.9782184722496314E+00    1.2875157875446602E-01
Br   -3.0072414750768393E+00    1.2344392375786592E+01    3.2703240344604940E+00
Br   -2.7350117768422466E-01    9.1849861288431089E+00    3.6422022032823906E+00
Br    2.2807626189661483E+00    8.2804890284446575E+00   -3.8982816222453208E-03
Br    2.9490111307791893E+00    1.1576735813253288E+01    1.8734054182739932E+00
Br    2.2307723916075725E-01    3.2661511234025031E+00    3.4556617122073154E+00
Br    3.5238903014274463E+00    3.5115965702991518E+00    2.5713891120709487E-01
Br    3.3342535669701880E+00    6.0601398652465726E+00    3.2804675651707362E+00
Br    1.7140235269798570E-01   -2.6992132974063732E+00    8.9364146111260911E+00
Br    2.8251373064933691E+00   -2.3447454805775507E+00    6.0506518890387957E+00
Br    3.2207736625398704E+00    2.5044646009130667E-01    9.3422604913978962E+00
Br    3.0122118408985077E-01   -8.2377201192330691E+00    9.1909114717603391E+00
Br    3.3175219810682166E+00   -9.0819894006538515E+00    5.9015869077829537E+00
Br    3.0543796325005865E+00   -5.3554938931695313E+00    8.2608839444012059E+00
Br   -1.1962483417668835E+01    2.9199317217766501E+00    2.7995239800094462E+00
Br   -9.2501281554358084E+00    2.7507403230438690E+00    2.3728611416239559E-01
Br    3.2650482757307930E+00   -1.1515124982721870E+01    8.6861066036010008E+00
Br   -9.0027089296313374E+00    6.1686054721518078E+00    2.6631579550168945E+00
Br   -8.7485889448065155E+00   -5.9867535824742073E-02    9.4325909621865982E+00
Br   -2.7298571988871827E+00   -6.3653724261755906E+00   -2.3804974629009235E+00
Br   -5.7295273516387537E+00    2.8233259257295478E+00    2.9684536939758090E+00
Br   -3.1041687265932643E+00    3.3008122667767736E+00    1.2215077341825342E-01
Br   -3.4254625278700197E+00    6.6709290560725627E+00    3.6139155499531928E+00
Br    1.2582888939552708E-01    9.1394430269728684E+00    8.9885825748330870E+00
Br    2.5623386079357031E+00    9.9339970305677809E+00    5.8203660818824856E+00
Br    2.7661219202410683E+00    1.2523700958945515E+01    9.2045674766733079E+00
Br    3.0733258021017557E-01    2.8578487220450564E+00    9.1464356825585291E+00
Br    3.0326169429778820E+00    2.9693283325413815E+00    6.3049203176440081E+00
Br    2.8661692972909494E+00    6.5896722461072601E+00    8.3065274246047363E+00
Br   -5.6426310257800063E+00   -2.5700857389549716E+00    9.0317453165602384E+00
Br    2.8269389819166020E+00   -3.3145733385148120E+00    1.1821706493223658E+01
Br   -3.6046709652253281E+00   -2.5715436116466068E+00    5.9725263545876919E+00
Br   -2.4473129545148420E+00    7.6641872056138441E-02    7.9539357100933383E+00
Br   -3.0663196154558436E+00   -1.1848580936184904E+01   -3.4365829118195901E+00
Br    3.3034727591321933E+00   -8.0985633360420639E+00    1.1489996102907204E+01
Br   -1.1633688548577050E+01    3.0441789142982190E+00   -3.6591511146919729E+00
Br   -2.6928668151234261E+00   -1.1867345458319498E+01    3.0328396594018479E+00
Br   -1.2093179695097852E+01   -3.5011890276091027E+00   -2.5836674293136732E+00
Br    3.4408748807157887E+00    9.0441535114866944E+00    1.1509492512998579E+01
Br   -9.3753901504192534E+00   -3.5708343137645890E+00   -6.2585759109865542E+00
Br   -9.0819539061594039E+00   -2.5606486736345346E-01   -3.0538013217975779E+00
Br    3.2845036810085722E+00    3.0236596700708605E+00    1.1747564140296507E+01
Br   -5.9128822469238118E+00    8.5032996649236647E+00   -3.2098395094839329E+00
Br   -2.6019158073637341E+00    7.9456529662482165E+00   -5.9977348079500645E+00
Br   -2.9854162092338381E+00    1.1234752092391583E+01   -4.3225063893551665E+00
Br   -5.6636792272271395E+00    2.6626917025755157E+00   -2.5655511062391545E+00
Br   -1.1970685666848398E+01   -9.5160875324766003E+00    3.3420514503356995E+00
Br   -3.0149164302039231E+00    3.3715595115345782E+00   -5.7724995934221077E+00
Br   -5.9383712110822433E+00   -3.1834719076083582E+00   -8.6359053789151883E+00
Br   -2.7304128732139321E+00   -3.7156660931191809E+00   -1.1567389353134846E+01
Br   -3.0884804387822031E+00   -2.2504172971090020E-01   -7.9706280228448749E+00
Br   -3.0858067336468418E+00    3.5981666863196637E+00    1.1994312416136500E+01
Br   -5.3913525999128575E+00   -8.9178540481894810E+00    8.6661755348789580E+00
Br   -2.7895143423191593E+00   -9.2037374348322381E+00    5.9103571188128772E+00
Br   -2.7523007850554433E+00   -5.8092248598644041E+00    8.7037839787024129E+00
Br   -8.9682215648639829E+00   -8.6139364137651420E+00   -2.4372243381202940E-01
Br   -8.9467261782981140E+00   -6.2376729349822204E+00    2.6915538282530584E+00
Br   -9.6871724348981250E+00    8.6073294534219666E+00    1.1296925926826983E+01
Br    1.1810755865578653E+01    9.3492389261363229E+00    2.6660938761807627E+00
Br   -8.3821088620084527E+00   -9.3186527874637921E+00    1.1955759520947444E+01
Br    1.1681654665393852E+01    9.1625110634895712E+00   -3.4082918698766607E+00
Br    1.2000263123415424E+01    3.3586531029909672E+00    2.9187862849136912E+00
Br   -8.6688754597811553E+00    2.6186060365479387E+00    1.1847321060964562E+01
Br   -1.1997353540493268E+01   -4.3866402690758735E+00   -8.8737803663121380E+00
Br    1.2151002628500775E+01   -3.3696391664195997E+00    8.5927829388456018E+00
Br   -5.4800521293368911E+00   -8.8712892243287556E+00    2.9988364313607585E+00
Br    5.8027021197772184E+00   -3.0803682619523194E+00   -9.2741618864438049E+00
Br    8.2046602313603110E+00   -2.8536017066004331E+00   -1.2058991544543810E+01
Br    1.1829239487570007E+01   -8.6288927986359312E+00    9.2269609192206392E+00
Br    9.2280876203670275E+00    2.4519435836008970E-03   -9.2224754693005000E+00
Br   -9.1779823328424239E+00   -1.1862533607221875E+01    8.7604899090636827E+00
Br   -2.1789624389565594E+00   -9.1257337315830700E+00   -3.3800327617441762E-02
Br   -2.1984281256093587E+00   -5.9683542485328589E+00    3.3768379261144901E+00
Br    6.0797137363292180E+00   -8.7907093113875927E+00   -9.0707262722927098E+00
Br   -6.1754529636020159E+00   -9.3781834981926124E+00   -9.5463755056213841E+00
Br    9.5136686709155995E+00   -1.0269647683241567E+01   -1.1433390672367350E+01
Br    8.3878416505578279E+00   -5.9533305398716889E+00   -9.1365870027550393E+00
Br   -2.5944029241632762E+00   -1.1750012473520036E+01    9.1096729980027877E+00