 # Version information for this restart file 
 # current date 2021-06-17 12:32:55.710
 # current working dir /user/ub2042/exercises/2_fitting/MM_MD_workdir/md_settings
 # Program compiled at                              Thu Apr 22 21:44:59 EDT 2021
 # Program compiled on                cpn-k07-07-02.compute.cbls.ccr.buffalo.edu
 # Program compiled for                                                    local
 # Source code revision number                                       git:36754bb
 &GLOBAL
   PRINT_LEVEL  LOW
   PROJECT_NAME cp2k
   RUN_TYPE  MD
 &END GLOBAL
 &MOTION
   &MD
     ENSEMBLE  NVT
     STEPS  10000
     TIMESTEP     2.4999999999999996E+00
     STEP_START_VAL  3000
     TIME_START_VAL     7.4999999999997844E+03
     ECONS_START_VAL    -1.3925666412857368E+01
     TEMPERATURE     3.0000000000000000E+02
     &BAROSTAT
       PRESSURE     1.0100000000000000E+00
       TIMECON     9.9999999999999982E+03
     &END BAROSTAT
     &THERMOSTAT
       TYPE  CSVR
       &CSVR
         TIMECON     9.9999999999999982E+03
         &THERMOSTAT_ENERGY
              -1.1927130656187884E-01
         &END THERMOSTAT_ENERGY
         &RNG_INIT
Wiener process for Thermostat # 1        1 F T F  -5.1494578375668887E-01        2852707072.0        1655590670.0        2178748249.0        1152806409.0         513555522.0         278426018.0             12345.0             12345.0             12345.0             12345.0             12345.0             12345.0             12345.0             12345.0             12345.0             12345.0             12345.0             12345.0
         &END RNG_INIT
       &END CSVR
     &END THERMOSTAT
     &AVERAGES  T
       &RESTART_AVERAGES
         ITIMES_START  1
         AVECPU     1.7951407481993822E-02
         AVEHUGONIOT     0.0000000000000000E+00
         AVETEMP_BARO     0.0000000000000000E+00
         AVEPOT    -1.4300303590270914E+01
         AVEKIN     4.2901621619221325E-01
         AVETEMP     2.1762641704859359E+02
         AVEKIN_QM     0.0000000000000000E+00
         AVETEMP_QM     0.0000000000000000E+00
         AVEVOL     6.7483345830901479E+06
         AVECELL_A     1.8897261328855848E+02
         AVECELL_B     1.8897261328855848E+02
         AVECELL_C     1.8897261328855848E+02
         AVEALPHA     9.0000000000000000E+01
         AVEBETA     9.0000000000000000E+01
         AVEGAMMA     9.0000000000000000E+01
         AVE_ECONS    -2.9826185063053403E+00
         AVE_PRESS     0.0000000000000000E+00
         AVE_PXX     0.0000000000000000E+00
       &END RESTART_AVERAGES
     &END AVERAGES
     &PRINT
       &ENERGY  SILENT
         &EACH
           MD  10
         &END EACH
       &END ENERGY
     &END PRINT
   &END MD
   &PRINT
     &TRAJECTORY  SILENT
       &EACH
         MD  10
       &END EACH
     &END TRAJECTORY
     &CELL  SILENT
       &EACH
         MD  10
       &END EACH
     &END CELL
     &VELOCITIES  SILENT
       &EACH
         MD  10
       &END EACH
     &END VELOCITIES
     &FORCES  SILENT
       &EACH
         MD  10
       &END EACH
     &END FORCES
     &RESTART  SILENT
       &EACH
         MD  10
       &END EACH
     &END RESTART
   &END PRINT
 &END MOTION
 &FORCE_EVAL
   METHOD  FIST
   &MM
     &FORCEFIELD
       VDW_SCALE14     1.0000000000000000E+00
       EI_SCALE14     1.0000000000000000E+00
       SHIFT_CUTOFF  T
       DO_NONBONDED  T
       IGNORE_MISSING_CRITICAL_PARAMS  T
       &SPLINE
         R0_NB     2.5000000000000000E-01
       &END SPLINE
       &NONBONDED
         &LENNARD-JONES
           ATOMS Br Br
           EPSILON     1.2630795322675199E+02
           SIGMA     3.6900000000000004E+00
         &END LENNARD-JONES
         &LENNARD-JONES
           ATOMS Cs Pb
           EPSILON     8.6920055954630968E+01
           SIGMA     3.6699999999999999E+00
         &END LENNARD-JONES
         &LENNARD-JONES
           ATOMS Cs Cs
           EPSILON     2.2644852172126850E+01
           SIGMA     4.5300000000000002E+00
         &END LENNARD-JONES
         &LENNARD-JONES
           ATOMS Pb Pb
           EPSILON     3.3363415533600227E+02
           SIGMA     6.1000000000000005E+00
         &END LENNARD-JONES
         &LENNARD-JONES
           ATOMS Br Cs
           EPSILON     5.3481070753900497E+01
           SIGMA     3.6300000000000003E+00
         &END LENNARD-JONES
         &LENNARD-JONES
           ATOMS Br Pb
           EPSILON     2.0528187276773045E+02
           SIGMA     2.9800000000000000E+00
         &END LENNARD-JONES
       &END NONBONDED
       &CHARGE
         ATOM Cs
         CHARGE     4.1739999999999999E-01
       &END CHARGE
       &CHARGE
         ATOM Pb
         CHARGE     8.3479999999999999E-01
       &END CHARGE
       &CHARGE
         ATOM Br
         CHARGE    -4.1739999999999999E-01
       &END CHARGE
     &END FORCEFIELD
     &POISSON
       PERIODIC  XYZ
       &EWALD
         EWALD_TYPE  SPME
         GMAX  62 62 62
         O_SPLINE  4
       &END EWALD
     &END POISSON
     &PRINT
       &FF_INFO  LOW
         SPLINE_INFO  F
         SPLINE_DATA  F
       &END FF_INFO
     &END PRINT
   &END MM
   &SUBSYS
     &CELL
       A     1.0000000000000001E+02    0.0000000000000000E+00    0.0000000000000000E+00
       B     0.0000000000000000E+00    1.0000000000000001E+02    0.0000000000000000E+00
       C     0.0000000000000000E+00    0.0000000000000000E+00    1.0000000000000001E+02
       PERIODIC  XYZ
       MULTIPLE_UNIT_CELL  1 1 1
     &END CELL
     &COORD
Cs    5.1834851758106526E-01   -1.0888206760238786E+00   -5.9675824086490810E+00
Cs   -1.7201054448489619E-01   -6.2744214199801780E+00   -4.8647281047881394E+00
Cs   -1.6266680214170887E-01   -1.1824649591710955E+01   -4.7491918764439065E+00
Cs   -5.8995642860242850E+00   -5.9149618793835330E+00   -5.6992337281929784E+00
Br   -8.8136957473972188E+00   -1.2571037378718840E+01   -8.1963908650100787E+00
Br    1.1888047090297080E+01   -3.4551569799578594E+00   -1.0246775123622623E+01
Br   -3.1030820741208860E+00    2.5215082487188938E+00   -1.2015294913414023E+01
Cs   -1.6079234832285405E-01    4.9737306648298896E+00   -5.2012282064443696E+00
Cs   -2.5400104230781248E-02   -2.7241055857015289E-02   -3.4933945846660167E-02
Cs    3.3607929758454030E-01   -6.2055714310653807E+00    6.4368125372256046E-01
Br   -5.4982666808863261E+00   -3.3300326995089486E+00    3.1614402457719928E+00
Cs   -1.0684570667868538E+01   -6.3572301089009047E+00    1.1995240217437084E+01
Cs    1.2061576562541097E+01   -1.1082438040364284E+01    5.5819602930465062E-01
Cs   -5.8807704507992602E+00    5.4179521364505012E+00    5.0197554225317109E-01
Cs    7.7789420382073024E-02    1.0904348747539805E+01   -1.1641566677471686E+00
Cs   -1.2705670354511538E+00    5.7329234650317771E+00   -5.6235598208270654E-01
Cs    9.2643737722393338E-01    8.5628493084638328E-04    6.7115071661203780E+00
Cs    3.6034394477299059E-01   -5.8525228351046144E+00    5.8569078943937862E+00
Cs    6.0120927493394849E-01   -1.1452870311430395E+01    7.2273504959274950E+00
Cs   -6.1705339985007290E+00    6.5737868597489602E+00    1.1101426054514219E+01
Cs   -6.2715259201907685E+00   -1.9084751670962810E-01   -1.1037841686237860E+01
Cs   -5.4397424400040091E+00   -1.1819822664982732E+01   -5.0109323885471877E+00
Cs   -6.4009111320150085E+00    4.2862191202293826E-01    5.6329742102582081E+00
Br   -2.5436177531359352E+00   -3.5340291266849020E+00    2.4751745596362459E-01
Cs   -4.3276655083154553E-01    6.2356739175106384E+00    5.9178982949066219E+00
Br    1.1802020424633868E+01   -8.8043758877460494E+00   -8.9355718825184880E+00
Cs    1.7357178129476742E+00   -5.2532051391175232E+00    1.2609789075030811E+01
Br   -3.3564145900870459E+00    8.7242764434591821E-02    3.1827796391829684E+00
Br   -8.9850885452373923E+00   -3.8513429487316451E+00    1.2156701418587906E+01
Cs    1.0238754597448063E+01    1.2186674588469499E+01   -6.9226768207421525E+00
Cs   -1.1669745382870223E+01   -4.8345592397881365E+00    6.6655980176814849E+00
Cs   -5.0683929049311418E+00   -5.5606691397765129E+00    6.1932527909150235E+00
Cs   -6.3396573037041408E+00    1.1149716749171812E+01   -6.4069274770775113E+00
Br   -1.1271094938243666E+01   -9.2910609736081859E+00    9.0035000040148017E+00
Br   -8.1155382059258052E+00   -9.2099383643211485E+00    6.5649473591730079E+00
Cs   -1.1424019083433373E+01   -6.3823503894372040E+00   -5.7505600367329768E+00
Cs   -7.0748010751202406E+00    5.5037454365828617E+00   -6.0620406986133535E+00
Br   -8.7218868796227333E+00   -6.2682678386852428E+00    9.0968609843996564E+00
Cs    1.0974998197214816E+01    7.4954438733518280E+00    1.0747908148132076E+01
Br   -1.2822888626268545E+01    8.3507437188569060E+00    8.5134328632314933E+00
Br   -5.5356310397337714E+00   -3.2210843842360610E+00   -2.8041549763557629E+00
Cs    1.4875544077245044E+00    7.3191035528873316E-01    1.2441218927942387E+01
Cs    1.1584119753044515E+01    5.3120170101431299E+00   -1.4389449456049749E-01
Cs   -1.1364780225726083E+01   -6.9929878814794444E+00   -1.0830614132888053E+01
Cs    1.1546138516339056E+01    1.3751237714061442E+00    5.2303804198625024E+00
Cs   -1.0849475973332170E+01    1.1451047532263230E+01   -6.7278431733549580E+00
Cs    1.2685815588435259E+01   -9.9675189970110161E+00    6.0791150000905638E+00
Cs    6.2382373148682104E+00   -5.9464238694676235E+00   -1.1382341425437021E+01
Cs    7.4437662806269111E+00   -1.1511553727161703E+01    5.7319633052946148E+00
Cs   -6.0634717623151531E+00   -1.2364635380502072E+01    6.9401831696064187E-01
Cs    6.0412135062044561E+00   -1.1078214898731321E+01   -1.2162216768847925E+01
Cs    1.0616131621123001E+01    6.4225408514238183E+00   -6.2632722705423785E+00
Cs    1.1107828549278338E+01    1.1425914652333326E+01    5.0217517427397089E+00
Cs    1.1637141574618518E+01    5.9569017036597183E+00   -1.1625832911967690E+01
Cs    3.9398057153994670E-01   -5.9647481254234984E+00   -1.0630733573384809E+01
Cs   -1.2307343963244865E+01    4.0466948505101141E-01   -5.7510377118492304E+00
Cs    6.5867824843092171E+00   -5.0555765734158733E+00    1.1206288870413985E+01
Cs    1.2297720319283934E+01   -5.0715144859924877E+00    6.4427133141437816E+00
Cs   -1.2714165419571280E+01   -1.1338316019660367E+01    1.1130340016451598E+01
Cs    4.1655382164548493E-01   -1.2241279358182717E+00   -1.1011859846322865E+01
Cs   -1.0156382118680964E+00    1.1668521194206637E+01    4.9539049679328100E+00
Cs   -6.5425999695329945E-02    4.5793782687712898E+00   -1.2076663402705451E+01
Cs    6.9125275830760735E+00   -1.1232548566369900E-01   -6.2891982527742796E+00
Cs    6.4552725065257484E+00   -5.8058337563228175E+00   -6.1330862435900046E+00
Cs   -4.7938712183871086E+00   -1.0465445759452104E+01    6.7304059560447049E+00
Cs   -1.1668962309510736E+01    4.0337200271106588E-01    5.8124466648573909E+00
Cs    5.9822428203493212E+00   -8.5540106366378854E-01   -1.1666608749607763E+01
Cs    5.3170928598654443E+00    1.0801197657184451E+01   -1.1715649332025986E+01
Cs    5.7450744090725570E-01    6.5146688987505641E+00    1.1118082528678134E+01
Cs   -6.2810198578808754E+00    1.0981194799160786E+01    5.4706876689251569E+00
Cs    4.8594331040354195E+00    1.1555176644887359E+01   -6.6110617415991024E+00
Cs    5.3338739055140652E+00    5.9796850190370900E+00   -6.0393056097265942E+00
Cs    5.5982392214734817E+00    7.6633926180215917E-01    1.5890869517258763E-01
Cs    5.4997275972204509E+00   -6.2440613030794410E+00    2.1721881574760615E-01
Cs    6.9852328372820107E+00   -1.0990903142785285E+01    5.1095265801523371E-01
Cs    5.9077406186602106E+00    5.5372348616727498E+00   -1.1876312984131973E+01
Cs   -6.7558096270593202E+00    5.9469543301013594E+00    5.9770407724091408E+00
Cs   -6.0042811893783270E+00   -6.4246494617708185E+00   -1.0725350633956069E+01
Cs    5.3896255128428550E+00    6.3059440541381608E+00   -1.7511602819616912E-01
Cs    6.5851087599534228E+00    7.3503361047508653E-01    6.0406554487851221E+00
Cs    6.6917714937115589E+00   -5.6028229536478165E+00    6.0793042574295661E+00
Cs   -6.0928341567543711E+00    1.1067704786005082E+01   -7.6033805016601874E-01
Cs    1.1141315541892030E+01    5.3455728394470936E-01   -2.2121297748112526E-01
Cs   -6.2557102908042976E+00    3.2397488247202277E-01   -4.6644282389768650E-02
Cs   -1.2388929277996752E+01    5.4882117761625864E+00    6.9393164514018197E+00
Cs   -5.1998515238525913E+00    7.5732662420004027E-01    1.0945394623181777E+01
Cs    5.1006690608953162E+00    1.3149263319871086E+01    7.4407413924136669E+00
Cs    5.8682141271579038E+00    6.3318011892663604E+00    5.5121129538066196E+00
Cs    7.8058437745522600E+00    8.0468923063236297E-01    1.1424188242953484E+01
Cs    5.8029392100488462E+00    1.3331598808933107E+01    1.7047164756747637E+00
Cs    1.1328095285595483E+01    8.2968737996369801E-01   -6.0680015537241827E+00
Cs    1.1487781720395652E+01   -6.4296218533701746E+00   -6.0037712182091312E+00
Cs    6.5684078457387782E+00   -1.1132580594455492E+01    1.0815835628657659E+01
Cs    1.1092150963747390E+01    1.1956503954667692E+01   -8.6052806380741886E-01
Cs   -1.1397484560308493E+01   -1.0261264530307361E-01    1.1722325205249499E+01
Cs   -5.7385644164544098E+00    4.8974443925255917E+00   -1.2082345657196406E+01
Cs   -1.2205051213263255E+01    1.1302207360599272E+01    3.7403150201087504E-01
Cs   -4.8510153714649311E+00   -6.2402601102607864E+00    1.2150634102354488E+01
Cs   -4.5220191577918936E+00   -1.2493040121470253E+01    1.1110141183890498E+01
Cs    6.0355249585724744E+00    7.5859520759335597E+00    1.0753621280097938E+01
Cs    1.2448667230322771E+01   -5.7624831893914799E+00    3.8483274669339901E-01
Cs   -1.1878637198085668E+01   -1.0887145194777150E+00   -1.4661864660778520E-01
Cs   -6.1786684144193353E+00    1.0800756425186279E+01   -1.2228247817593948E+01
Cs   -1.2977126144265474E+01    4.7947142343285298E+00    5.9744793383687567E-01
Cs   -1.0393415706397130E+01   -1.2718208143493433E+01   -5.2105296898784612E+00
Cs   -1.1743865188909810E+01   -6.6101897092095525E+00    1.3517659705705551E+00
Cs   -6.2454922884357078E+00   -6.1844217406992144E+00    1.1305561884441449E-01
Cs   -1.0026740673687561E+01   -1.2389630353778376E+01    7.3141677279882034E+00
Cs    1.2649241747762321E+01   -4.8752354050786897E+00    1.1033382778117899E+01
Cs    1.1015712893947468E+01    6.9097864343792592E+00    5.5484469425494893E+00
Cs   -1.1701372123928030E+01    6.0209595636622257E+00   -6.9973204150697983E+00
Cs   -5.7901492025652264E+00   -9.3878398992556333E-01   -5.7490533032221478E+00
Cs   -1.1139371341850234E+01   -1.1926770243127971E+01    9.2376048991083526E-01
Cs    1.1832163076829611E+01   -7.0282538261303733E+00   -1.2200963387830523E+01
Cs   -6.4531871822963289E+00   -1.2146201159155302E+01   -1.0639959358328595E+01
Cs   -3.8511925611672126E-01    1.0313323524332306E+01   -1.2553441868098865E+01
Cs   -2.6090458552446300E-01   -1.2143287750933920E+01   -1.0085927923219929E+01
Cs   -7.9553348888677067E-01    1.1151870607054834E+01   -6.8822635649276593E+00
Cs   -6.4763635873514254E+00    1.2729015075008304E+01    1.0318820223693990E+01
Cs    5.4480460897923022E-01   -1.1179936856613526E+01    9.1142677036476694E-01
Cs   -1.1725969570518103E+01    1.5527054898763071E-02   -1.2547292154565296E+01
Cs   -1.1962067416526656E+01    1.0683054160033763E+01    5.7260428357992668E+00
Cs    5.9604617909472726E+00   -1.2419088876796307E+01   -6.4104111332046116E+00
Cs    1.0663701815267880E+01   -7.2014846045630454E-01   -1.2335659990223746E+01
Cs   -1.0915289677005007E+00    1.2953742417107502E+01    9.5821552494222377E+00
Pb    3.3112539019349461E+00   -3.0324613432927321E+00   -2.8991234624863291E+00
Pb    3.3106637744297545E+00   -9.2011901281098165E+00   -2.5560637027903224E+00
Pb   -8.5442734854709368E+00   -3.1988573880550075E+00    3.1041969174047255E+00
Pb   -2.7199847753536894E+00   -9.5904157325561474E+00   -2.3258553068203311E+00
Pb    2.7580095104373314E+00    8.7880513486508161E+00   -3.4555898700034251E+00
Pb    2.8312493202740714E+00    2.8316864800396182E+00   -3.2363102875982199E+00
Pb    3.3562535139540097E+00   -3.0472268197604961E+00    3.1891448266143767E+00
Pb    3.4358288845200007E+00   -8.8789491950471202E+00    3.1627939593865082E+00
Pb   -3.2794220902006606E+00    8.8467163705878651E+00    2.5271831423698585E+00
Pb    2.8212327786967708E+00    9.3244098542718348E+00    2.4775527787918867E+00
Pb    2.6982871743521186E+00    3.2880577423764605E+00    3.0082568177396025E+00
Pb    3.7032213148096327E+00   -2.5412224709680964E+00    9.3582619535350133E+00
Pb    3.7516682225567886E+00   -8.6212189037805853E+00    9.1398202893115172E+00
Pb   -3.3816189718859686E+00    2.8900649922822534E+00    3.0019018032534750E+00
Pb    2.5648514556324225E+00    9.6184539432512270E+00    8.5462982924190065E+00
Pb    3.6014122762846585E+00    3.4469884882274204E+00    8.8492334482072152E+00
Pb   -2.3986986724292030E+00   -2.5897400559126771E+00    9.4855937311486418E+00
Pb   -8.5004975635905815E+00   -9.1550633587380990E+00    3.6727120018703285E+00
Pb   -9.5193091343923673E+00    2.7912031098115389E+00   -2.9824605393139727E+00
Pb   -2.6853970502809181E+00   -3.7824105148796887E+00   -8.5504816538000981E+00
Pb   -2.4398825651774994E+00   -8.7881979079199350E+00    3.5119513577065953E+00
Pb   -3.4284965841255741E+00    8.2877830567309516E+00   -3.4781893559677521E+00
Pb   -2.2352173317505564E+00   -8.7676779525452471E+00    9.7737234633274372E+00
Pb   -8.4767572919667220E+00   -3.2861044207365215E+00   -2.9289393539834210E+00
Pb   -8.7233997974520037E+00   -9.4005829468676545E+00   -2.1947263161937873E+00
Pb   -3.4463911039583111E+00    2.3142399900912753E+00   -3.1829726851673290E+00
Pb   -8.6826401889796294E+00   -9.0744899353037649E+00    9.9495332011139190E+00
Pb   -8.9260192473252591E+00   -3.5681308596061538E+00   -8.8065145677116341E+00
Pb    9.1828424536790987E+00   -3.3692024531738278E+00   -9.3423616507977201E+00
Pb    9.1445782489924561E+00   -9.6741269332982966E+00   -9.0457753066256181E+00
Pb   -2.9912403737691462E+00   -9.9317320900483335E+00   -8.3830759081297721E+00
Pb   -9.5271269238929701E+00    8.8811914983070928E+00   -9.9836899185198895E+00
Pb    3.2151950391509070E+00   -3.5336791019181399E+00   -8.7713912622334220E+00
Pb    2.9306759272300376E+00   -9.3922863311800651E+00   -8.6363829067469400E+00
Pb   -2.9144509632117384E+00    2.3870831904930490E+00   -9.1098577862764785E+00
Pb    2.5167366149473214E+00    8.2411035191181075E+00   -9.6574994825309872E+00
Pb    2.7543719084032698E+00    2.3166202120905699E+00   -9.1916412471483682E+00
Pb    9.2224732073040165E+00   -2.7281713637608593E+00   -3.1271953932882681E+00
Pb    9.6869631595925512E+00   -9.0653559427079990E+00   -3.0248127539832623E+00
Pb   -8.1936643550321779E+00   -2.8003832266835076E+00    9.4011389206311105E+00
Pb    8.4099953721228502E+00    9.0966829208520750E+00   -9.8994156393418837E+00
Pb   -9.1264474675364191E+00    2.7408520439350377E+00   -9.1265491803324341E+00
Pb   -3.3639282285243919E+00    9.2889430363281686E+00    8.7835161709711240E+00
Pb    8.5660177901898980E+00    9.2193557578537462E+00   -3.6894731879603726E+00
Pb    8.9225601213564900E+00    3.1358695788809188E+00   -3.3031048162556447E+00
Pb    9.3030388201962779E+00   -2.3032996999332527E+00    2.5819888047238639E+00
Pb    9.4981213113252583E+00   -8.1980207391164690E+00    2.9683607780510730E+00
Pb    8.7209511271050175E+00    2.9071066322715766E+00   -9.2644028077350153E+00
Pb   -2.4792650403060370E+00    3.1795333606046179E+00    9.0322246651322882E+00
Pb    8.5591977541277213E+00    9.2856001798704018E+00    2.0215504242765148E+00
Pb    8.9238594449837088E+00    3.4410206025810588E+00    2.6161020628344773E+00
Pb    9.6219966300405293E+00   -2.0625781440623170E+00    8.5050102748508145E+00
Pb    9.9357443485517916E+00   -8.1469239453221505E+00    9.0661433742117765E+00
Pb    8.5577763331064460E+00    9.9193633105011241E+00    8.1301159419798026E+00
Pb    9.2348582173075613E+00    3.8404677405646646E+00    8.5139106786125094E+00
Pb   -8.6924247746011076E+00    2.9711094573545864E+00    9.0212132695423790E+00
Pb   -2.4446969070317670E+00   -2.8938151516767827E+00    3.3053884995668144E+00
Pb   -9.5538725948703132E+00    8.6127231856338646E+00    2.7817928132565863E+00
Pb   -9.3352867472634493E+00    8.8061345010663530E+00   -3.1525082300539511E+00
Pb   -9.0951856833282196E+00   -9.6381959875490324E+00   -8.2674878355949240E+00
Pb   -3.4276829164604146E+00    8.4444539969167121E+00   -9.3730248340406046E+00
Pb   -9.5222842397985961E+00    2.5480750479402152E+00    3.2754483495503051E+00
Pb   -9.5313851317070100E+00    8.8391029255008426E+00    8.6781636345076656E+00
Pb   -2.7689458491295627E+00   -3.5323039559668725E+00   -2.5691264018223268E+00
Br    2.5854101549802699E-01   -3.0718332755715281E+00   -2.2979495458823496E+00
Br    3.1953824184907527E+00   -3.4877861310005067E+00   -5.6976765510723659E+00
Br    3.2582221917091152E+00   -2.9161200138794363E-01   -3.6989017428757904E+00
Br    2.6044793149958850E-01   -8.9611643203470237E+00   -2.4250146127693686E+00
Br    2.8792856497853809E+00   -9.9816525584289764E+00   -5.6140713678364547E+00
Br    3.2671159427913201E+00   -5.9170716838377198E+00   -2.8655371672209355E+00
Br   -2.8202097878529986E+00   -3.8303000149462934E+00   -5.4942263637472424E+00
Br   -7.7644128099022947E+00   -2.8710699816833412E+00    6.4533578233539188E+00
Br   -3.2800476985202329E+00   -3.3019714837293090E-01   -2.5450168209202619E+00
Br    2.8804184601010232E+00   -1.2040164805264975E+01   -2.2553085035827087E+00
Br    1.1892624854367511E+01   -1.2545834202223216E+00    2.4895448012776891E+00
Br   -5.6819319183689858E+00   -9.6492120103662558E+00   -2.0808715351444054E+00
Br   -1.1220638628335337E+01   -3.5867406469200227E+00    2.7614019817655748E+00
Br   -8.5742038755433665E+00   -3.0381658752766989E+00   -3.4031827307876197E-02
Br    1.2511073958231348E+01   -8.2194729386982566E+00    2.9022463445344431E+00
Br   -3.0561114477651574E-01    8.3640404489363718E+00   -3.4629482868291350E+00
Br    2.5343990247978789E+00    7.8873370059380621E+00   -6.5762121856661970E+00
Br    2.0395923308424813E+00    1.1367986141806114E+01   -4.4439980700894788E+00
Br   -5.0903087695966875E-01    2.5393746285558922E+00   -3.1145220526733368E+00
Br    2.2699249947710012E+00    2.9423599815970092E+00   -5.9632729605973100E+00
Br    2.4761266182604755E+00    5.8802625368301165E+00   -3.1166440631295451E+00
Br    5.2867228114035014E-01   -3.0225333809643349E+00    3.5898165159412954E+00
Br    3.0832538417908664E+00   -2.4345108153788519E+00    3.5792874320023566E-01
Br    3.2883871528755626E+00    5.0410246203555642E-01    3.3919388894292570E+00
Br    5.1525036284418935E-01   -9.2741236578172757E+00    3.6805731486750033E+00
Br    2.9203253595651502E+00   -8.7072529794742497E+00    1.9338131198291522E-01
Br    3.2495625653298754E+00   -5.9754005290421919E+00    2.5461840886837073E+00
Br   -6.1499207011150263E+00    8.3238130290835901E+00   -1.0149413326581705E+01
Br   -3.0847868515531838E+00    8.2215489454912571E+00   -1.2512940747647873E+01
Br    4.2324499827939324E+00   -1.1633225724512192E+01    2.9950491112616411E+00
Br   -3.5908607788663329E+00    1.1390911377645892E+01   -9.2698106389570647E+00
Br   -3.2736439963333712E+00    5.4123066288251396E+00   -9.3652907834198160E+00
Br   -9.2023750824191257E+00   -3.8132279374399336E-01    2.9057339558289677E+00
Br   -2.6144608550289168E+00   -9.7662776432970499E+00   -5.2560341449806431E+00
Br   -6.7266332615935136E+00    8.5615465051621538E+00    2.4266521358396256E+00
Br   -3.5319040053590984E+00    7.9679453245367107E+00   -4.2952160355788416E-01
Br   -3.7050539488849439E+00    1.1655772685586911E+01    2.2028470157958546E+00
Br   -2.9753800493042382E-01    9.2034916574101135E+00    2.1709696314137350E+00
Br    2.7762410144058114E+00    8.8031894447326220E+00   -4.6196665111702523E-01
Br    2.6777604289308079E+00    1.2021017582436492E+01    2.1663855230051960E+00
Br   -1.5485612833162238E-01    3.2444146376721386E+00    2.5085991614010004E+00
Br    3.0153306142956025E+00    2.7458131245930408E+00   -3.3017834869212642E-01
Br    3.2372182057927574E+00    6.3589784944237548E+00    2.6316186063707852E+00
Br    7.8940650564096870E-01   -2.7844190733533698E+00    9.2032492548080835E+00
Br    3.1055282058934690E+00   -2.5951124208444227E+00    6.5396981564329453E+00
Br    3.3940835436595904E+00    4.2964769311721052E-01    8.8220179520099418E+00
Br    8.4419074827502594E-01   -8.1321570427691032E+00    9.1980166524564027E+00
Br    4.0149255524158916E+00   -7.7655240060711712E+00    6.0488901186494868E+00
Br    4.0355442477271222E+00   -5.3782869628355092E+00    9.5533775984515614E+00
Br   -1.2430455178621532E+01    2.6628247798199887E+00    3.6403096850354824E+00
Br   -9.5617642833265055E+00    2.4149244229140145E+00   -6.1905273782065671E-03
Br    4.1800478864540223E+00   -1.1288797676328286E+01    8.2573867142491526E+00
Br   -9.4277895548459796E+00    5.6188178593449463E+00    2.6837888934091669E+00
Br   -8.3489201297819307E+00    1.3612214495505978E-01    8.9746099832403043E+00
Br   -2.8911505378975750E+00   -6.4462323426087318E+00   -2.7253015849691571E+00
Br   -6.3901610165826339E+00    3.0489350813716452E+00    3.2742196735059470E+00
Br   -3.9052589118479233E+00    2.3294047604082069E+00   -1.2057138114089923E-01
Br   -3.7623771340178860E+00    6.1607889850513207E+00    3.0968303549986071E+00
Br   -2.8002377267445111E-01    9.5262665714758459E+00    7.9298797986420224E+00
Br    2.7367848393206344E+00    9.3941018624271546E+00    5.7867799863990541E+00
Br    2.0826293055675098E+00    1.2789786775139842E+01    8.2418732739777347E+00
Br    4.4707008511267682E-01    3.8095256562404995E+00    8.7800752842155418E+00
Br    3.4033252746022820E+00    3.5729091243816624E+00    5.7026768793729632E+00
Br    3.2990630516990751E+00    6.4945476393757078E+00    8.6725762161881441E+00
Br   -5.1946065732781515E+00   -3.1630621125381229E+00    9.3197712345925741E+00
Br    3.1571673096835218E+00   -2.3845275303463680E+00    1.2176797973951066E+01
Br   -2.4872800320509292E+00   -2.6020846779090436E+00    6.2802745080868769E+00
Br   -2.4251739407520656E+00    3.3802652504493785E-01    9.1251170537418815E+00
Br   -2.9456957385035896E+00   -1.2410546997922413E+01   -2.2635733800565729E+00
Br    3.9385740203503050E+00   -9.1725679333195789E+00    1.1934048641981445E+01
Br   -1.2598702266869950E+01    2.5951571790999726E+00   -2.8982816264681324E+00
Br   -2.3190827088557149E+00   -1.1382973069863842E+01    4.5972435982831419E+00
Br   -1.1271857803875168E+01   -3.5019989976940926E+00   -2.7744715875301971E+00
Br    2.7489597625408102E+00    8.9752363168747600E+00    1.1177598132574644E+01
Br   -8.6936162284642986E+00   -3.2944646235359492E+00   -5.9751242393316222E+00
Br   -9.0537126841938420E+00   -2.8261281957589179E-01   -3.2378191976315613E+00
Br    3.1299569610782072E+00    3.3647821403756839E+00    1.1941818784896707E+01
Br   -6.3359860796301462E+00    8.1949639740781617E+00   -3.0628904722221595E+00
Br   -3.5603731993852334E+00    8.5132048069832056E+00   -6.3420352331312504E+00
Br   -3.3243899360491520E+00    1.1021924061396160E+01   -2.7152408809773902E+00
Br   -6.4749628602726510E+00    2.8227917201484023E+00   -3.0499621073011882E+00
Br   -1.1352382409913211E+01   -9.4737367761249764E+00    3.7916242991198041E+00
Br   -2.6961881110478463E+00    2.3603444690714301E+00   -6.1357817121630829E+00
Br   -5.6543013337521941E+00   -3.6035042905090529E+00   -8.5301865045088388E+00
Br   -2.0323145860225003E+00   -3.9725373917454414E+00   -1.1518694009532910E+01
Br   -2.9410323592418166E+00   -9.4267989360636517E-01   -8.7232150163333824E+00
Br   -2.8384129207108315E+00    2.5777995096410455E+00    1.1909542766721019E+01
Br   -5.4903459723510339E+00   -9.1811452091117278E+00    9.6394319896981742E+00
Br   -2.2870506705261424E+00   -8.3034671107737434E+00    6.7109972997349434E+00
Br   -2.2108283132519313E+00   -5.8037491767487213E+00    1.0012750073924238E+01
Br   -8.3375976918391697E+00   -9.1166508760328657E+00    9.2427272008056183E-01
Br   -9.0588267324890719E+00   -6.1052572888401642E+00    3.9237844461652776E+00
Br   -8.4489525124917861E+00    8.8403720328179087E+00    1.1155930046916154E+01
Br    1.1678004061029970E+01    8.8984474508238272E+00    2.0731187049555340E+00
Br   -9.9575241443476781E+00   -9.3875109468633440E+00    1.2384944364226435E+01
Br    1.1325385703903022E+01    1.0285413817207987E+01   -4.2670230023085054E+00
Br    1.1986999773115626E+01    3.8127877183966610E+00    3.0911601347999342E+00
Br   -7.9687711936603449E+00    2.8277357557244116E+00    1.1848046418463161E+01
Br   -1.2113634314134375E+01   -3.9086943209674256E+00   -9.5718963648543749E+00
Br    1.2530303748108810E+01   -2.5537977239666714E+00    8.7453664852156372E+00
Br   -5.5316126165829491E+00   -8.6322297303114102E+00    3.4884043195055905E+00
Br    6.1491933457024830E+00   -2.7639574575755699E+00   -8.9490561674179308E+00
Br    8.5147062089845988E+00   -3.6822337549653072E+00   -1.2086836833764115E+01
Br    1.3040658720390642E+01   -7.7216733830291897E+00    8.4613840632406205E+00
Br    8.9990293903141829E+00   -5.9484749998605490E-03   -9.4621303635709992E+00
Br   -8.0888278234277475E+00   -1.2138803289937441E+01    1.0136315557102368E+01
Br   -2.3378726796135627E+00   -9.0875640216162612E+00    5.8439205160850904E-01
Br   -2.6321069170679712E+00   -6.0250983034773213E+00    3.7376731800921332E+00
Br    5.8111548252798872E+00   -9.2580344873844620E+00   -8.6845625460541545E+00
Br   -5.9375393674303103E+00   -9.9139468018891730E+00   -7.7282811203277033E+00
Br    9.0159685178872309E+00   -9.0244335745076434E+00   -1.1967305440971451E+01
Br    8.8913909651016567E+00   -6.2261655472446424E+00   -8.9262068752900792E+00
Br   -2.4271783361256669E+00   -1.1682231572051574E+01    8.9351861210914905E+00