 # Version information for this restart file 
 # current date 2021-06-17 12:33:49.136
 # current working dir /user/ub2042/exercises/2_fitting/MM_MD_workdir/md_settings
 # Program compiled at                              Thu Apr 22 21:44:59 EDT 2021
 # Program compiled on                cpn-k07-07-02.compute.cbls.ccr.buffalo.edu
 # Program compiled for                                                    local
 # Source code revision number                                       git:36754bb
 &GLOBAL
   PRINT_LEVEL  LOW
   PROJECT_NAME cp2k
   RUN_TYPE  MD
 &END GLOBAL
 &MOTION
   &MD
     ENSEMBLE  NVT
     STEPS  10000
     TIMESTEP     2.4999999999999996E+00
     STEP_START_VAL  6000
     TIME_START_VAL     1.4999999999999609E+04
     ECONS_START_VAL    -1.3925666412857368E+01
     TEMPERATURE     3.0000000000000000E+02
     &BAROSTAT
       PRESSURE     1.0100000000000000E+00
       TIMECON     9.9999999999999982E+03
     &END BAROSTAT
     &THERMOSTAT
       TYPE  CSVR
       &CSVR
         TIMECON     9.9999999999999982E+03
         &THERMOSTAT_ENERGY
              -2.2175454834277669E-01
         &END THERMOSTAT_ENERGY
         &RNG_INIT
Wiener process for Thermostat # 1        1 F T F  -1.0069755728574066E+00        3529487211.0         892566978.0         113824115.0        3681411532.0        3123167529.0        1101700212.0             12345.0             12345.0             12345.0             12345.0             12345.0             12345.0             12345.0             12345.0             12345.0             12345.0             12345.0             12345.0
         &END RNG_INIT
       &END CSVR
     &END THERMOSTAT
     &AVERAGES  T
       &RESTART_AVERAGES
         ITIMES_START  1
         AVECPU     1.7880048623347296E-02
         AVEHUGONIOT     0.0000000000000000E+00
         AVETEMP_BARO     0.0000000000000000E+00
         AVEPOT    -1.4272455505958202E+01
         AVEKIN     4.5743153279890592E-01
         AVETEMP     2.3204061238438243E+02
         AVEKIN_QM     0.0000000000000000E+00
         AVETEMP_QM     0.0000000000000000E+00
         AVEVOL     6.7483345830909275E+06
         AVECELL_A     1.8897261328855745E+02
         AVECELL_B     1.8897261328855745E+02
         AVECELL_C     1.8897261328855745E+02
         AVEALPHA     9.0000000000000000E+01
         AVEBETA     9.0000000000000000E+01
         AVEGAMMA     9.0000000000000000E+01
         AVE_ECONS    -3.6698295371539831E+00
         AVE_PRESS     0.0000000000000000E+00
         AVE_PXX     0.0000000000000000E+00
       &END RESTART_AVERAGES
     &END AVERAGES
     &PRINT
       &ENERGY  SILENT
         &EACH
           MD  10
         &END EACH
       &END ENERGY
     &END PRINT
   &END MD
   &PRINT
     &TRAJECTORY  SILENT
       &EACH
         MD  10
       &END EACH
     &END TRAJECTORY
     &CELL  SILENT
       &EACH
         MD  10
       &END EACH
     &END CELL
     &VELOCITIES  SILENT
       &EACH
         MD  10
       &END EACH
     &END VELOCITIES
     &FORCES  SILENT
       &EACH
         MD  10
       &END EACH
     &END FORCES
     &RESTART  SILENT
       &EACH
         MD  10
       &END EACH
     &END RESTART
   &END PRINT
 &END MOTION
 &FORCE_EVAL
   METHOD  FIST
   &MM
     &FORCEFIELD
       VDW_SCALE14     1.0000000000000000E+00
       EI_SCALE14     1.0000000000000000E+00
       SHIFT_CUTOFF  T
       DO_NONBONDED  T
       IGNORE_MISSING_CRITICAL_PARAMS  T
       &SPLINE
         R0_NB     2.5000000000000000E-01
       &END SPLINE
       &NONBONDED
         &LENNARD-JONES
           ATOMS Br Br
           EPSILON     1.2630795322675199E+02
           SIGMA     3.6900000000000004E+00
         &END LENNARD-JONES
         &LENNARD-JONES
           ATOMS Cs Pb
           EPSILON     8.6920055954630968E+01
           SIGMA     3.6699999999999999E+00
         &END LENNARD-JONES
         &LENNARD-JONES
           ATOMS Cs Cs
           EPSILON     2.2644852172126850E+01
           SIGMA     4.5300000000000002E+00
         &END LENNARD-JONES
         &LENNARD-JONES
           ATOMS Pb Pb
           EPSILON     3.3363415533600227E+02
           SIGMA     6.1000000000000005E+00
         &END LENNARD-JONES
         &LENNARD-JONES
           ATOMS Br Cs
           EPSILON     5.3481070753900497E+01
           SIGMA     3.6300000000000003E+00
         &END LENNARD-JONES
         &LENNARD-JONES
           ATOMS Br Pb
           EPSILON     2.0528187276773045E+02
           SIGMA     2.9800000000000000E+00
         &END LENNARD-JONES
       &END NONBONDED
       &CHARGE
         ATOM Cs
         CHARGE     4.1739999999999999E-01
       &END CHARGE
       &CHARGE
         ATOM Pb
         CHARGE     8.3479999999999999E-01
       &END CHARGE
       &CHARGE
         ATOM Br
         CHARGE    -4.1739999999999999E-01
       &END CHARGE
     &END FORCEFIELD
     &POISSON
       PERIODIC  XYZ
       &EWALD
         EWALD_TYPE  SPME
         GMAX  62 62 62
         O_SPLINE  4
       &END EWALD
     &END POISSON
     &PRINT
       &FF_INFO  LOW
         SPLINE_INFO  F
         SPLINE_DATA  F
       &END FF_INFO
     &END PRINT
   &END MM
   &SUBSYS
     &CELL
       A     1.0000000000000001E+02    0.0000000000000000E+00    0.0000000000000000E+00
       B     0.0000000000000000E+00    1.0000000000000001E+02    0.0000000000000000E+00
       C     0.0000000000000000E+00    0.0000000000000000E+00    1.0000000000000001E+02
       PERIODIC  XYZ
       MULTIPLE_UNIT_CELL  1 1 1
     &END CELL
     &COORD
Cs    6.2957935959476152E-01   -6.5633603501812887E-01   -5.4599371080823618E+00
Cs    1.7680610758005251E+00   -6.4792336403164619E+00   -5.1860717636931195E+00
Cs    1.4923475641809172E+00   -1.1897439594562769E+01   -4.0416190841773156E+00
Cs   -5.8543188531800467E+00   -7.7898580984396855E+00   -4.6444270372180085E+00
Br   -6.8600192101532320E+00   -1.3130734377092740E+01   -6.8312378963947680E+00
Br    1.1841089174524393E+01   -2.6595810918168148E+00   -8.8955177219991999E+00
Br   -4.5277141158725698E+00    1.7835897031109360E+00   -1.2503515156646124E+01
Cs   -3.1976728020620276E-01    4.3699614972661749E+00   -6.6919087237752564E+00
Cs   -2.8613048806129204E-01    2.7466241416162424E-01   -1.2318950192605442E-02
Cs    6.0833243289965233E-01   -5.9222896476893405E+00    7.6384170250945196E-02
Br   -5.7550133796483589E+00   -3.3487517646320932E+00    3.1604114993098267E+00
Cs   -1.2276352642355914E+01   -5.5672869309493986E+00    1.2383721144712171E+01
Cs    1.2401340316022758E+01   -1.1100568268906386E+01    1.2424412184304625E+00
Cs   -6.3455581494064690E+00    5.1041213245446038E+00   -5.9276547376704181E-01
Cs   -1.9910811342227448E+00    1.2472960078642082E+01   -1.2553541859620934E-01
Cs   -9.0026643952737218E-01    6.2150783543917587E+00   -7.4291694860884794E-01
Cs    2.0517922046840747E-01    1.2050738135658774E+00    5.3332381749750857E+00
Cs   -5.9495919855231216E-01   -5.0542697524514804E+00    6.8595872164696816E+00
Cs    1.3673492111614678E+00   -1.1060564671172902E+01    7.2903299033099938E+00
Cs   -6.0065486140046174E+00    6.8315350871361211E+00    1.1186220704012973E+01
Cs   -6.7706553866684187E+00   -1.2078113670809731E+00   -1.1486911544388240E+01
Cs   -4.5242861877697900E+00   -1.2662307653716985E+01   -4.3315901339319627E+00
Cs   -6.1608294055238844E+00   -2.9091518635585295E-01    6.0162700757982055E+00
Br   -3.0469465625854739E+00   -3.2394453218643617E+00    2.0155145271759808E-01
Cs   -3.6964082355415367E-01    6.4210241323719810E+00    5.2166683089536567E+00
Br    1.2116258050374681E+01   -7.3896664853243212E+00   -8.8596543260876377E+00
Cs    1.7417904619823401E+00   -4.5964662185230782E+00    1.2139523105559363E+01
Br   -2.3681739647033271E+00    2.3456186513279308E-02    3.0643677013695627E+00
Br   -9.6063387329644279E+00   -2.4164921912832904E+00    1.2489493566468914E+01
Cs    9.9418374637781817E+00    1.2109864441247117E+01   -7.8222216937869762E+00
Cs   -1.1696625610533143E+01   -5.6303844653469195E+00    6.4981538619630657E+00
Cs   -5.7978616263069442E+00   -6.9708939003246417E+00    7.5175869768227699E+00
Cs   -7.6586717889773146E+00    1.0191559243020906E+01   -5.6223716881735593E+00
Br   -1.0541468019270109E+01   -9.7648515643117904E+00    1.0773418811925616E+01
Br   -8.0309673806071320E+00   -9.7316879187143748E+00    7.3641414112957531E+00
Cs   -1.1009917289044955E+01   -7.3930124592948525E+00   -3.5008479102420278E+00
Cs   -7.1076822743443318E+00    5.0297522805956438E+00   -6.7656409394571977E+00
Br   -8.7084207308311452E+00   -5.8558551790142399E+00    9.4298773245760064E+00
Cs    1.1248744446098767E+01    8.3153739087824832E+00    9.9043001101275188E+00
Br   -1.2106182221863527E+01    9.3108512442947227E+00    9.2257583979006537E+00
Br   -5.4907676682176803E+00   -4.5399846235513612E+00   -2.6828189925549237E+00
Cs    7.8897811570400633E-01    1.5395790266896971E+00    1.0643402558641265E+01
Cs    1.1013913147207102E+01    6.6145995233767518E+00   -1.4712301723736212E+00
Cs   -9.6557536482523716E+00   -7.4759623169880696E+00   -1.2300420431787852E+01
Cs    1.2069604142898678E+01    1.1906787505749323E+00    5.3957225917369183E+00
Cs   -1.2105644478518958E+01    1.1128599204166159E+01   -7.4441962360637515E+00
Cs    1.2057024423158969E+01   -1.0346315960523647E+01    7.2017859270287952E+00
Cs    5.9917009397151837E+00   -5.8762554894881180E+00   -1.0664780899036980E+01
Cs    6.8428266003837415E+00   -1.1075826273760590E+01    6.3676640077617970E+00
Cs   -4.9301804637919897E+00   -1.1925316066987810E+01    1.8277185237932341E+00
Cs    7.0784520203623273E+00   -1.1096423965240831E+01   -1.1022108193875761E+01
Cs    1.1050540002711097E+01    7.3302901761657084E+00   -7.9377067867126847E+00
Cs    9.9168895300432869E+00    1.3146113765267048E+01    4.0610835532866023E+00
Cs    1.0576773931107084E+01    6.8348014284023648E+00   -1.2996719641739846E+01
Cs    5.4086522371325496E-01   -6.5947773170531567E+00   -1.1582718796677916E+01
Cs   -1.1418299219878913E+01   -1.6533751048428276E+00   -5.4328436172493504E+00
Cs    7.0882413677426221E+00   -3.9664914966743381E+00    1.1819425983435970E+01
Cs    1.3058432140111970E+01   -4.1979511733923598E+00    6.0414320385338396E+00
Cs   -9.4285196398864262E+00   -1.1895182967464203E+01    1.2870243331330188E+01
Cs   -4.6526850767725392E-02   -7.0438273535373375E-01   -1.1977373674496025E+01
Cs   -5.4974403201517497E-01    1.1165995841751132E+01    5.1479258635579512E+00
Cs   -2.1271276750885955E+00    4.3737950459026269E+00   -1.2310253172366881E+01
Cs    6.3176132535934189E+00   -3.0060092170797920E-01   -5.6994857252150748E+00
Cs    6.7553242472515072E+00   -6.2583843441981033E+00   -5.8381316840082871E+00
Cs   -4.5577028376970539E+00   -1.1157151530701908E+01    6.9571502886416958E+00
Cs   -1.2098045831483056E+01    1.3062641045410202E+00    6.4750590906029286E+00
Cs    5.2438936224789447E+00   -5.7752609927392629E-01   -1.1699829314318229E+01
Cs    4.2519124501815853E+00    1.0857518720355726E+01   -1.2835688563435312E+01
Cs   -4.0468592700099926E-01    7.7712185216828900E+00    1.1393465062057093E+01
Cs   -5.5664968210799444E+00    1.1432831270678603E+01    5.8801356592273777E+00
Cs    4.0987421894357761E+00    1.1096415722899186E+01   -8.5685703051453448E+00
Cs    4.7883814428602562E+00    5.7809844033129307E+00   -6.9685049370128045E+00
Cs    5.9756345774775950E+00    6.9656425868538152E-01    1.7605165745160989E-01
Cs    6.1681373495478180E+00   -6.0075787743951645E+00    4.3902566263204917E-01
Cs    6.4269411945942778E+00   -1.1068925734235249E+01    9.0630368564917740E-01
Cs    5.1646536591774082E+00    5.0427636060374201E+00   -1.2414899245534079E+01
Cs   -6.1554027013928589E+00    5.9142613185952504E+00    6.1807727798982013E+00
Cs   -4.7227114064787994E+00   -7.6862215415573525E+00   -1.1197972381553740E+01
Cs    5.2165397903505468E+00    6.9916802303574199E+00   -9.0913289851575252E-01
Cs    5.9355614946484918E+00    6.5046970151226124E-01    5.7892294123571739E+00
Cs    6.9528120107417308E+00   -5.2672710549492425E+00    6.5021319347191930E+00
Cs   -7.6817412249647710E+00    1.0203281088421090E+01   -1.4532503699897198E-01
Cs    1.1382857374888449E+01    1.1853387958930652E+00   -1.3179119101391126E+00
Cs   -5.7867947310064869E+00   -4.5057883605509225E-01    2.5209648262567974E-01
Cs   -1.2270571125716025E+01    6.5106625462150012E+00    7.3998331458629361E+00
Cs   -5.3724076486777355E+00    6.2631532720614558E-01    1.1520406938343710E+01
Cs    5.1705172746012327E+00    1.2158977454862260E+01    4.3988052974615277E+00
Cs    6.5654135978604211E+00    6.7016827237749625E+00    4.9357666864845786E+00
Cs    6.8181261656432310E+00    1.2894714872616755E+00    1.1029056097794928E+01
Cs    6.0989373029624501E+00    1.3116031259754308E+01   -1.3297912967700436E+00
Cs    1.2677455192017128E+01    6.6639625146738801E-01   -7.4220532926681404E+00
Cs    1.2060168226460382E+01   -5.0456891418761192E+00   -5.7096098863968940E+00
Cs    7.3399263213476891E+00   -9.6646090510495757E+00    1.1884415444290772E+01
Cs    1.1240118158298516E+01    1.1260976234174320E+01   -2.2319255442488903E+00
Cs   -1.0604596579285444E+01    7.8006438425799507E-01    1.2319314577145160E+01
Cs   -7.9123916317383678E+00    4.1020504839175356E+00   -1.1408067751180246E+01
Cs   -1.3186367939688443E+01    9.7584331959501540E+00    1.4303408764652056E-01
Cs   -4.9978399830687223E+00   -5.1821767974325379E+00    1.2433815084716931E+01
Cs   -2.8187473387266957E+00   -1.1827975930629426E+01    1.3007973317305686E+01
Cs    6.3839410649394477E+00    7.3600706748253453E+00    9.8142904887290783E+00
Cs    1.2310448235333650E+01   -5.3352315457486688E+00   -7.8627851865239393E-02
Cs   -1.1417351445885743E+01   -1.2459063927241283E+00    6.4234258956074997E-01
Cs   -8.0237185247262754E+00    9.7288930803257490E+00   -1.2378340947093553E+01
Cs   -1.1330196815706699E+01    4.3583060242553167E+00    8.0842072639718532E-01
Cs   -1.0289450229119236E+01   -1.2975377025371181E+01   -4.5109067459382555E+00
Cs   -1.0849774594416118E+01   -6.9345540356593514E+00    1.1258115076023700E+00
Cs   -5.5000646502187589E+00   -6.3345034746787725E+00   -2.0085730366147794E-01
Cs   -1.1228782002438439E+01   -1.1606126621343188E+01    7.4272392429131715E+00
Cs    1.2696649966513036E+01   -3.2021492814857879E+00    1.1295066145639092E+01
Cs    1.1291727546800688E+01    6.8541391737471935E+00    4.3208272027903440E+00
Cs   -1.3020707606333300E+01    3.7098930403031662E+00   -4.8135005422105426E+00
Cs   -5.1524480295571857E+00   -1.7870254560204850E+00   -5.6386095727225642E+00
Cs   -1.0533414479826410E+01   -1.2215888467258068E+01    1.0229907362188526E+00
Cs    1.1663456526781109E+01   -5.4821587262823215E+00   -1.1894906442430914E+01
Cs   -4.6739905583514307E+00   -1.3251244439922763E+01   -9.7699595179563019E+00
Cs   -1.4172052829075636E+00    9.6745661203975892E+00   -1.2477296382343445E+01
Cs    6.9915386541505198E-01   -1.2744630917858579E+01   -9.5427609320430626E+00
Cs   -7.1919083286899288E-01    1.0366326187469481E+01   -8.0479185713181511E+00
Cs   -6.7893865275868546E+00    1.2672613721932487E+01    1.1914481383746327E+01
Cs    1.0930627363679224E+00   -1.1386460067851054E+01    1.7489795764861842E+00
Cs   -1.2096094181774877E+01   -1.2842247075232338E+00   -1.0344342353698496E+01
Cs   -1.1842493065089293E+01    1.1904217175798751E+01    5.6189589132965692E+00
Cs    6.9380975427680047E+00   -1.1314297149420570E+01   -4.5449453074597423E+00
Cs    1.1165662657097339E+01    5.7453173180307804E-01   -1.2877878002196498E+01
Cs   -6.5506097043544931E-02    1.3100071442503438E+01    9.7848586902389769E+00
Pb    3.7375760532410234E+00   -2.8447630273849436E+00   -2.7243420236796236E+00
Pb    3.9307067795155990E+00   -8.6687260788113694E+00   -1.9419204043029785E+00
Pb   -8.5009423177665013E+00   -3.4817339393538611E+00    3.5804387696393571E+00
Pb   -1.9818980319621864E+00   -9.9583750787941963E+00   -1.2804940836213055E+00
Pb    1.9377068429755790E+00    8.6254823696284308E+00   -4.4229726533107385E+00
Pb    2.7960754766278271E+00    2.6562268569121943E+00   -3.5230855118863724E+00
Pb    3.4555044177826217E+00   -2.5459547906720443E+00    3.3223080964157976E+00
Pb    3.7532794778342913E+00   -8.4626923062781483E+00    3.9884092462137675E+00
Pb   -3.6390228439284922E+00    9.1992913459348333E+00    2.5954727718443706E+00
Pb    2.2570402830255532E+00    9.8953038460270228E+00    1.6198981904232101E+00
Pb    2.5843240839943342E+00    3.7212967433423785E+00    2.2684582457015625E+00
Pb    3.5236764465513328E+00   -2.3304108524621485E+00    9.3606321203320046E+00
Pb    4.3686812943239746E+00   -8.0236539394031308E+00    9.6846176099497843E+00
Pb   -3.3756552519146408E+00    2.7959906412793338E+00    2.8126202408281635E+00
Pb    2.6400923295379393E+00    9.5956259859277289E+00    7.8908489288631598E+00
Pb    3.4507195697370054E+00    3.6852744313280144E+00    8.2432997106677490E+00
Pb   -2.8890848637203868E+00   -2.2587352012536464E+00    9.2653226139975136E+00
Pb   -8.4963031060575389E+00   -9.8030448507011787E+00    4.2743721079396311E+00
Pb   -9.6428423467783322E+00    1.5598497691132664E+00   -2.4986162899017961E+00
Pb   -3.0237544216315522E+00   -4.3307450748129570E+00   -8.7580559210614197E+00
Pb   -2.0270952088648611E+00   -8.9376147425039800E+00    4.4337218071555187E+00
Pb   -4.1538024220677530E+00    8.4672091152528477E+00   -3.4750311211213982E+00
Pb   -1.6009712689727322E+00   -8.0825849858605281E+00    1.0615678360969081E+01
Pb   -8.4213097062976381E+00   -4.0756399649943695E+00   -2.5017955451877616E+00
Pb   -8.3026211788476179E+00   -1.0255198337886524E+01   -1.6770826966453283E+00
Pb   -3.4119369125654222E+00    2.3590359123624705E+00   -3.4363735523243193E+00
Pb   -7.8168444165933524E+00   -8.4895132565617928E+00    1.0232673467444910E+01
Pb   -8.9913630061395065E+00   -4.5208461898998147E+00   -8.4406116465154319E+00
Pb    9.0476422826456542E+00   -2.7853766716339918E+00   -9.3021326805464142E+00
Pb    9.5236910820910836E+00   -8.4872972727982834E+00   -8.5348885040781450E+00
Pb   -2.0954230832758753E+00   -1.0060099599191840E+01   -7.3522259883121803E+00
Pb   -1.0631871327013195E+01    7.4088886692381903E+00   -9.4380249947240600E+00
Pb    3.0610074744704052E+00   -3.4930563502764449E+00   -8.6133406152648853E+00
Pb    3.7259059031529294E+00   -9.6542622817348054E+00   -7.7023223108823560E+00
Pb   -3.6931596520389154E+00    1.6874524910777224E+00   -9.6596433015266516E+00
Pb    1.7061562705290343E+00    7.9578353086942037E+00   -1.0388633677005977E+01
Pb    2.7446777028521123E+00    2.1994582945617895E+00   -9.5774361185626962E+00
Pb    9.7366949462513173E+00   -2.2411583224566742E+00   -3.2993710918446979E+00
Pb    9.7719181954593726E+00   -8.2052768778979246E+00   -2.4631264803897652E+00
Pb   -9.1753330124933825E+00   -2.7784307163172413E+00    9.5502670851248119E+00
Pb    7.9199972700762782E+00    9.3168965482839390E+00   -1.0910902684389233E+01
Pb   -9.8487862857017401E+00    1.2785850755789878E+00   -8.3891296875524226E+00
Pb   -3.0196843362518542E+00    9.5505895248496486E+00    8.5760742446325242E+00
Pb    7.6412425646201729E+00    9.5124325430133343E+00   -4.8073432740250821E+00
Pb    8.5919327250573119E+00    3.4232798133868552E+00   -4.3153625105847295E+00
Pb    9.5117289724314045E+00   -2.2519846593953963E+00    2.6949281936865908E+00
Pb    9.8836570458485227E+00   -8.1646123556616672E+00    3.6711877456452742E+00
Pb    8.8479661337296314E+00    3.2672013799908646E+00   -1.0449011326379409E+01
Pb   -2.5892047422570625E+00    3.5084065782955123E+00    8.6580837475518901E+00
Pb    8.3330436314229654E+00    9.6561608943358124E+00    1.2005953670978931E+00
Pb    8.6243992572078678E+00    3.6277229072891832E+00    1.8515834634686401E+00
Pb    9.4108293230653945E+00   -1.1449641200318508E+00    8.5913518341194326E+00
Pb    1.0309379463275560E+01   -7.0926326476729260E+00    9.6621230996970624E+00
Pb    8.6671387106417423E+00    1.1028553289412597E+01    7.1071578364951007E+00
Pb    9.2802695714717682E+00    4.7445481946871544E+00    7.7894156268467114E+00
Pb   -8.4596101915393511E+00    3.3663118193990211E+00    9.3175305129621222E+00
Pb   -2.4897613198708197E+00   -2.9924098457228250E+00    3.3814185722757752E+00
Pb   -9.5747822191603440E+00    7.9570470310360832E+00    3.4697063287186594E+00
Pb   -1.0445872987082600E+01    7.3842393732095530E+00   -2.9836184661215106E+00
Pb   -7.7883849332403647E+00   -1.0748159783937670E+01   -8.0032173739632686E+00
Pb   -4.2841653587517392E+00    7.5034735919882092E+00   -9.4385529061511040E+00
Pb   -9.2230318539705518E+00    2.0949044925708891E+00    3.2728735006147240E+00
Pb   -9.0466788697630527E+00    9.9239226205260866E+00    9.0943974276028428E+00
Pb   -2.3405183258246103E+00   -3.7300031179358766E+00   -2.6404468886082042E+00
Br    6.2742601452182367E-01   -3.4886460785316209E+00   -3.0912752822736036E+00
Br    3.4871668592343608E+00   -3.5177094043045165E+00   -5.6185667451358370E+00
Br    3.5412597351292092E+00    7.3470434267377371E-02   -3.5849206392382320E+00
Br    9.9897334922068148E-01   -9.3952484800272558E+00   -1.1478004692542931E+00
Br    3.6790445701313526E+00   -9.0439770444807035E+00   -5.0127784165147142E+00
Br    3.4109947079605671E+00   -5.9071025374734791E+00   -2.2712926032505369E+00
Br   -2.9013372274460605E+00   -4.0425875560167146E+00   -5.6156874235496979E+00
Br   -8.9054791308888142E+00   -2.9687132088002066E+00    6.4896968371160577E+00
Br   -2.8393563528246011E+00   -7.7945686937268333E-01   -2.4968583447701831E+00
Br    3.9805745984352465E+00   -1.1650141104158960E+01   -1.7209103392906360E+00
Br    1.2406027231150667E+01   -1.8418009354285052E+00    3.3161737491972283E+00
Br   -5.0438675218801281E+00   -9.9253863807381766E+00   -1.2821471512549025E+00
Br   -1.1353449535983348E+01   -3.8273331452879282E+00    3.2224843485794263E+00
Br   -8.6832514732028283E+00   -3.7526262318374157E+00    6.1368740557856760E-01
Br    1.2804175552323908E+01   -8.9748857322064399E+00    3.8891717599060445E+00
Br   -1.3227456429705249E+00    8.3483447490237399E+00   -4.0995646409349611E+00
Br    2.1394263781195639E+00    7.8768761593360308E+00   -7.6102460873861464E+00
Br    1.7399279294228993E+00    1.1194117484217971E+01   -5.9577284671993453E+00
Br   -5.7970931274379511E-01    2.4790876915781421E+00   -3.0691357578707450E+00
Br    2.0582844785971992E+00    2.3008840483061745E+00   -6.7526877242495562E+00
Br    2.2302083487873823E+00    5.5314597840809760E+00   -4.4336521565624629E+00
Br    4.2220637513764109E-01   -2.6671473874739586E+00    3.0398577877295931E+00
Br    3.2920297858747611E+00   -2.4860625819390845E+00    1.2509482519572485E-01
Br    3.1895128923116380E+00    5.4279684074706602E-01    2.6540941430938334E+00
Br    7.3172622355692007E-01   -8.8163765081397827E+00    3.8754910999260526E+00
Br    3.9587850056475600E+00   -8.6485626098174393E+00    8.9805653336981339E-01
Br    3.9796005795594382E+00   -5.7285494669483095E+00    3.5285802963571964E+00
Br   -7.3347068881626765E+00    7.8785954982252635E+00   -9.5540587192908077E+00
Br   -3.7244365285830483E+00    7.3758179411969378E+00   -1.2280408858368157E+01
Br    4.1551640760470727E+00   -1.1260414170556459E+01    3.7983059668373560E+00
Br   -4.1843390017963689E+00    1.0429727444000179E+01   -1.0603925128382878E+01
Br   -4.4164243092867119E+00    4.6959720579267445E+00   -9.4011219733058518E+00
Br   -9.2460656025654497E+00   -5.7757761763762872E-01    3.6307080140703296E+00
Br   -2.0479263408473742E+00   -9.8708222320971242E+00   -4.2997831411051761E+00
Br   -6.7450472979292551E+00    8.9839028323328112E+00    2.9045504351460183E+00
Br   -4.4259817470314093E+00    8.9257639588168871E+00   -4.4963578166546853E-01
Br   -3.5939267920282258E+00    1.1983016967590340E+01    2.5783931518693808E+00
Br   -5.9667058617790236E-01    9.7529019588903676E+00    1.9172739890970498E+00
Br    1.9412453227628554E+00    1.0060633459918874E+01   -1.6570526585653309E+00
Br    1.7823197457580724E+00    1.2885467466670892E+01    2.1927578329313633E+00
Br   -4.9566747573559944E-01    3.4823482168712352E+00    2.8200577295095832E+00
Br    2.4162209747857091E+00    3.4710653657004578E+00   -5.0056752828573092E-01
Br    2.3877901478418626E+00    6.6528064292675904E+00    1.4371904232808117E+00
Br    5.8327266362096097E-01   -3.2196275797008083E+00    9.4387454621172342E+00
Br    3.2318845757081052E+00   -2.7854841064744376E+00    6.1913505956991699E+00
Br    3.1995986641430267E+00    5.6316113511601384E-01    8.2707946114093129E+00
Br    1.2667573783903348E+00   -7.6433653586649619E+00    1.0211238316201595E+01
Br    3.5870514690114126E+00   -7.6240902005903495E+00    6.7702278717538329E+00
Br    4.4763645524836706E+00   -5.0416507780622712E+00    9.5158782959977462E+00
Br   -1.2232396147543147E+01    2.5232752364823057E+00    3.5465544933267945E+00
Br   -9.0564319666633111E+00    2.0103118057058174E+00    1.8467419629014956E-01
Br    4.5041909711265085E+00   -1.1112785781770313E+01    9.6786761392841552E+00
Br   -8.8375683049020761E+00    4.8817486611034067E+00    3.2421993938153033E+00
Br   -9.0652759877114910E+00    2.3085214432737891E-01    9.2797191431067549E+00
Br   -1.8561386005127334E+00   -6.3962652618688987E+00   -1.9233256220929094E+00
Br   -6.3453684667946044E+00    1.5837136166894823E+00    2.9669492609343657E+00
Br   -3.9936453728451817E+00    2.4331351849836924E+00   -3.1311297926487236E-01
Br   -3.7901874155679747E+00    5.7155800076120835E+00    2.5223835339103098E+00
Br   -1.2698945665635825E-01    9.1292511267646219E+00    8.1390087169157201E+00
Br    2.2904012437542431E+00    9.8467258427322051E+00    4.6086092364687845E+00
Br    2.5001086223873705E+00    1.2479671001359652E+01    7.5288047587797307E+00
Br    4.0297713986579786E-01    3.6928942605870105E+00    8.0193090294602829E+00
Br    2.5028675381832826E+00    4.2018720141453088E+00    5.0735353513991246E+00
Br    3.3261344638027603E+00    6.6577567062250669E+00    8.1075850844024266E+00
Br   -5.6957865960212102E+00   -1.9657898275384524E+00    9.1422462861015976E+00
Br    3.8809101661238135E+00   -2.3925054444000207E+00    1.2035523525004365E+01
Br   -2.7676635576005317E+00   -2.7330415191363615E+00    6.1705438740123499E+00
Br   -2.5469257572021320E+00    5.9905908555718013E-01    9.1934681837437733E+00
Br   -1.2820535549515613E+00   -1.2781253815096479E+01   -1.4858091420970567E+00
Br    4.7992350264003960E+00   -7.9275904399437715E+00    1.2314062377549504E+01
Br   -1.2336878545329702E+01    7.8411505769498169E-01   -2.2398877154882584E+00
Br   -2.2426681893079095E+00   -1.1961608883272367E+01    4.8841904531117670E+00
Br   -1.1133074930774765E+01   -4.5140198581065292E+00   -2.4869411116846432E+00
Br    1.9066035513583517E+00    1.0327902537828043E+01    1.0788497216784013E+01
Br   -8.4811252968559891E+00   -4.0074720900822749E+00   -5.6410088274563019E+00
Br   -9.0630079478043708E+00   -1.3441715973899515E+00   -2.3565795594052914E+00
Br    3.7120961289600984E+00    4.1792127000245411E+00    1.0988993522996928E+01
Br   -7.4646912355622357E+00    7.8968235041250576E+00   -2.9935289210509137E+00
Br   -4.4064779100195155E+00    7.5847121730128046E+00   -6.5795168617971473E+00
Br   -5.0295175012848459E+00    1.1004567853383797E+01   -3.6595352271229817E+00
Br   -6.4165823576107544E+00    2.7737124585377724E+00   -4.2683715444350190E+00
Br   -1.1113271545732943E+01   -1.1180643839136183E+01    4.0941935460545675E+00
Br   -2.8529526753254997E+00    1.4129491635346982E+00   -6.4047585497615289E+00
Br   -5.8096883483116351E+00   -4.1176199351453873E+00   -8.8197871825393008E+00
Br   -2.3495028076948046E+00   -4.5375715343647665E+00   -1.1554757137652448E+01
Br   -3.4112188893395694E+00   -1.4379757746274702E+00   -9.5716762059915705E+00
Br   -1.7437496037194153E+00    4.7636648412421074E+00    1.1305207608234179E+01
Br   -5.0615454439144099E+00   -8.2392197458120879E+00    1.0505707416662322E+01
Br   -2.4406789734599634E+00   -8.1279226444796393E+00    7.5258755710546383E+00
Br   -2.5989565481171928E+00   -5.1716049599477225E+00    1.0172098817232293E+01
Br   -8.5091787946222510E+00   -9.4934803327009192E+00    1.2345973809840616E+00
Br   -9.0464148502122157E+00   -6.8947431246362552E+00    4.2968655313860999E+00
Br   -8.6580710956842690E+00    9.8333614628215464E+00    1.1797455420130635E+01
Br    1.1173039808689923E+01    9.4574019420287101E+00    7.5581639576350512E-01
Br   -8.1655119063244257E+00   -7.4313250715306323E+00    1.3055584176020094E+01
Br    1.0436920636498014E+01    9.3289614742536227E+00   -5.4869721105883418E+00
Br    1.1222481311232697E+01    4.4089747243422162E+00    1.8642150315272001E+00
Br   -7.8096341627243921E+00    3.2961800230026044E+00    1.2034770584412426E+01
Br   -1.1792199298464721E+01   -4.0207587925400645E+00   -8.4233649071305159E+00
Br    1.2225819861745022E+01   -1.4274346532476843E+00    8.3046159722292181E+00
Br   -5.1603423349559021E+00   -9.1605939451150267E+00    4.4281445004443523E+00
Br    6.2435411090322113E+00   -2.5375686799349157E+00   -8.8439655311506318E+00
Br    9.2884205875750592E+00   -2.4329306803567032E+00   -1.2330503547073022E+01
Br    1.3034767746911511E+01   -6.0898332387000016E+00    9.5156005579628378E+00
Br    9.4635545187093175E+00    4.5579686130567043E-01   -9.8469738951934396E+00
Br   -7.1307731205411464E+00   -1.1970582013951391E+01    1.0798652062919951E+01
Br   -2.1349475154173052E+00   -9.8579164100055241E+00    1.5374324079740591E+00
Br   -2.3040565710807890E+00   -5.9063240582227028E+00    3.7171061518573678E+00
Br    6.5098023698978151E+00   -8.6697438671044136E+00   -8.6973960836893962E+00
Br   -4.9214368479230028E+00   -1.0267812853901578E+01   -7.7867848178516095E+00
Br    9.3303954633862176E+00   -8.4918517908346054E+00   -1.1586290801850307E+01
Br    8.6865754164644731E+00   -5.7117277031061988E+00   -8.9239437304600671E+00
Br   -1.2124602163877187E+00   -1.1119566707652810E+01    9.7146293402777655E+00