 # Version information for this restart file 
 # current date 2021-06-17 12:35:00.852
 # current working dir /user/ub2042/exercises/2_fitting/MM_MD_workdir/md_settings
 # Program compiled at                              Thu Apr 22 21:44:59 EDT 2021
 # Program compiled on                cpn-k07-07-02.compute.cbls.ccr.buffalo.edu
 # Program compiled for                                                    local
 # Source code revision number                                       git:36754bb
 &GLOBAL
   PRINT_LEVEL  LOW
   PROJECT_NAME cp2k
   RUN_TYPE  MD
 &END GLOBAL
 &MOTION
   &MD
     ENSEMBLE  NVT
     STEPS  10000
     TIMESTEP     2.4999999999999996E+00
     STEP_START_VAL  10000
     TIME_START_VAL     2.4999999999995482E+04
     ECONS_START_VAL    -1.3925666412857368E+01
     TEMPERATURE     3.0000000000000000E+02
     &BAROSTAT
       PRESSURE     1.0100000000000000E+00
       TIMECON     9.9999999999999982E+03
     &END BAROSTAT
     &THERMOSTAT
       TYPE  CSVR
       &CSVR
         TIMECON     9.9999999999999982E+03
         &THERMOSTAT_ENERGY
              -3.2121260686912578E-01
         &END THERMOSTAT_ENERGY
         &RNG_INIT
Wiener process for Thermostat # 1        1 F T F   7.6625087601539843E-01         259340563.0         549358240.0        2316100698.0        3346386813.0        1933804780.0        3700774362.0             12345.0             12345.0             12345.0             12345.0             12345.0             12345.0             12345.0             12345.0             12345.0             12345.0             12345.0             12345.0
         &END RNG_INIT
       &END CSVR
     &END THERMOSTAT
     &AVERAGES  T
       &RESTART_AVERAGES
         ITIMES_START  1
         AVECPU     1.7890807845094281E-02
         AVEHUGONIOT     0.0000000000000000E+00
         AVETEMP_BARO     0.0000000000000000E+00
         AVEPOT    -1.4241889989228971E+01
         AVEKIN     4.8616911547251485E-01
         AVETEMP     2.4661828314798257E+02
         AVEKIN_QM     0.0000000000000000E+00
         AVETEMP_QM     0.0000000000000000E+00
         AVEVOL     6.7483345830912264E+06
         AVECELL_A     1.8897261328855686E+02
         AVECELL_B     1.8897261328855686E+02
         AVECELL_C     1.8897261328855686E+02
         AVEALPHA     9.0000000000000000E+01
         AVEBETA     9.0000000000000000E+01
         AVEGAMMA     9.0000000000000000E+01
         AVE_ECONS    -3.8414662580668426E+00
         AVE_PRESS     0.0000000000000000E+00
         AVE_PXX     0.0000000000000000E+00
       &END RESTART_AVERAGES
     &END AVERAGES
     &PRINT
       &ENERGY  SILENT
         &EACH
           MD  10
         &END EACH
       &END ENERGY
     &END PRINT
   &END MD
   &PRINT
     &TRAJECTORY  SILENT
       &EACH
         MD  10
       &END EACH
     &END TRAJECTORY
     &CELL  SILENT
       &EACH
         MD  10
       &END EACH
     &END CELL
     &VELOCITIES  SILENT
       &EACH
         MD  10
       &END EACH
     &END VELOCITIES
     &FORCES  SILENT
       &EACH
         MD  10
       &END EACH
     &END FORCES
     &RESTART  SILENT
       &EACH
         MD  10
       &END EACH
     &END RESTART
   &END PRINT
 &END MOTION
 &FORCE_EVAL
   METHOD  FIST
   &MM
     &FORCEFIELD
       VDW_SCALE14     1.0000000000000000E+00
       EI_SCALE14     1.0000000000000000E+00
       SHIFT_CUTOFF  T
       DO_NONBONDED  T
       IGNORE_MISSING_CRITICAL_PARAMS  T
       &SPLINE
         R0_NB     2.5000000000000000E-01
       &END SPLINE
       &NONBONDED
         &LENNARD-JONES
           ATOMS Br Br
           EPSILON     1.2630795322675199E+02
           SIGMA     3.6900000000000004E+00
         &END LENNARD-JONES
         &LENNARD-JONES
           ATOMS Cs Pb
           EPSILON     8.6920055954630968E+01
           SIGMA     3.6699999999999999E+00
         &END LENNARD-JONES
         &LENNARD-JONES
           ATOMS Cs Cs
           EPSILON     2.2644852172126850E+01
           SIGMA     4.5300000000000002E+00
         &END LENNARD-JONES
         &LENNARD-JONES
           ATOMS Pb Pb
           EPSILON     3.3363415533600227E+02
           SIGMA     6.1000000000000005E+00
         &END LENNARD-JONES
         &LENNARD-JONES
           ATOMS Br Cs
           EPSILON     5.3481070753900497E+01
           SIGMA     3.6300000000000003E+00
         &END LENNARD-JONES
         &LENNARD-JONES
           ATOMS Br Pb
           EPSILON     2.0528187276773045E+02
           SIGMA     2.9800000000000000E+00
         &END LENNARD-JONES
       &END NONBONDED
       &CHARGE
         ATOM Cs
         CHARGE     4.1739999999999999E-01
       &END CHARGE
       &CHARGE
         ATOM Pb
         CHARGE     8.3479999999999999E-01
       &END CHARGE
       &CHARGE
         ATOM Br
         CHARGE    -4.1739999999999999E-01
       &END CHARGE
     &END FORCEFIELD
     &POISSON
       PERIODIC  XYZ
       &EWALD
         EWALD_TYPE  SPME
         GMAX  62 62 62
         O_SPLINE  4
       &END EWALD
     &END POISSON
     &PRINT
       &FF_INFO  LOW
         SPLINE_INFO  F
         SPLINE_DATA  F
       &END FF_INFO
     &END PRINT
   &END MM
   &SUBSYS
     &CELL
       A     1.0000000000000001E+02    0.0000000000000000E+00    0.0000000000000000E+00
       B     0.0000000000000000E+00    1.0000000000000001E+02    0.0000000000000000E+00
       C     0.0000000000000000E+00    0.0000000000000000E+00    1.0000000000000001E+02
       PERIODIC  XYZ
       MULTIPLE_UNIT_CELL  1 1 1
     &END CELL
     &COORD
Cs   -6.7838288630259480E-01   -4.1836998548092857E-01   -5.8293100393447475E+00
Cs    3.7936786277606149E-01   -6.0873643446682735E+00   -4.5486990276258918E+00
Cs    2.2314446174732585E+00   -1.2061424197806385E+01   -3.1532733493707501E+00
Cs   -4.3092379364514137E+00   -7.7253791565730179E+00   -3.4182825096628240E+00
Br   -7.6431446880914944E+00   -1.5296802170346325E+01   -5.0122996222984932E+00
Br    1.1516151764894060E+01   -2.3011526562674578E+00   -9.4629193843705757E+00
Br   -5.6605926863446534E+00   -1.0675976827279283E+00   -1.1872223638253390E+01
Cs   -1.0799766955053862E+00    4.7208522376703632E+00   -6.6685799177350411E+00
Cs   -5.3059713163529670E-02   -7.2230662983125282E-01   -3.7689977567440891E-01
Cs    9.3770732096600928E-01   -5.5034499364134266E+00    1.0252848775901322E+00
Br   -4.9885582293766149E+00   -3.5339266991275808E+00    4.4999566256593670E+00
Cs   -9.4712854829906643E+00   -6.1459048320158578E+00    1.4201096189135873E+01
Cs    1.3769654293093650E+01   -8.4814312418167308E+00   -3.5042042281205089E-02
Cs   -6.5672485888769643E+00    4.6097588387870401E+00    3.9278068921456893E-01
Cs   -2.0943995289264139E+00    1.0772996088165414E+01   -2.3077147619464937E+00
Cs   -9.7095490763116932E-01    5.6937501390959175E+00   -8.4112975483517838E-01
Cs    8.5037912573109287E-01    1.5294742639458472E+00    4.9694553987387211E+00
Cs    1.9633841587753729E+00   -3.9171781116266606E+00    7.5256909583309985E+00
Cs    2.8741627442127342E+00   -1.0461702644232895E+01    7.2130971448208427E+00
Cs   -6.2966197162389577E+00    6.9612694929014340E+00    1.0002870224065044E+01
Cs   -6.8848844294835780E+00   -3.8040743195738567E+00   -1.0363881916951728E+01
Cs   -4.8337740957529869E+00   -1.3986184048712406E+01   -3.0827428478873689E+00
Cs   -5.8137550472822745E+00    8.9859887342905764E-01    6.8030971519702401E+00
Br   -2.7630728648022429E+00   -3.7434419040969686E+00    1.1722870517318857E+00
Cs   -5.0019091120160031E-01    6.6445862825692501E+00    5.2144192020644509E+00
Br    1.2198274195666862E+01   -7.9287667246623759E+00   -9.0383850118637010E+00
Cs    2.2283684938143127E+00   -3.9973769985864109E+00    1.2083799139633562E+01
Br   -2.4011081385525013E+00   -1.5830751121697631E-01    3.2096115665183920E+00
Br   -5.8372116530855296E+00   -2.3226547069553587E+00    1.3117902915527724E+01
Cs    1.3546372710327081E+01    1.0340239248083567E+01   -7.3375847474689282E+00
Cs   -8.9748359663586363E+00   -6.5562224771530220E+00    8.5942507353667281E+00
Cs   -4.4028463977692400E+00   -5.8170928023312429E+00    7.7459445696878646E+00
Cs   -8.9435918489849033E+00    9.3188426810193121E+00   -7.7565662295976763E+00
Br   -8.7641525381225414E+00   -9.5626568209841594E+00    1.2769491457119081E+01
Br   -5.9206929387161926E+00   -1.0011579016343244E+01    8.5508051474361064E+00
Cs   -1.0789502917539206E+01   -7.9652808565353812E+00   -3.0048380257003333E+00
Cs   -7.7694998824890700E+00    3.7141424175784539E+00   -6.7081342575805065E+00
Br   -6.1356699760292770E+00   -6.3062070991263228E+00    1.0827421980523509E+01
Cs    1.0472402541290775E+01    1.0106250333692314E+01    9.7972088592714659E+00
Br   -1.3233950378029098E+01    7.7551993962235306E+00    8.9573032271174906E+00
Br   -5.3427498542633129E+00   -5.0486877201168268E+00   -1.3246532133996944E+00
Cs    1.4569754876188861E+00    2.2283095752148334E+00    1.1223002988740671E+01
Cs    1.0086233456411142E+01    7.8588525745726399E+00   -1.7546258144398392E+00
Cs   -1.1790711373293561E+01   -9.8235855984785925E+00   -8.4261236362862011E+00
Cs    1.2487809162608333E+01    4.7562167090559591E+00    4.8443375330231850E+00
Cs   -1.3465543053327917E+01    8.3332829437082712E+00   -7.5502234845087051E+00
Cs    1.3414078325102558E+01   -7.7051665090946768E+00    6.3231294953747037E+00
Cs    6.7639676525716688E+00   -7.4257295601387190E+00   -1.0968436793907577E+01
Cs    8.5993198831797528E+00   -8.8366220449673705E+00    7.0255704810201669E+00
Cs   -3.6369463398021482E+00   -1.1541873206834630E+01    2.8540103877874494E+00
Cs    6.8358153841195319E+00   -1.3288873139465815E+01   -9.4659550460802837E+00
Cs    9.2534859508301484E+00    6.2298942011662124E+00   -8.0946972935922048E+00
Cs    8.2201194630980154E+00    1.5552466856166598E+01    2.6743828634046718E+00
Cs    8.8625067062890217E+00    5.1505751933024468E+00   -1.3158067130647879E+01
Cs    6.2579788046037491E-02   -7.9049944451421208E+00   -1.1162347118374473E+01
Cs   -1.2339292002320011E+01   -2.6035760334436788E+00   -5.1033462442436832E+00
Cs    8.5056377321286902E+00   -1.9908981108509303E+00    1.1357279295127572E+01
Cs    1.2870048153426058E+01   -2.4148037556266853E+00    5.2506155726990080E+00
Cs   -7.3551084872920187E+00   -1.0281819119200422E+01    1.6042644427759825E+01
Cs   -1.7300200969535982E+00   -3.1871474872246432E+00   -1.1296770718514678E+01
Cs   -2.0203449957316124E+00    1.1926676947110094E+01    3.7642662735655272E+00
Cs   -2.2049920428664951E+00    2.8268195357071186E+00   -1.2945710042552895E+01
Cs    5.9302963398255413E+00   -8.9792790349379648E-01   -6.4709903592223883E+00
Cs    6.4882068281958025E+00   -5.5604767587189885E+00   -6.1065644416579810E+00
Cs   -2.1851918360468487E+00   -1.1128586877355222E+01    9.2705025608618943E+00
Cs   -1.0739825478747182E+01   -1.2997142569692735E+00    7.1008197747012636E+00
Cs    4.5588897470042875E+00   -1.3293800124421440E+00   -1.1747192637442373E+01
Cs    4.2983116160667070E+00    1.0211152561123843E+01   -1.3419451537430174E+01
Cs   -1.1154624260076069E+00    8.2759645109985751E+00    1.0112690314975778E+01
Cs   -7.6456154449297591E+00    1.0969318968200822E+01    4.4003837584834926E+00
Cs    4.5264755146320805E+00    1.1127672940062727E+01   -8.9876953949922047E+00
Cs    4.1964829001383146E+00    5.8846934845937717E+00   -7.5346070204950255E+00
Cs    4.9068965322664475E+00    7.0874707667149961E-01   -7.3497861128636632E-01
Cs    7.8539477217470077E+00   -5.0171472586998496E+00    1.1534696701906142E+00
Cs    8.2199960693637681E+00   -9.5906455837464897E+00    1.0050326580990141E+00
Cs    3.6817010200631008E+00    4.6082435341799393E+00   -1.2507242599038191E+01
Cs   -6.2804523978397659E+00    5.5247910597018182E+00    5.8599190617598200E+00
Cs   -5.9927623189025905E+00   -9.0134978972097297E+00   -9.0224142314600400E+00
Cs    3.9016377051361020E+00    7.4667250126371307E+00   -1.8930130567877121E+00
Cs    7.0305012841735435E+00    2.3604122906028571E+00    4.9195714795418368E+00
Cs    7.3390927522516778E+00   -3.5291876186404698E+00    5.5675783879769787E+00
Cs   -6.8241709123375056E+00    1.0709041742277579E+01   -2.8175597558162653E+00
Cs    1.1471091543665962E+01    2.1834540532444096E+00   -1.4487058826474333E+00
Cs   -5.4904114840057208E+00   -1.4454398746789643E+00    3.4401476811082726E-01
Cs   -1.2388688345841288E+01    4.1099538535625237E+00    5.9223875966488997E+00
Cs   -4.0641718103455284E+00    1.4385861902273969E+00    1.2895165997075862E+01
Cs    3.4907442609603554E+00    1.2827013434849244E+01    4.2595097305032228E+00
Cs    5.2729999271474561E+00    7.9537830405737484E+00    3.6755390623832276E+00
Cs    9.5731132065281948E+00    3.8236155833308576E+00    1.1063900214869367E+01
Cs    3.3241851568356471E+00    1.2729049319379797E+01   -1.9251477046822358E+00
Cs    1.1019251193034561E+01    1.0633695707401953E+00   -7.0630312398384287E+00
Cs    1.2651570274907394E+01   -5.7520582987149913E+00   -6.3319507139386593E+00
Cs    9.7160508291468659E+00   -7.3963579966991491E+00    1.1952315693360413E+01
Cs    9.0656550384134942E+00    1.2840409343468851E+01   -2.1688122690358385E+00
Cs   -1.1371078658603832E+01    5.4532937492370896E+00    1.1064910403570392E+01
Cs   -8.0942330190139540E+00    1.7180296211529462E+00   -1.1538110085367810E+01
Cs   -1.4032614189764356E+01    9.2107565244420115E+00   -1.6265112341159971E+00
Cs   -2.9096592299421302E+00   -5.2656305262653040E+00    1.3380465528823603E+01
Cs   -1.6553065944209868E+00   -9.6311823465474529E+00    1.4792658106101481E+01
Cs    5.3784919688397874E+00    8.4387772925822375E+00    9.4008243643606928E+00
Cs    1.2597418752726732E+01   -4.0751488636893045E+00   -3.6660762095624638E-01
Cs   -1.1177076562475166E+01   -2.0386772039347081E+00    6.8726478463869500E-01
Cs   -8.5897676693562044E+00    6.3507713480099603E+00   -1.4273120393400960E+01
Cs   -1.3069065956987542E+01    3.9249250272884386E+00    6.0215726548345860E-01
Cs   -1.0216816922493853E+01   -1.3293057322256717E+01   -2.5202746294880174E+00
Cs   -1.0274734899270580E+01   -7.2095478111418965E+00    2.3766816627998049E+00
Cs   -4.7973285370849084E+00   -6.3692463173054046E+00    1.9019829739701772E+00
Cs   -7.4126720767038918E+00   -1.2849662292489104E+01    9.1098991334567110E+00
Cs    1.3701388918121150E+01   -1.3795930659938105E+00    1.0321935723716583E+01
Cs    1.0255351920744722E+01    9.5873547822760088E+00    3.8356554821606097E+00
Cs   -1.3891730964849499E+01    2.3141993176936966E+00   -5.9176913667983140E+00
Cs   -6.9059483499715402E+00   -2.3781053772098928E+00   -5.6697385581148092E+00
Cs   -8.6783141946252957E+00   -1.3300868408849167E+01    2.8321580118294900E+00
Cs    1.2158225400082578E+01   -6.5637584901944797E+00   -1.1741922675690821E+01
Cs   -4.8454490460663395E+00   -1.5571111193181478E+01   -8.5058166856486714E+00
Cs   -2.4771675797870683E+00    8.9204454457429136E+00   -1.2879427859515536E+01
Cs    7.0915081573382799E-01   -1.3114529967135224E+01   -1.0034320641636116E+01
Cs   -2.6923772559917891E+00    8.9688589410806294E+00   -7.8977518782989469E+00
Cs   -8.0827227962400574E+00    1.1315397436460424E+01    8.7572644998613018E+00
Cs    3.0708642635487933E+00   -1.1603668198413635E+01    2.2360315055801392E+00
Cs   -1.2876984073770911E+01    1.7892936218731814E+00   -1.2694896997066209E+01
Cs   -1.3998600639858788E+01    1.0074244424639073E+01    4.8291412659264639E+00
Cs    8.5811003383145490E+00   -1.1590563054954837E+01   -4.0864896720457740E+00
Cs    1.0712803666415352E+01    2.1757875557529738E-01   -1.1926583701224883E+01
Cs   -1.2625604239098889E+00    1.2739460439959634E+01    9.5751042802021313E+00
Pb    3.3308985972937357E+00   -2.7023032715737729E+00   -2.8837826442182841E+00
Pb    4.5582245818643452E+00   -8.5456067457851148E+00   -1.8526930919380458E+00
Pb   -7.9658160009766652E+00   -3.7338036968518282E+00    4.8049709415111197E+00
Pb   -1.2754100180312851E+00   -1.0132539286200377E+01   -1.2263001846792139E+00
Pb    5.8406093697413908E-01    8.9286589341654086E+00   -4.9271023054301839E+00
Pb    1.9824735902280983E+00    3.1206988506335867E+00   -3.6565072678177160E+00
Pb    4.1480825955439462E+00   -1.6381624441385896E+00    3.3633281620562929E+00
Pb    5.2218882715839943E+00   -7.6877631527008239E+00    4.1574872392433821E+00
Pb   -4.9206805166444401E+00    8.6176103229866499E+00    1.0750316539832798E+00
Pb    1.0068183929846934E+00    1.0053903956534397E+01    9.8786012284231461E-01
Pb    2.8248312736160659E+00    4.0925188728016195E+00    2.1920048489790624E+00
Pb    4.8720976326011778E+00   -3.9292127015807382E-01    9.4128014987939448E+00
Pb    5.4968936630433207E+00   -6.0693049114903781E+00    1.0139871151936942E+01
Pb   -2.9490936117453495E+00    2.6066692760952526E+00    2.6079889604431048E+00
Pb    1.8063423011702309E+00    1.0482877376974272E+01    7.5307415088782381E+00
Pb    3.2348686276427840E+00    5.0016752254548758E+00    7.8721751430039983E+00
Pb   -1.3999464420144623E+00   -1.6878749479436919E+00    9.7139946531928167E+00
Pb   -7.0022933718554157E+00   -9.5317622911147257E+00    5.6503651288339762E+00
Pb   -9.8142800999436997E+00    1.3587164017947670E+00   -2.7465459242316883E+00
Pb   -3.3565212191083482E+00   -5.2697884863521631E+00   -7.4569043040287335E+00
Pb   -5.0326012304370527E-01   -9.0820506146756994E+00    4.5655995323745344E+00
Pb   -5.2208756804842409E+00    7.0791943537032775E+00   -4.9601056369064755E+00
Pb   -2.6475394057484736E-01   -7.7157543772324990E+00    1.0744045487517422E+01
Pb   -8.2811358317725503E+00   -4.6051099054001714E+00   -1.1740256442153099E+00
Pb   -7.5407586052571673E+00   -1.0434884136929483E+01   -2.0580914188834340E-01
Pb   -3.6024756027250011E+00    1.3288156874771204E+00   -3.2130721070422856E+00
Pb   -5.9463191751918680E+00   -8.9102397912471343E+00    1.2207004534505517E+01
Pb   -9.4092363566372406E+00   -6.0959370891615183E+00   -6.8346090711773124E+00
Pb    9.0421248278037183E+00   -3.5912559434745090E+00   -9.2561867566321343E+00
Pb    1.0303101893274286E+01   -9.8297818582696710E+00   -8.3811482138592961E+00
Pb   -2.1305116246675730E+00   -1.1110467477561704E+01   -7.2920873578789553E+00
Pb   -1.1257758562860952E+01    5.6628907372108594E+00   -1.0489281419833878E+01
Pb    2.6820978119318726E+00   -4.1764651389970542E+00   -8.4986294429012101E+00
Pb    3.9684294616587632E+00   -1.0144902875064094E+01   -7.6337704123129626E+00
Pb   -4.6568968893159441E+00    2.9492794676516165E-01   -9.3451928790627026E+00
Pb    6.9931277685256643E-01    7.4407900351451541E+00   -1.0619145148378944E+01
Pb    1.2855201705764412E+00    1.6130803813069570E+00   -9.6184203614075745E+00
Pb    9.2651994233837769E+00   -1.9233090520642857E+00   -3.5331663165885456E+00
Pb    1.0597770262893635E+01   -7.7288484496247420E+00   -2.6188373336757635E+00
Pb   -7.1803090286374607E+00   -3.0193241751224367E+00    1.0678450304782491E+01
Pb    7.0827665642847544E+00    8.1710217731104606E+00   -1.0877945047359795E+01
Pb   -1.0618313866976001E+01   -8.3766959898374821E-02   -8.4960357357668297E+00
Pb   -4.4222491748597239E+00    9.7567577142126343E+00    6.8211653871297502E+00
Pb    7.1268106150169253E+00    9.7784056679430513E+00   -5.3541133603952566E+00
Pb    7.9374645179117058E+00    3.9659128789986040E+00   -4.2140798084927420E+00
Pb    9.8881682093925463E+00   -6.4240724880420519E-01    2.2505098205673906E+00
Pb    1.0749747851236121E+01   -6.5133944701185493E+00    3.1419581852630274E+00
Pb    7.4687058003825229E+00    2.2502058024992584E+00   -1.0031573085275841E+01
Pb   -2.6812068279596226E+00    4.0119669141560497E+00    8.7737770770813537E+00
Pb    6.6687410969431227E+00    1.0652219771472257E+01    7.9774259400386049E-01
Pb    8.9068969328212404E+00    5.1565780824650052E+00    1.5433295472330109E+00
Pb    1.0467457273387918E+01    1.1207702760025742E+00    7.8349568210678386E+00
Pb    1.1308691137992465E+01   -4.9587262900033489E+00    9.1177040171486947E+00
Pb    7.2249924693739205E+00    1.2752102467041686E+01    6.4265881193644683E+00
Pb    9.2360324523377937E+00    6.8424101149588923E+00    7.3178887547572380E+00
Pb   -8.5888959805301930E+00    2.7700320563369663E+00    9.2587304217739650E+00
Pb   -1.9500950561971722E+00   -3.2008383181455815E+00    4.1496081097955813E+00
Pb   -1.0885118299503310E+01    7.9046450532906922E+00    1.7531382019728288E+00
Pb   -1.1129519253916008E+01    6.8306826400479546E+00   -4.2947724308369191E+00
Pb   -7.8686423116820645E+00   -1.2151223575887052E+01   -6.2571348864089815E+00
Pb   -5.3660278309860070E+00    5.9078853483591995E+00   -1.0956044404826143E+01
Pb   -9.0307627664013985E+00    1.9185447388276835E+00    3.2458608583998876E+00
Pb   -1.0536700117661516E+01    8.5203320617251741E+00    8.0374894625743778E+00
Pb   -2.3813162569659205E+00   -4.2288402554952720E+00   -1.7033180183706926E+00
Br    6.5262846036005728E-01   -3.8807859722384528E+00   -1.9456833273880891E+00
Br    3.7701442893464256E+00   -4.0757999431105576E+00   -5.5295394964365991E+00
Br    2.2072003785253687E+00   -2.0787783551363195E-01   -3.7000359813091364E+00
Br    1.7253205461804910E+00   -9.1965485601424657E+00   -1.1404777071725209E+00
Br    4.8974318685300284E+00   -9.9095497579125826E+00   -4.7800137383494645E+00
Br    3.8655581222205075E+00   -5.3767503489989723E+00   -2.1961379585161351E+00
Br   -2.6732811072393048E+00   -4.7789934478862621E+00   -4.7874448819784821E+00
Br   -7.7623719553187582E+00   -3.7581786578847236E+00    7.6098132274438059E+00
Br   -2.6406640355491082E+00   -1.5237136733652901E+00   -2.9206135382868301E+00
Br    4.7574466894484502E+00   -1.1303174662300631E+01   -1.0951178922016980E+00
Br    1.3189709743112884E+01   -1.0417054246572615E+00    1.9350535561712106E+00
Br   -4.7441927060743225E+00   -1.0090421720971593E+01   -1.0560644165321420E+00
Br   -1.0597348049015405E+01   -4.5213819403155107E+00    4.7701414053565072E+00
Br   -8.3150969046789260E+00   -3.5817322823046376E+00    1.7905010611204197E+00
Br    1.3972506947947569E+01   -6.1478302619802641E+00    3.3150159914691333E+00
Br   -2.0828362897325343E+00    7.7159108440813986E+00   -5.0357804601328082E+00
Br    1.1154195671452345E+00    8.2913743366897581E+00   -7.7658916700417890E+00
Br   -7.0166827502610873E-01    1.1430006000939109E+01   -5.5988198470344637E+00
Br   -5.3591259118380130E-01    1.8825911779848821E+00   -3.2301794085602111E+00
Br    1.2742874614239719E+00    2.4733898424337282E+00   -6.5556712985087531E+00
Br    1.4222894553427001E+00    6.0405603323554127E+00   -4.5357813155908566E+00
Br    1.0411149908617869E+00   -2.2408923628167132E+00    3.5356478231694819E+00
Br    3.1721200781950762E+00   -2.0489531964869161E+00    2.8123637301435661E-01
Br    3.7749140007844124E+00    1.2746094642799131E+00    2.7938347019837839E+00
Br    2.2845086498249350E+00   -8.4813809815564589E+00    3.8653877592826236E+00
Br    5.0666935852287152E+00   -7.9641545012608193E+00    9.9993233719698615E-01
Br    4.8472967786233392E+00   -4.8269466092775106E+00    3.6473136911042929E+00
Br   -8.4024527260181081E+00    5.1965307413343247E+00   -1.0845702767627223E+01
Br   -4.6023407873444233E+00    5.6474152402344195E+00   -1.3784856743651083E+01
Br    5.4385377225777560E+00   -1.0663408423206215E+01    4.6766230896481549E+00
Br   -5.2759554687447778E+00    8.8166171249943446E+00   -1.0807718451643714E+01
Br   -5.3134084406338422E+00    3.0605581742222641E+00   -1.0180074517012432E+01
Br   -8.3757025647922632E+00   -6.7672101411093022E-01    4.9198432605953162E+00
Br   -1.9480410539383104E+00   -1.0982485641207763E+01   -3.9537156199015553E+00
Br   -7.4910760419401532E+00    8.1600486404455648E+00    2.2858663962050185E+00
Br   -4.7242615999826221E+00    8.3249314904407310E+00   -1.5751290561834164E+00
Br   -5.8519047159686108E+00    1.1152631993013635E+01    4.5215932199118286E-01
Br   -1.9993593319518692E+00    9.7451530638094965E+00    6.2650907397199296E-01
Br    1.0653361851585670E+00    9.1141945317948512E+00   -1.7732908401719694E+00
Br    9.9370908010736669E-01    1.2863064354252767E+01    5.7823131966789865E-01
Br   -1.0616114183111382E-01    2.9744941587190552E+00    2.0080263303158605E+00
Br    2.1294133991349029E+00    3.5399102568162184E+00   -9.1232099674355727E-01
Br    1.7225519374254015E+00    6.9098097156761682E+00    1.6348474700372360E+00
Br    1.5512369146236324E+00   -1.1508281638718252E+00    9.4885770944660788E+00
Br    4.1563018581536628E+00   -1.0239062993457682E+00    6.2743682363205240E+00
Br    3.9531624791596944E+00    2.5061261399255756E+00    8.9064753201025173E+00
Br    2.5293398106707086E+00   -7.0989321897863809E+00    1.0119089863586199E+01
Br    5.4110344335015004E+00   -6.7982012861607242E+00    6.8418418350453294E+00
Br    5.2871873442594008E+00   -3.2743973093311807E+00    9.6086419851374227E+00
Br   -1.1713100361233746E+01    1.1836252620752803E+00    3.2017830734596893E+00
Br   -9.4461498213267792E+00    1.9345326141366419E+00    1.2380803162984443E-01
Br    6.7868691356046993E+00   -8.4666650628079818E+00    1.0474536095154132E+01
Br   -9.9125766039846859E+00    4.9647783430878816E+00    2.8915867458168485E+00
Br   -8.0204122201430383E+00   -1.0122271708852500E-01    9.5140577887573858E+00
Br   -1.7425954729440158E+00   -6.9842204303010043E+00   -1.4283150682855164E+00
Br   -5.9793201915820822E+00    1.9835660057591820E+00    2.8060547241617337E+00
Br   -3.2787052952513420E+00    2.1786989599768973E+00   -3.9713165878446827E-01
Br   -3.4090576754797723E+00    5.4215848701448479E+00    1.7362768159770923E+00
Br   -1.6533871728592069E+00    9.7373284250317163E+00    7.1847644716288439E+00
Br    5.4661746282392798E-01    1.0039654742520524E+01    3.9990614015103851E+00
Br    9.6496824066550546E-01    1.3087646978933698E+01    7.1509638275948371E+00
Br    4.4010888377509161E-01    3.8273093777893781E+00    7.5278588245926743E+00
Br    3.3188533639369941E+00    4.9996954845076740E+00    5.0001969049690427E+00
Br    1.8564074577853311E+00    7.6493189670400366E+00    7.6755772058714866E+00
Br   -4.8343628576412643E+00   -2.3173364506668022E+00    9.3282668089427574E+00
Br    4.5282878704849141E+00    1.4857526881243441E-01    1.2174173873262371E+01
Br   -1.0676535648257135E+00   -2.6432400580148845E+00    6.9087554736539367E+00
Br   -2.3700770975683554E+00    1.2117762402146932E+00    9.3421876603795013E+00
Br   -1.4323887450090536E+00   -1.2836889588271289E+01   -5.2293647303015878E-01
Br    6.0257878518881798E+00   -5.0447378598238597E+00    1.2626419531231548E+01
Br   -1.2501167007749961E+01    6.2278303180613825E-01   -1.8253001552253991E+00
Br   -2.7648414141948036E-01   -1.1758318239497745E+01    5.2389018332444870E+00
Br   -1.1083845954690895E+01   -4.8521012560730394E+00   -1.0437950390009223E+00
Br    1.5528521421665460E+00    1.0389124049479900E+01    1.0434042562897263E+01
Br   -8.5070943590507024E+00   -5.1651713605625060E+00   -4.0037432792838015E+00
Br   -9.0131756815400887E+00   -1.8363095764465136E+00   -1.8866986871476468E+00
Br    3.0375702744696511E+00    5.6075551843155740E+00    1.0909082835142661E+01
Br   -8.1081042094097171E+00    6.5959987269111231E+00   -4.7792148927839619E+00
Br   -4.8355546968886847E+00    5.8841881315702045E+00   -7.4105347012796310E+00
Br   -5.0152457257785628E+00    9.8152616097039385E+00   -5.4181144490588338E+00
Br   -6.4838123780078716E+00    9.7467804629759081E-01   -2.8289594757876309E+00
Br   -9.8344686214540271E+00   -1.0162970975910994E+01    6.7330717494279124E+00
Br   -3.6499561529807316E+00    1.0385244237590228E+00   -6.1501899160011204E+00
Br   -6.4168887777306072E+00   -5.6275036301625061E+00   -7.3334363156902826E+00
Br   -3.2289998960459050E+00   -6.0738402948390551E+00   -1.0443884064119098E+01
Br   -3.9559997247879539E+00   -2.8155714407594985E+00   -8.4180110476694558E+00
Br   -1.3497498125182201E+00    4.3445054405531192E+00    1.1383854978372126E+01
Br   -2.7731522376296662E+00   -8.6730828029599234E+00    1.1588541432709068E+01
Br   -6.2619533770255476E-02   -8.6347375555597186E+00    7.6046242122378009E+00
Br   -1.3465084289976643E+00   -4.9519672396339418E+00    1.0419747749400145E+01
Br   -6.9399537703922141E+00   -9.5554260518094694E+00    2.9700937780157477E+00
Br   -7.4998391563168312E+00   -6.6549875659078994E+00    5.2998740706322911E+00
Br   -9.4251609327069197E+00    8.8984513770226972E+00    1.0568974750146069E+01
Br    9.7015655331386981E+00    1.1148189435877736E+01    4.6564946903780385E-01
Br   -5.4497007876792329E+00   -7.3189058138062846E+00    1.4350597733217498E+01
Br    9.7393596065918313E+00    1.0160849469385292E+01   -4.9179684169371125E+00
Br    1.1289996883584624E+01    5.9601813448542487E+00    6.7146040148555419E-01
Br   -7.5615734624450202E+00    4.1054798949044802E+00    1.2082462854817448E+01
Br   -1.1879331652378172E+01   -6.8373426379023403E+00   -6.0422954215856928E+00
Br    1.3021906222715025E+01    2.0395770066676078E+00    6.5574894303348490E+00
Br   -4.0192988985339033E+00   -8.7095026999561913E+00    5.6899025207339538E+00
Br    5.5331354140736195E+00   -3.3537984545751209E+00   -8.9318764066898400E+00
Br    9.0718434377368791E+00   -4.7384256629744117E+00   -1.2173160942296199E+01
Br    1.4065691600424412E+01   -4.4992208996319043E+00    8.0115212646289411E+00
Br    8.1885777809718867E+00   -7.5695821208252556E-01   -9.8079853650416577E+00
Br   -5.6125067573544305E+00   -1.1742808032943650E+01    1.2862371538840170E+01
Br   -1.4806906692508535E+00   -9.3646489789592025E+00    1.9859307151611114E+00
Br   -8.6054036046980054E-01   -6.0217701357466087E+00    3.7736140356483752E+00
Br    7.2988044598665409E+00   -1.0118462966823987E+01   -7.5719432288106718E+00
Br   -4.8989248111484063E+00   -1.2165161561401479E+01   -6.4376792217390193E+00
Br    8.6892353459078731E+00   -1.0656886582480574E+01   -1.0840016710211817E+01
Br    8.8104828149239065E+00   -6.2968909138181672E+00   -8.5426902260521445E+00
Br    4.3644588568675163E-01   -1.0256147778190616E+01    1.1650618792537676E+01