 # Version information for this restart file 
 # current date 2021-06-17 12:34:15.852
 # current working dir /user/ub2042/exercises/2_fitting/MM_MD_workdir/md_settings
 # Program compiled at                              Thu Apr 22 21:44:59 EDT 2021
 # Program compiled on                cpn-k07-07-02.compute.cbls.ccr.buffalo.edu
 # Program compiled for                                                    local
 # Source code revision number                                       git:36754bb
 &GLOBAL
   PRINT_LEVEL  LOW
   PROJECT_NAME cp2k
   RUN_TYPE  MD
 &END GLOBAL
 &MOTION
   &MD
     ENSEMBLE  NVT
     STEPS  10000
     TIMESTEP     2.4999999999999996E+00
     STEP_START_VAL  7500
     TIME_START_VAL     1.8749999999998061E+04
     ECONS_START_VAL    -1.3925666412857368E+01
     TEMPERATURE     3.0000000000000000E+02
     &BAROSTAT
       PRESSURE     1.0100000000000000E+00
       TIMECON     9.9999999999999982E+03
     &END BAROSTAT
     &THERMOSTAT
       TYPE  CSVR
       &CSVR
         TIMECON     9.9999999999999982E+03
         &THERMOSTAT_ENERGY
              -2.6030808609530831E-01
         &END THERMOSTAT_ENERGY
         &RNG_INIT
Wiener process for Thermostat # 1        1 F T F   1.2027761634983569E+00         410547301.0        2880645229.0         554475243.0         200345305.0        3532470403.0        3188192634.0             12345.0             12345.0             12345.0             12345.0             12345.0             12345.0             12345.0             12345.0             12345.0             12345.0             12345.0             12345.0
         &END RNG_INIT
       &END CSVR
     &END THERMOSTAT
     &AVERAGES  T
       &RESTART_AVERAGES
         ITIMES_START  1
         AVECPU     1.7865973735600688E-02
         AVEHUGONIOT     0.0000000000000000E+00
         AVETEMP_BARO     0.0000000000000000E+00
         AVEPOT    -1.4260272792159141E+01
         AVEKIN     4.6888132521394338E-01
         AVETEMP     2.3784873153043907E+02
         AVEKIN_QM     0.0000000000000000E+00
         AVETEMP_QM     0.0000000000000000E+00
         AVEVOL     6.7483345830910886E+06
         AVECELL_A     1.8897261328855703E+02
         AVECELL_B     1.8897261328855703E+02
         AVECELL_C     1.8897261328855703E+02
         AVEALPHA     9.0000000000000000E+01
         AVEBETA     9.0000000000000000E+01
         AVEGAMMA     9.0000000000000000E+01
         AVE_ECONS    -3.7681158571182967E+00
         AVE_PRESS     0.0000000000000000E+00
         AVE_PXX     0.0000000000000000E+00
       &END RESTART_AVERAGES
     &END AVERAGES
     &PRINT
       &ENERGY  SILENT
         &EACH
           MD  10
         &END EACH
       &END ENERGY
     &END PRINT
   &END MD
   &PRINT
     &TRAJECTORY  SILENT
       &EACH
         MD  10
       &END EACH
     &END TRAJECTORY
     &CELL  SILENT
       &EACH
         MD  10
       &END EACH
     &END CELL
     &VELOCITIES  SILENT
       &EACH
         MD  10
       &END EACH
     &END VELOCITIES
     &FORCES  SILENT
       &EACH
         MD  10
       &END EACH
     &END FORCES
     &RESTART  SILENT
       &EACH
         MD  10
       &END EACH
     &END RESTART
   &END PRINT
 &END MOTION
 &FORCE_EVAL
   METHOD  FIST
   &MM
     &FORCEFIELD
       VDW_SCALE14     1.0000000000000000E+00
       EI_SCALE14     1.0000000000000000E+00
       SHIFT_CUTOFF  T
       DO_NONBONDED  T
       IGNORE_MISSING_CRITICAL_PARAMS  T
       &SPLINE
         R0_NB     2.5000000000000000E-01
       &END SPLINE
       &NONBONDED
         &LENNARD-JONES
           ATOMS Br Br
           EPSILON     1.2630795322675199E+02
           SIGMA     3.6900000000000004E+00
         &END LENNARD-JONES
         &LENNARD-JONES
           ATOMS Cs Pb
           EPSILON     8.6920055954630968E+01
           SIGMA     3.6699999999999999E+00
         &END LENNARD-JONES
         &LENNARD-JONES
           ATOMS Cs Cs
           EPSILON     2.2644852172126850E+01
           SIGMA     4.5300000000000002E+00
         &END LENNARD-JONES
         &LENNARD-JONES
           ATOMS Pb Pb
           EPSILON     3.3363415533600227E+02
           SIGMA     6.1000000000000005E+00
         &END LENNARD-JONES
         &LENNARD-JONES
           ATOMS Br Cs
           EPSILON     5.3481070753900497E+01
           SIGMA     3.6300000000000003E+00
         &END LENNARD-JONES
         &LENNARD-JONES
           ATOMS Br Pb
           EPSILON     2.0528187276773045E+02
           SIGMA     2.9800000000000000E+00
         &END LENNARD-JONES
       &END NONBONDED
       &CHARGE
         ATOM Cs
         CHARGE     4.1739999999999999E-01
       &END CHARGE
       &CHARGE
         ATOM Pb
         CHARGE     8.3479999999999999E-01
       &END CHARGE
       &CHARGE
         ATOM Br
         CHARGE    -4.1739999999999999E-01
       &END CHARGE
     &END FORCEFIELD
     &POISSON
       PERIODIC  XYZ
       &EWALD
         EWALD_TYPE  SPME
         GMAX  62 62 62
         O_SPLINE  4
       &END EWALD
     &END POISSON
     &PRINT
       &FF_INFO  LOW
         SPLINE_INFO  F
         SPLINE_DATA  F
       &END FF_INFO
     &END PRINT
   &END MM
   &SUBSYS
     &CELL
       A     1.0000000000000001E+02    0.0000000000000000E+00    0.0000000000000000E+00
       B     0.0000000000000000E+00    1.0000000000000001E+02    0.0000000000000000E+00
       C     0.0000000000000000E+00    0.0000000000000000E+00    1.0000000000000001E+02
       PERIODIC  XYZ
       MULTIPLE_UNIT_CELL  1 1 1
     &END CELL
     &COORD
Cs   -9.0123672192194215E-01   -6.3743054390961351E-01   -6.6113883515718550E+00
Cs    7.0224466891703707E-01   -6.9633482526995785E+00   -4.5363188723982200E+00
Cs    1.5119192593704163E+00   -1.2337940268732542E+01   -4.5789509120347418E+00
Cs   -5.7534162419283597E+00   -7.3172599630106330E+00   -4.8870625185333836E+00
Br   -7.3629674030548049E+00   -1.3723993861628143E+01   -6.2545041197187121E+00
Br    1.1567850013834976E+01   -2.6305021217058422E+00   -9.9756696521796009E+00
Br   -5.2472421343605227E+00    1.2189251443875551E+00   -1.2034673463180198E+01
Cs   -1.6018613302408751E+00    4.8167756563999680E+00   -6.5752206193955720E+00
Cs   -2.1689876626339746E-01    9.3917982658260658E-03   -8.9960094375685185E-01
Cs    8.0012476528323262E-01   -5.9430093440528520E+00    8.5835210937334494E-01
Br   -5.0912353435758186E+00   -3.3317559841133653E+00    3.7199491399927864E+00
Cs   -8.4101506946690598E+00   -5.9625233895643444E+00    1.4548136897693745E+01
Cs    1.3408528806540961E+01   -1.0112883694056583E+01    5.9076604813004441E-01
Cs   -6.8074857817721854E+00    4.6764595395469408E+00   -4.4826319328584330E-01
Cs   -2.2877515460765721E+00    1.1471694904588924E+01   -1.0653571611057553E+00
Cs   -7.2936494136280505E-01    5.8583244411426785E+00   -1.1154611741916407E+00
Cs    6.0560135235608048E-01    4.3510905098604208E-01    5.6207520206012944E+00
Cs    5.7934302452350894E-01   -4.5718368404433241E+00    6.6834638228916354E+00
Cs    9.6727453201786984E-01   -1.0983051243795943E+01    7.9147432346779034E+00
Cs   -5.8826979580915921E+00    7.2544939594916569E+00    1.0503000228426281E+01
Cs   -6.7187203766171670E+00   -2.4490400859355184E+00   -1.0723028069093408E+01
Cs   -4.2534597017404590E+00   -1.2468303452429321E+01   -4.6391671601084825E+00
Cs   -5.3510057201414964E+00    2.3400790451578510E-01    5.9320924127683332E+00
Br   -2.3692076736208882E+00   -2.7495903054739625E+00    6.5280132408132197E-01
Cs    1.3033885775680823E-01    5.6568332978030185E+00    4.6871364006031220E+00
Br    1.2877708246300978E+01   -7.9600387145861999E+00   -9.0569981625924907E+00
Cs    1.2002788765199739E+00   -3.8132534275757792E+00    1.2178004229311080E+01
Br   -2.6749507683367555E+00   -2.6190858126426814E-02    2.8796706329091477E+00
Br   -6.7201311482130714E+00   -3.0516872637415107E+00    1.3650691633526076E+01
Cs    1.0024297873268672E+01    1.0982874397483242E+01   -8.1128084279198891E+00
Cs   -9.5959988889345347E+00   -6.4226294157589647E+00    8.1848925268097457E+00
Cs   -4.8003050463460282E+00   -5.0146944955987722E+00    7.2700639923261576E+00
Cs   -7.7319953469242746E+00    9.0300932336561495E+00   -7.2408533810505649E+00
Br   -1.0231721689348159E+01   -9.6685755905985253E+00    9.8680335443520768E+00
Br   -6.9307165611413906E+00   -8.4244396734628406E+00    7.4778052491569902E+00
Cs   -1.0415441968343586E+01   -8.0228256315172253E+00   -4.3914337777278085E+00
Cs   -7.2978054202452514E+00    4.4302862725145724E+00   -6.1354879678639804E+00
Br   -8.2681630740767229E+00   -5.7336971249501936E+00    1.1029402095955280E+01
Cs    1.2084969086675139E+01    9.7080963949579200E+00    9.7261414712756746E+00
Br   -1.2491778868954995E+01    8.8761695644130789E+00    8.4990607562023381E+00
Br   -5.7059297647481104E+00   -4.0684400606031579E+00   -2.4425017553295731E+00
Cs    1.0983118265992378E+00    1.8818714277727737E+00    1.1580359840427013E+01
Cs    1.1574288463074019E+01    6.5321160079694298E+00   -1.7764187384681689E+00
Cs   -1.1324147312571343E+01   -8.9138063433623014E+00   -9.3557381815978466E+00
Cs    1.2032033547214667E+01    1.8692441698943121E+00    5.0765429032763700E+00
Cs   -1.2811265205260588E+01    9.6455075583405900E+00   -6.9283305907288266E+00
Cs    1.3546259425332359E+01   -9.3073033676903130E+00    7.1426637036603502E+00
Cs    6.1517820964069951E+00   -6.9917951634895825E+00   -1.1242451963296068E+01
Cs    8.1399207033001133E+00   -9.4731647320001695E+00    7.1173416513840708E+00
Cs   -4.8621022708106718E+00   -1.2108231764699941E+01    2.2269072195806134E+00
Cs    7.4231577458818112E+00   -1.1468369243014424E+01   -1.1125494312280084E+01
Cs    9.5099336500571585E+00    5.7647106227162324E+00   -6.9410364341168629E+00
Cs    1.1236669515518093E+01    1.3448153833075038E+01    4.3219521915407695E+00
Cs    9.0393682941051132E+00    5.1989301688368297E+00   -1.3089661242639835E+01
Cs    2.2612251908581182E-01   -6.9790802480680023E+00   -1.0530697502952263E+01
Cs   -1.1941914591213155E+01   -2.2870665614494428E+00   -5.1031890063559464E+00
Cs    7.1346083295360829E+00   -3.3443917753531389E+00    1.1323823917560198E+01
Cs    1.2218029963682421E+01   -3.4969799676697306E+00    5.0750532914033482E+00
Cs   -9.4824283891989456E+00   -1.1757679533797967E+01    1.3045162085907354E+01
Cs   -8.9580760103892626E-02   -1.4177036658638871E+00   -1.3376091358673659E+01
Cs   -6.2762564323263526E-01    1.1891370343181324E+01    4.8493042231205781E+00
Cs   -1.7864091913925473E+00    4.3334610910854598E+00   -1.1985224175221923E+01
Cs    4.8115557677736280E+00   -1.4048461010328830E-01   -6.6301194056098316E+00
Cs    7.0995285164433213E+00   -5.6125750560545793E+00   -6.3816468742369485E+00
Cs   -3.9475934085347713E+00   -1.0552865238361774E+01    8.1998494197190386E+00
Cs   -1.0454869904851570E+01   -6.0456222568751805E-01    6.8051437157717585E+00
Cs    5.2788125402739663E+00   -1.7002529707086855E-01   -1.1434994098045648E+01
Cs    4.4122547465599116E+00    1.0381294798704364E+01   -1.3618443001676477E+01
Cs   -1.4480917507137359E-01    7.4058803279897178E+00    1.0612479354418300E+01
Cs   -7.4693585230142663E+00    1.1621265370753020E+01    4.4024120348723006E+00
Cs    5.0059787039223949E+00    1.1371253392460765E+01   -7.6267730902460800E+00
Cs    4.1581593814054632E+00    5.7557163762177117E+00   -7.3692895394293112E+00
Cs    6.1680406584984366E+00   -2.2775572955733284E-01   -1.5241527866544877E+00
Cs    6.4394994220843111E+00   -5.5092687839208363E+00    1.4075523630235933E+00
Cs    7.9133648552078553E+00   -1.0909112072727783E+01    1.2565265236706677E+00
Cs    3.3463681820614948E+00    4.9168518921771813E+00   -1.3107947426409442E+01
Cs   -6.3059573424221655E+00    5.8879105868005022E+00    5.5187572761004065E+00
Cs   -5.5663299376319904E+00   -8.2107441993388619E+00   -1.0168431450520540E+01
Cs    4.4905950207555172E+00    6.3810456950909318E+00   -1.0554686407998000E+00
Cs    6.4265831961185240E+00    1.3490247298883709E+00    5.3815913273675555E+00
Cs    7.7226572318050399E+00   -4.4361513799574661E+00    5.8192603795788944E+00
Cs   -7.2901094673431501E+00    1.0560781932076486E+01   -9.5358733524077544E-01
Cs    1.1397868046275068E+01    1.8258842171736545E+00   -3.4160925148934734E-01
Cs   -5.6824535056835659E+00   -1.0039733400062215E-01    3.0119959562354442E-01
Cs   -1.1090825487790379E+01    5.6768282256102536E+00    6.6284664141200054E+00
Cs   -5.3418749579408535E+00    1.2510643468667617E+00    1.2266117084774034E+01
Cs    3.6020471001506729E+00    1.2819614868357593E+01    4.7063243621202533E+00
Cs    5.9618116353260584E+00    7.9621336469362598E+00    4.9737775447791215E+00
Cs    6.3948445912413963E+00    2.0020686252629414E+00    1.0974515018380115E+01
Cs    5.3221594264051202E+00    1.2221205317273197E+01   -1.6601790707207684E+00
Cs    1.1429229717667580E+01    5.8092691773650973E-01   -6.2149128297614453E+00
Cs    1.2476126332833537E+01   -6.1496156203245045E+00   -6.1191618401346952E+00
Cs    8.2923139609470926E+00   -8.0632570593777828E+00    1.3030553680868389E+01
Cs    1.0217191891384857E+01    1.2383846811259588E+01   -1.9108881206684460E+00
Cs   -1.2690327882155662E+01    1.9867814279007319E+00    1.1931279852147441E+01
Cs   -8.1727741113569294E+00    2.6500808554691209E+00   -1.1316575672602914E+01
Cs   -1.2472096086835624E+01    1.1658577368796418E+01   -1.2283945346131271E+00
Cs   -3.9166475880995431E+00   -4.6691767702155484E+00    1.2972469544902186E+01
Cs   -3.7955575932057477E+00   -1.0901982370405351E+01    1.2463082487557076E+01
Cs    6.4343775197256843E+00    8.2035647444796780E+00    1.0524853197503152E+01
Cs    1.3361602000249157E+01   -4.2234830931865508E+00    5.2099415777587629E-02
Cs   -1.1471608014803104E+01   -1.4872439492744118E+00    9.2685391163133302E-01
Cs   -8.1501061623157902E+00    8.6985156577210958E+00   -1.3155791510422524E+01
Cs   -1.3194714694681966E+01    5.0204376336042751E+00   -1.2850902597292888E-01
Cs   -9.6522598852491956E+00   -1.3538970024450885E+01   -3.8391410258743992E+00
Cs   -9.8549988495285330E+00   -7.3579053229655642E+00    1.4488467356626702E+00
Cs   -4.6457741382694788E+00   -6.6881985872506142E+00    1.6260781398311115E+00
Cs   -1.0219852543724917E+01   -1.2002637570724168E+01    7.7914628917493864E+00
Cs    1.2838915909691005E+01   -3.3434945367166771E+00    1.1377300685309489E+01
Cs    1.0946897778357545E+01    7.5345947152508392E+00    3.9661896045235485E+00
Cs   -1.3966883943297770E+01    4.0000248772158802E+00   -6.9207832411669914E+00
Cs   -6.3255452374599983E+00   -1.3540684799245588E+00   -5.5582685306953170E+00
Cs   -1.2205992746732978E+01   -1.1810730490082332E+01    2.1315265040062110E+00
Cs    1.1430875821900001E+01   -5.7777527895909051E+00   -1.2208337346298157E+01
Cs   -4.4139040114297119E+00   -1.2708866722084338E+01   -1.0477096189166019E+01
Cs   -1.9647328394490500E+00    9.6469109881237340E+00   -1.2473257139349293E+01
Cs    1.1731216853519546E+00   -1.2622037075248645E+01   -1.0134402839417078E+01
Cs   -2.0527242513712989E+00    1.0411271984178347E+01   -7.4783917273591207E+00
Cs   -6.3539803122426592E+00    1.2575235988488354E+01    9.2150332211075892E+00
Cs    2.0087034531745847E+00   -1.1258681128306275E+01    9.1448546142558773E-01
Cs   -1.2237111573860361E+01   -3.3215615445517490E+00   -1.0183314682628787E+01
Cs   -1.3029243515015180E+01    1.1038025914802033E+01    6.1368215438211680E+00
Cs    8.9318631602760554E+00   -1.2038258150224738E+01   -5.0635755276952956E+00
Cs    1.1003037419512513E+01    8.1305672296516851E-01   -1.1854924778449957E+01
Cs   -1.1985608166625603E+00    1.2496237809091228E+01    1.0831557262431753E+01
Pb    3.3604512933315358E+00   -3.1610430169165094E+00   -2.7775615082162970E+00
Pb    4.8045232880098867E+00   -9.0579348657111609E+00   -2.1234668036517652E+00
Pb   -8.0503962615865934E+00   -3.3852670791350943E+00    3.9987861424140636E+00
Pb   -1.6914639449531998E+00   -9.4720546919138915E+00   -1.6883607711805626E+00
Pb    1.6329671264636190E+00    8.9625178749835346E+00   -4.1998476123032535E+00
Pb    2.4268006822317654E+00    2.8154577184483460E+00   -3.6573878059817106E+00
Pb    3.4183294714072399E+00   -2.3449752152958396E+00    3.0020965671214710E+00
Pb    4.5071716311459982E+00   -8.0779935705000021E+00    4.1644351413769396E+00
Pb   -4.1001369727107688E+00    8.8804630762579198E+00    1.9772151363404309E+00
Pb    2.1509623238622084E+00    9.5093182798263935E+00    2.1961683902124483E+00
Pb    2.7869342340194225E+00    3.4516141716401738E+00    2.1314547200408072E+00
Pb    3.8577452855283187E+00   -1.5764160459305794E+00    9.0531036667208724E+00
Pb    4.5593714270440069E+00   -7.5490189256485865E+00    1.0073472244815271E+01
Pb   -3.0941851478144513E+00    2.8922785689720238E+00    2.7149666974193032E+00
Pb    2.5816177047983220E+00    1.0333087663141553E+01    8.6007353904979471E+00
Pb    3.4109071562685727E+00    4.3645761918691823E+00    8.2097819767156910E+00
Pb   -1.9942389043051814E+00   -1.8515651216589828E+00    9.6709121953528747E+00
Pb   -7.7045674687886549E+00   -9.3208651738463839E+00    4.7844639835192213E+00
Pb   -9.9663968335466482E+00    1.2372903312990944E+00   -2.5137617093704501E+00
Pb   -3.3604403359481787E+00   -4.5147865243212699E+00   -8.7006827611744217E+00
Pb   -1.5434583232740762E+00   -8.8083673992642719E+00    4.3844981180817006E+00
Pb   -4.4016984957243421E+00    8.2262800387340143E+00   -4.1296296541094559E+00
Pb   -1.7758464220474033E+00   -7.6441858667499032E+00    9.9326730038771451E+00
Pb   -8.5350315504396050E+00   -4.3029541912871503E+00   -1.7776651773916061E+00
Pb   -7.6491850150307172E+00   -1.0297274431017374E+01   -1.5997847725791170E+00
Pb   -3.9828171691909220E+00    2.4317822973658307E+00   -3.3828913212441618E+00
Pb   -7.7156837810850831E+00   -8.6759935091919349E+00    1.0903578202636162E+01
Pb   -9.1424400117591205E+00   -5.3888687491171909E+00   -7.7772858677406305E+00
Pb    8.8565359804282604E+00   -3.3969017067669856E+00   -9.6598776494010217E+00
Pb    1.0318613283702746E+01   -9.2412854929317465E+00   -8.5857728472198627E+00
Pb   -2.0806195965788898E+00   -1.0497578457654289E+01   -7.7645479316450672E+00
Pb   -1.1278010429819954E+01    6.2163657522185227E+00   -9.9605595104808415E+00
Pb    2.6343989536637942E+00   -3.7714663008793603E+00   -9.1810317088650883E+00
Pb    4.0182024736169524E+00   -9.4188640099960672E+00   -7.8740895965447688E+00
Pb   -4.2142729288214547E+00    1.2550785428119027E+00   -9.3137201960892284E+00
Pb    8.4198715229892340E-01    8.0873771243343100E+00   -1.0277107119661345E+01
Pb    1.6408746787936028E+00    2.1934781659379472E+00   -9.5863567748196932E+00
Pb    9.7595250874210357E+00   -2.4030354447946034E+00   -3.3528368947551819E+00
Pb    1.0704776365380397E+01   -8.2755886193805210E+00   -2.3661921441402503E+00
Pb   -7.7150665348130119E+00   -2.5703643214909340E+00    1.0332282149131846E+01
Pb    7.1730719257720379E+00    8.5509806117959695E+00   -1.0448240288300124E+01
Pb   -1.0397008472025504E+01    4.1698019564378791E-01   -8.3660299720552178E+00
Pb   -3.3839425400499956E+00    9.6529406425946007E+00    7.8487059662615613E+00
Pb    7.5937936341428456E+00    8.9802980695368202E+00   -4.3738931846194733E+00
Pb    8.4663219283212321E+00    3.3549394233606473E+00   -3.4839922462870572E+00
Pb    8.9883924742022838E+00   -1.4893916953820565E+00    2.5034632285310625E+00
Pb    1.0578086316158441E+01   -6.9565719177228393E+00    3.4656016331876969E+00
Pb    7.7952401189460554E+00    2.7517308126076867E+00   -9.6642137304094433E+00
Pb   -2.5591841712242545E+00    3.7535757008963953E+00    8.8578170751913454E+00
Pb    7.9971351083402986E+00    1.0723572889525496E+01    1.8583206607486318E+00
Pb    8.4991870752434462E+00    4.6084478535779958E+00    2.1223013550159258E+00
Pb    9.8591334186003614E+00   -5.3167760303546863E-01    8.4763667152265665E+00
Pb    1.0631866956238220E+01   -6.6526616777870524E+00    9.5839561004655369E+00
Pb    8.4332968520274125E+00    1.1987655222742221E+01    7.7656921551141727E+00
Pb    9.5652237445936112E+00    5.4101188435935379E+00    7.8648053000905689E+00
Pb   -8.3491734018942125E+00    3.0008671328661736E+00    9.0236069359661979E+00
Pb   -2.3248561071537681E+00   -2.7143093977532589E+00    3.6202017425003343E+00
Pb   -1.0054136983370242E+01    8.3261271701336810E+00    2.1664840466751669E+00
Pb   -1.0338509104822556E+01    7.5347020851955184E+00   -3.8005710748319679E+00
Pb   -7.9999813420310675E+00   -1.1258765239707474E+01   -7.5832847815336626E+00
Pb   -5.3191736868400152E+00    6.8411781601512383E+00   -1.0141208770864857E+01
Pb   -9.1122451760390906E+00    2.5573751626021157E+00    3.1694931721457400E+00
Pb   -9.6415891767456259E+00    9.2711688438125890E+00    8.3357808369229822E+00
Pb   -2.6134645706893691E+00   -3.5448007182701411E+00   -2.2885014098815213E+00
Br    3.2794420676358982E-01   -3.4636299203505363E+00   -1.8583625512609825E+00
Br    2.8904993371830212E+00   -3.1474783897484295E+00   -5.7355651421356395E+00
Br    2.5275258185800622E+00    4.1504502833723126E-03   -3.2871132141445329E+00
Br    1.1180158285215134E+00   -9.3899825010727707E+00   -2.0133364479678240E+00
Br    4.2146605879645360E+00   -9.1993208260918014E+00   -5.0745442882323779E+00
Br    3.4153354264486304E+00   -6.2344679071242970E+00   -2.3966889698506395E+00
Br   -3.2016602346183047E+00   -4.3402505759107708E+00   -5.5672516074455469E+00
Br   -7.8851386482571657E+00   -3.0838631682773290E+00    6.9923263676042717E+00
Br   -3.1756810924262453E+00   -6.2511642839772497E-01   -2.9607357912490038E+00
Br    4.7790809658581495E+00   -1.1960197164163215E+01   -2.0964028450298464E+00
Br    1.1766971609463020E+01   -1.5336646421597173E+00    1.9945070921473940E+00
Br   -4.7251219998125276E+00   -1.0083471381528215E+01   -1.7114364391992205E+00
Br   -1.0686523959278837E+01   -4.1500775006001849E+00    3.8912931461740596E+00
Br   -8.2373289983672642E+00   -3.6581355733241079E+00    9.5071757406050905E-01
Br    1.3127113997497455E+01   -5.8306402176319150E+00    3.2109271130169299E+00
Br   -1.1878964780172563E+00    8.5083716788343864E+00   -4.2399865104758518E+00
Br    1.7137561067725815E+00    8.3751967052819527E+00   -7.1215619054465202E+00
Br    1.7342207721984002E+00    1.1890964994179686E+01   -4.6612517554552300E+00
Br   -8.8756698616348972E-01    3.0852636543349190E+00   -3.6597659750563034E+00
Br    1.9020160498112972E+00    2.2535095936698344E+00   -6.6892111659839717E+00
Br    1.9775671691289820E+00    6.0839271021803869E+00   -3.6042087027581773E+00
Br    6.7743871143432322E-01   -2.7970610220565968E+00    3.2493778782503790E+00
Br    3.9128112520290297E+00   -2.7190637816798842E+00    1.5482459297633905E-01
Br    3.5691261518414454E+00    2.2293190301883314E-01    3.3650740600950177E+00
Br    1.3556548613736494E+00   -8.7989746678350311E+00    4.4912651629948277E+00
Br    4.9939557301987945E+00   -8.9587726117960127E+00    8.5216898880535386E-01
Br    3.5197131761900402E+00   -5.7199218503722351E+00    2.8654146315457791E+00
Br   -7.8335360838949342E+00    5.6360787737297313E+00   -9.4888247195401281E+00
Br   -4.4800863329647660E+00    5.7400481884134322E+00   -1.2560234726026145E+01
Br    6.0859662908457155E+00   -1.0704602082206447E+01    4.0754689318410975E+00
Br   -5.1329081293683485E+00    9.8406022557183626E+00   -1.0844979923874847E+01
Br   -4.5356690693354338E+00    3.9330866629523591E+00   -9.1374509097531096E+00
Br   -8.6642358203168559E+00   -3.0599255459024582E-01    3.6988681786407254E+00
Br   -1.7186116925105794E+00   -1.0194309049312679E+01   -4.8281693251581830E+00
Br   -7.1146091313642827E+00    8.1991017282755614E+00    2.1817484157447882E+00
Br   -3.9441220764806899E+00    8.4998189229377488E+00   -1.1273329011636597E+00
Br   -4.8368399346531783E+00    1.1514912354052420E+01    1.4585359478842417E+00
Br   -8.5424226944151682E-01    8.7607104579609594E+00    2.3231420927977910E+00
Br    2.4495180432427848E+00    9.2816239244300913E+00   -1.3852500431497992E+00
Br    1.1102849379155868E+00    1.1999515968651641E+01    1.6079458578838761E+00
Br    7.4170929122895296E-03    2.9690285140928765E+00    2.1848287645915407E+00
Br    2.2617284351900495E+00    3.3666654215471121E+00   -7.3307978597631873E-01
Br    2.5818825095027980E+00    6.8674309304459307E+00    2.1391651532060090E+00
Br    6.7240670899599786E-01   -1.6818414866934308E+00    9.2458878366074675E+00
Br    3.4942703123093839E+00   -2.3900041948668149E+00    6.3521748280434620E+00
Br    3.8488194814159895E+00    1.1882234680765573E+00    8.0421822446234650E+00
Br    1.2128352353910645E+00   -7.3644674554949114E+00    9.5301578729022403E+00
Br    4.9258630673273922E+00   -7.9273708776255356E+00    6.9891443833070364E+00
Br    4.2570292752423047E+00   -4.7196985120735349E+00    9.7040860109475613E+00
Br   -1.1711402383200069E+01    2.1836446244766416E+00    4.4445460322738759E+00
Br   -9.4833764943910825E+00    2.2255034456844101E+00    3.4640885766750268E-01
Br    4.9123639716629404E+00   -1.0230312033204747E+01    9.7469019809046742E+00
Br   -9.4464501792948337E+00    5.5886064407139244E+00    2.9909703560755143E+00
Br   -7.8016689448576590E+00    1.7285746926022669E-01    9.6968345769401871E+00
Br   -2.3700080389763118E+00   -6.5804672348047202E+00   -1.7524799878239534E+00
Br   -6.1330083604093506E+00    2.4178544064292735E+00    2.6909303983229269E+00
Br   -3.6813209335996917E+00    2.3105132262157517E+00   -4.1389441491724954E-01
Br   -3.4625820701096894E+00    5.9276430869369490E+00    1.9689534337243246E+00
Br   -5.4553455004938223E-01    9.2745770780454002E+00    7.7530002890818013E+00
Br    2.7844577925142437E+00    9.6070906937459100E+00    5.1987285755243571E+00
Br    1.6318090162258545E+00    1.2916709558401720E+01    7.8185315701893723E+00
Br    2.2947371989282708E-01    4.2513653621911089E+00    8.4598087048244928E+00
Br    2.9093292388818068E+00    3.7395729855476039E+00    5.1071961975190527E+00
Br    3.0131759158233256E+00    7.0673562745752045E+00    8.7758431803695576E+00
Br   -4.7850369599715386E+00   -2.5170273110477352E+00    9.9886931997554829E+00
Br    4.0012674971932034E+00   -9.8575701037052188E-01    1.1858497068652980E+01
Br   -2.3929104285481611E+00   -2.4148548584231317E+00    6.4184878100073517E+00
Br   -2.5127370987085982E+00    9.9073484543833512E-01    8.6645915621459064E+00
Br   -1.5042799630031340E+00   -1.2540346430306084E+01   -1.4367231604095108E+00
Br    5.0607944507175588E+00   -8.1066579486167019E+00    1.2808638978280676E+01
Br   -1.2821359152295177E+01    2.0853554771835832E+00   -2.5333319903379765E+00
Br   -1.5678655430224948E+00   -1.1511869381813169E+01    5.5583533991464904E+00
Br   -1.1030594588453088E+01   -5.8465497714642103E+00   -1.6945046759333078E+00
Br    1.3343809865738492E+00    1.0397571201511864E+01    1.1035681449570477E+01
Br   -8.5529362456083220E+00   -4.9687581155122365E+00   -4.9543980808444319E+00
Br   -1.0040462813639181E+01   -1.8826038578025579E+00   -2.0989363184009520E+00
Br    3.5316620718566489E+00    4.2883493604265812E+00    1.1275109741073962E+01
Br   -7.1957605570267766E+00    7.2845955787051047E+00   -4.3971449874647464E+00
Br   -4.5209263185304396E+00    7.6267572610303072E+00   -6.9988968768454294E+00
Br   -4.7670407609969763E+00    1.0764613080555522E+01   -3.6377060870064484E+00
Br   -6.6737668027943355E+00    1.5248736869678607E+00   -2.8616464117692040E+00
Br   -1.0554749334486687E+01   -9.2449040714524564E+00    4.7221836099832579E+00
Br   -4.1332298032907060E+00    1.2069876797822521E+00   -5.9872528202647031E+00
Br   -6.0618827846239238E+00   -5.3294811493863916E+00   -8.3724390110766471E+00
Br   -4.1524048436938878E+00   -4.9965697996313247E+00   -1.1392677591331084E+01
Br   -3.5945117980551125E+00   -1.5198979656772225E+00   -8.8340020360162832E+00
Br   -2.2329389273077052E+00    3.9002664471189714E+00    1.1749302677829457E+01
Br   -4.4805711862411863E+00   -7.4984698089619526E+00    1.0709088798476433E+01
Br   -2.4658162182531238E+00   -7.6996449765957555E+00    6.9918300809126332E+00
Br   -1.5574141294736694E+00   -4.7623270563593936E+00    1.0256644283167411E+01
Br   -7.6800881520809439E+00   -9.9915448146305650E+00    1.4892299321995597E+00
Br   -7.5201560818139743E+00   -6.1638355210036861E+00    4.4082538770523003E+00
Br   -8.4274472039035437E+00    1.0192735880001608E+01    1.0715431058028106E+01
Br    1.0891488492457011E+01    1.0446791928725702E+01    1.6092128612785730E+00
Br   -7.6852817492668084E+00   -9.1190975897410507E+00    1.3506149897484125E+01
Br    1.0058375595629327E+01    8.9550261617939366E+00   -5.5513467021321778E+00
Br    1.1306479928085924E+01    4.5181169365088572E+00    1.4598137693170734E+00
Br   -9.4034178923373268E+00    2.7907192926949196E+00    1.1877207568758362E+01
Br   -1.1705678211717737E+01   -5.5617780232592322E+00   -6.7764401654670490E+00
Br    1.2759407933553675E+01   -6.6986511958432071E-01    7.3050977231332004E+00
Br   -4.7149911009804422E+00   -9.0860192571460345E+00    4.0088817796861624E+00
Br    5.7236200267835855E+00   -3.5901174747642131E+00   -9.5479950502458539E+00
Br    8.1834335794431414E+00   -4.6322953471738106E+00   -1.2450409434680022E+01
Br    1.3700981612019245E+01   -6.0784505802926807E+00    9.1508302990395123E+00
Br    8.1113709047811593E+00   -4.0251397425078533E-01   -9.7596331089251258E+00
Br   -6.9035208479863011E+00   -1.1586339634913713E+01    1.0614715379773495E+01
Br   -8.0131283622043992E-01   -9.2393609501891412E+00    1.2121730934622519E+00
Br   -1.6014437135124724E+00   -5.8257813937403355E+00    3.5253079907297549E+00
Br    7.0287650680889762E+00   -9.3136777573189420E+00   -8.0924591436240867E+00
Br   -4.9682144717308478E+00   -1.0342831581634746E+01   -7.4084755953798567E+00
Br    9.7168160457064623E+00   -9.2708923068201674E+00   -1.1749626454311951E+01
Br    9.1431629279136075E+00   -6.2694314582149904E+00   -9.1362571370826995E+00
Br   -1.5862839961374748E+00   -1.0411853843761911E+01    1.0211654829749685E+01