 # Version information for this restart file 
 # current date 2021-06-17 12:35:00.607
 # current working dir /user/ub2042/exercises/2_fitting/MM_MD_workdir/md_settings
 # Program compiled at                              Thu Apr 22 21:44:59 EDT 2021
 # Program compiled on                cpn-k07-07-02.compute.cbls.ccr.buffalo.edu
 # Program compiled for                                                    local
 # Source code revision number                                       git:36754bb
 &GLOBAL
   PRINT_LEVEL  LOW
   PROJECT_NAME cp2k
   RUN_TYPE  MD
 &END GLOBAL
 &MOTION
   &MD
     ENSEMBLE  NVT
     STEPS  10000
     TIMESTEP     2.4999999999999996E+00
     STEP_START_VAL  9990
     TIME_START_VAL     2.4974999999995493E+04
     ECONS_START_VAL    -1.3925666412857368E+01
     TEMPERATURE     3.0000000000000000E+02
     &BAROSTAT
       PRESSURE     1.0100000000000000E+00
       TIMECON     9.9999999999999982E+03
     &END BAROSTAT
     &THERMOSTAT
       TYPE  CSVR
       &CSVR
         TIMECON     9.9999999999999982E+03
         &THERMOSTAT_ENERGY
              -3.1926099376223660E-01
         &END THERMOSTAT_ENERGY
         &RNG_INIT
Wiener process for Thermostat # 1        1 F T F  -1.4436051593819570E+00        2305787847.0         317263915.0         649490368.0        2437808356.0        3240923174.0        2748373337.0             12345.0             12345.0             12345.0             12345.0             12345.0             12345.0             12345.0             12345.0             12345.0             12345.0             12345.0             12345.0
         &END RNG_INIT
       &END CSVR
     &END THERMOSTAT
     &AVERAGES  T
       &RESTART_AVERAGES
         ITIMES_START  1
         AVECPU     1.7891789896710183E-02
         AVEHUGONIOT     0.0000000000000000E+00
         AVETEMP_BARO     0.0000000000000000E+00
         AVEPOT    -1.4241934278959951E+01
         AVEKIN     4.8606861233207288E-01
         AVETEMP     2.4656730106961106E+02
         AVEKIN_QM     0.0000000000000000E+00
         AVETEMP_QM     0.0000000000000000E+00
         AVEVOL     6.7483345830912264E+06
         AVECELL_A     1.8897261328855686E+02
         AVECELL_B     1.8897261328855686E+02
         AVECELL_C     1.8897261328855686E+02
         AVEALPHA     9.0000000000000000E+01
         AVEBETA     9.0000000000000000E+01
         AVEGAMMA     9.0000000000000000E+01
         AVE_ECONS    -3.8409605830128055E+00
         AVE_PRESS     0.0000000000000000E+00
         AVE_PXX     0.0000000000000000E+00
       &END RESTART_AVERAGES
     &END AVERAGES
     &PRINT
       &ENERGY  SILENT
         &EACH
           MD  10
         &END EACH
       &END ENERGY
     &END PRINT
   &END MD
   &PRINT
     &TRAJECTORY  SILENT
       &EACH
         MD  10
       &END EACH
     &END TRAJECTORY
     &CELL  SILENT
       &EACH
         MD  10
       &END EACH
     &END CELL
     &VELOCITIES  SILENT
       &EACH
         MD  10
       &END EACH
     &END VELOCITIES
     &FORCES  SILENT
       &EACH
         MD  10
       &END EACH
     &END FORCES
     &RESTART  SILENT
       &EACH
         MD  10
       &END EACH
     &END RESTART
   &END PRINT
 &END MOTION
 &FORCE_EVAL
   METHOD  FIST
   &MM
     &FORCEFIELD
       VDW_SCALE14     1.0000000000000000E+00
       EI_SCALE14     1.0000000000000000E+00
       SHIFT_CUTOFF  T
       DO_NONBONDED  T
       IGNORE_MISSING_CRITICAL_PARAMS  T
       &SPLINE
         R0_NB     2.5000000000000000E-01
       &END SPLINE
       &NONBONDED
         &LENNARD-JONES
           ATOMS Br Br
           EPSILON     1.2630795322675199E+02
           SIGMA     3.6900000000000004E+00
         &END LENNARD-JONES
         &LENNARD-JONES
           ATOMS Cs Pb
           EPSILON     8.6920055954630968E+01
           SIGMA     3.6699999999999999E+00
         &END LENNARD-JONES
         &LENNARD-JONES
           ATOMS Cs Cs
           EPSILON     2.2644852172126850E+01
           SIGMA     4.5300000000000002E+00
         &END LENNARD-JONES
         &LENNARD-JONES
           ATOMS Pb Pb
           EPSILON     3.3363415533600227E+02
           SIGMA     6.1000000000000005E+00
         &END LENNARD-JONES
         &LENNARD-JONES
           ATOMS Br Cs
           EPSILON     5.3481070753900497E+01
           SIGMA     3.6300000000000003E+00
         &END LENNARD-JONES
         &LENNARD-JONES
           ATOMS Br Pb
           EPSILON     2.0528187276773045E+02
           SIGMA     2.9800000000000000E+00
         &END LENNARD-JONES
       &END NONBONDED
       &CHARGE
         ATOM Cs
         CHARGE     4.1739999999999999E-01
       &END CHARGE
       &CHARGE
         ATOM Pb
         CHARGE     8.3479999999999999E-01
       &END CHARGE
       &CHARGE
         ATOM Br
         CHARGE    -4.1739999999999999E-01
       &END CHARGE
     &END FORCEFIELD
     &POISSON
       PERIODIC  XYZ
       &EWALD
         EWALD_TYPE  SPME
         GMAX  62 62 62
         O_SPLINE  4
       &END EWALD
     &END POISSON
     &PRINT
       &FF_INFO  LOW
         SPLINE_INFO  F
         SPLINE_DATA  F
       &END FF_INFO
     &END PRINT
   &END MM
   &SUBSYS
     &CELL
       A     1.0000000000000001E+02    0.0000000000000000E+00    0.0000000000000000E+00
       B     0.0000000000000000E+00    1.0000000000000001E+02    0.0000000000000000E+00
       C     0.0000000000000000E+00    0.0000000000000000E+00    1.0000000000000001E+02
       PERIODIC  XYZ
       MULTIPLE_UNIT_CELL  1 1 1
     &END CELL
     &COORD
Cs   -7.0236424080194104E-01   -4.4303175222836916E-01   -5.8440834286812082E+00
Cs    3.6015006558281382E-01   -6.0346800965144363E+00   -4.4802479965172823E+00
Cs    2.2062327051842678E+00   -1.2040953094301576E+01   -3.1633656782672794E+00
Cs   -4.3235048846696937E+00   -7.7858643073850970E+00   -3.4317798962716601E+00
Br   -7.6394019903586701E+00   -1.5198081837777073E+01   -5.1180419695861055E+00
Br    1.1623387034007912E+01   -2.2914043267925841E+00   -9.4938772908235318E+00
Br   -5.6456571632168338E+00   -1.1248867267736344E+00   -1.1851755903004532E+01
Cs   -1.0336472530067122E+00    4.7347453565928319E+00   -6.7129291491756851E+00
Cs   -3.0657177597081808E-02   -7.7699256855526388E-01   -3.1974996263624988E-01
Cs    9.0843398740627490E-01   -5.5201907458748849E+00    1.0003375070889071E+00
Br   -5.0166365534010300E+00   -3.5659427994834081E+00    4.4126416696728752E+00
Cs   -9.5881873483196447E+00   -6.1270353362886798E+00    1.4208343957638913E+01
Cs    1.3792587944748801E+01   -8.5029754164227302E+00   -1.8660002279886578E-02
Cs   -6.5827984576066960E+00    4.6229102423636732E+00    4.0243010463580242E-01
Cs   -2.1158973285192744E+00    1.0699138830199116E+01   -2.3322884872202776E+00
Cs   -9.4905848941868431E-01    5.7053348684303069E+00   -8.7818671000233428E-01
Cs    8.4950636858129958E-01    1.5168433643708998E+00    4.9150835262180594E+00
Cs    1.9721642421070935E+00   -3.9520030111258806E+00    7.5013478047047650E+00
Cs    2.9054492675386232E+00   -1.0476905080086576E+01    7.2297505606803849E+00
Cs   -6.2800732551583911E+00    6.9055966082661575E+00    9.9508917803414914E+00
Cs   -6.8767298351607469E+00   -3.8358551601020272E+00   -1.0403278929985353E+01
Cs   -4.8793529652617487E+00   -1.3972202916885955E+01   -3.1241992269941887E+00
Cs   -5.8055104645652005E+00    8.6057946313436717E-01    6.8334453074708383E+00
Br   -2.6781027005500775E+00   -3.7314127560687500E+00    1.2166560814388574E+00
Cs   -4.5932557291333287E-01    6.6009760071372856E+00    5.2635764462614079E+00
Br    1.2213703145369168E+01   -7.9146711558996374E+00   -8.9986818308627150E+00
Cs    2.2259189545903588E+00   -4.0685889196438927E+00    1.2039708166541343E+01
Br   -2.3968640090843669E+00   -1.7161817882751371E-01    3.1612760918776321E+00
Br   -5.8475372690929248E+00   -2.3343659538757318E+00    1.3167500144377239E+01
Cs    1.3560783014495115E+01    1.0341339378741905E+01   -7.3554319841473523E+00
Cs   -8.9652917470360016E+00   -6.5299280333079972E+00    8.6862139771162639E+00
Cs   -4.4062044798877080E+00   -5.8287257020591703E+00    7.8063312167739864E+00
Cs   -8.9349386724268598E+00    9.2879956013117457E+00   -7.7961566035341097E+00
Br   -8.7641251516212701E+00   -9.5231630107811984E+00    1.2806208366024324E+01
Br   -5.8254016243441642E+00   -1.0026091775729977E+01    8.4674384861883798E+00
Cs   -1.0789125356011491E+01   -7.9380643975833438E+00   -2.9908018448893330E+00
Cs   -7.7633484548559517E+00    3.6961428264550400E+00   -6.7367713401450011E+00
Br   -6.1216384119976777E+00   -6.3083450063715398E+00    1.0833947035028961E+01
Cs    1.0441289533712348E+01    1.0084608577508455E+01    9.8106169529102711E+00
Br   -1.3144218924043633E+01    7.7878242116914835E+00    8.9923124597014183E+00
Br   -5.3042628708970669E+00   -4.9617808398710128E+00   -1.2772186544079414E+00
Cs    1.4598328267116967E+00    2.2077293449002253E+00    1.1252400033690025E+01
Cs    1.0091300280205036E+01    7.8608064773496942E+00   -1.7592284232480297E+00
Cs   -1.1756219473261792E+01   -9.8205690700215946E+00   -8.4251322667442583E+00
Cs    1.2462445342665928E+01    4.7362279784176664E+00    4.8316211794440820E+00
Cs   -1.3437080994477297E+01    8.2982275796667953E+00   -7.5965938847207699E+00
Cs    1.3450036606079445E+01   -7.7142566769501455E+00    6.2755137439888449E+00
Cs    6.7069853335091070E+00   -7.4740937141701114E+00   -1.0973429687923687E+01
Cs    8.5767085494927038E+00   -8.8239580513924398E+00    7.0543178556154231E+00
Cs   -3.6348265262787192E+00   -1.1498744365222548E+01    2.8604611031131939E+00
Cs    6.7799865885748787E+00   -1.3235683963207041E+01   -9.4753997425668590E+00
Cs    9.2426889380086603E+00    6.2402242873350104E+00   -8.0880328037264206E+00
Cs    8.2623615771935555E+00    1.5630224652389360E+01    2.6216684286831793E+00
Cs    8.9160068725374817E+00    5.2159185276978697E+00   -1.3119523763214254E+01
Cs    6.7952127057177417E-02   -7.9269193646487279E+00   -1.1140972979046264E+01
Cs   -1.2369460581372472E+01   -2.5960258480144871E+00   -5.1058613931551102E+00
Cs    8.5878960956843517E+00   -2.0484303205456982E+00    1.1330711500875797E+01
Cs    1.2828299865930997E+01   -2.4368963413993878E+00    5.2323956097315572E+00
Cs   -7.3859341535819052E+00   -1.0230898120835775E+01    1.6036060829151111E+01
Cs   -1.7940392564213132E+00   -3.1576237316010314E+00   -1.1319866986978749E+01
Cs   -2.0496025266416815E+00    1.1984446466900243E+01    3.7779597794766202E+00
Cs   -2.1786339700788715E+00    2.8748059804572308E+00   -1.2958968741249311E+01
Cs    5.8841321853945345E+00   -8.6981776859588378E-01   -6.5375033155277276E+00
Cs    6.4704851564889490E+00   -5.5483700368767463E+00   -6.1040944968393589E+00
Cs   -2.2147180980578867E+00   -1.1076370722459963E+01    9.2256753168888697E+00
Cs   -1.0768998480629602E+01   -1.3318334211576004E+00    7.0728369911654640E+00
Cs    4.5756381472451677E+00   -1.3576302214960136E+00   -1.1758153033699150E+01
Cs    4.3343119916013579E+00    1.0175610672229993E+01   -1.3391849719955855E+01
Cs   -1.1301189275456165E+00    8.2336093465951681E+00    1.0134307063951862E+01
Cs   -7.6871815396349321E+00    1.1019883204375244E+01    4.4370024945889277E+00
Cs    4.5493706263540643E+00    1.1117879312972828E+01   -8.9960442712636279E+00
Cs    4.2573243174983313E+00    5.8953211212416710E+00   -7.5751636892932765E+00
Cs    4.8372740718728338E+00    7.5107626210749878E-01   -7.3131942585855347E-01
Cs    7.8488842352609982E+00   -5.0108462214020619E+00    1.1093208410805180E+00
Cs    8.1843268604883566E+00   -9.6008392115517438E+00    1.0218944879030696E+00
Cs    3.7360174191388373E+00    4.5718002776093201E+00   -1.2482590601851982E+01
Cs   -6.2673750418717411E+00    5.5561094081852289E+00    5.9073533100091415E+00
Cs   -5.9860643659190576E+00   -8.9663978839679359E+00   -9.0143099029838929E+00
Cs    3.8149395689809991E+00    7.4977347009416579E+00   -1.8514906337728294E+00
Cs    7.0336588462459213E+00    2.3830403213553977E+00    4.9115458809203423E+00
Cs    7.3750428027794825E+00   -3.5167466947632779E+00    5.5508861084828087E+00
Cs   -6.8512280190178245E+00    1.0710523647591806E+01   -2.7640924956321964E+00
Cs    1.1484288662246607E+01    2.1417334678155568E+00   -1.4225590411136042E+00
Cs   -5.5133986580748457E+00   -1.4913381612752306E+00    3.1899635723664477E-01
Cs   -1.2401404139434105E+01    4.1091482379308859E+00    5.8941989492402049E+00
Cs   -4.0662178296366882E+00    1.4596904378614657E+00    1.2894712119000397E+01
Cs    3.4516918463423294E+00    1.2817727771762298E+01    4.2586599273174972E+00
Cs    5.2829952774553668E+00    7.9458091564776270E+00    3.6805927009082540E+00
Cs    9.5112491094071530E+00    3.8388699672833946E+00    1.1103307946544890E+01
Cs    3.3030364349384165E+00    1.2822497248389533E+01   -1.9302112222638830E+00
Cs    1.1058484385535252E+01    1.0944313883369863E+00   -7.0219416704533106E+00
Cs    1.2628582393335622E+01   -5.7982276445863237E+00   -6.3981816762197177E+00
Cs    9.7417792485738257E+00   -7.3424361557474178E+00    1.1953558800495177E+01
Cs    9.0781037143883427E+00    1.2822107935378860E+01   -2.2142249049683884E+00
Cs   -1.1334454257998562E+01    5.4459479382702805E+00    1.1003626288876895E+01
Cs   -8.1488285961259841E+00    1.7802632958516302E+00   -1.1542604866962609E+01
Cs   -1.4023515748726812E+01    9.2319585175242480E+00   -1.5880129697194356E+00
Cs   -2.9022861046595767E+00   -5.3163232206009070E+00    1.3393228196219821E+01
Cs   -1.7178045929674088E+00   -9.6640061846473060E+00    1.4849999810242441E+01
Cs    5.3567520374799811E+00    8.4411197500022244E+00    9.3965438084665092E+00
Cs    1.2591558172771867E+01   -4.0348100686555224E+00   -3.8278019400748142E-01
Cs   -1.1165684942861436E+01   -2.0328552754953901E+00    7.4212523924007578E-01
Cs   -8.5749677913366309E+00    6.3573745586232535E+00   -1.4239592892659678E+01
Cs   -1.3097023960979605E+01    3.9204726882070036E+00    5.9952813619707357E-01
Cs   -1.0220052794149643E+01   -1.3264081518400621E+01   -2.5364673245227980E+00
Cs   -1.0274315394015785E+01   -7.2181576051915695E+00    2.4169756961702360E+00
Cs   -4.8074316042189578E+00   -6.4572955147259163E+00    1.9654979431730086E+00
Cs   -7.4410879152736831E+00   -1.2830800046409474E+01    9.0636098358270427E+00
Cs    1.3710163999106683E+01   -1.3977856402387874E+00    1.0382866589620216E+01
Cs    1.0268582314857012E+01    9.5772337600828994E+00    3.8539020605323895E+00
Cs   -1.3882067362346012E+01    2.2693734953094911E+00   -5.9346071864271819E+00
Cs   -6.8339098883309122E+00   -2.3881948431064397E+00   -5.7068638437020542E+00
Cs   -8.6937907395154230E+00   -1.3263619488763418E+01    2.7360710289561738E+00
Cs    1.2105167799111822E+01   -6.5214878533676020E+00   -1.1773614954875754E+01
Cs   -4.8378041119414465E+00   -1.5560061590545537E+01   -8.4802738622546148E+00
Cs   -2.4728504951548582E+00    8.8917642573421087E+00   -1.2872944335911715E+01
Cs    7.0274708657185436E-01   -1.3132992426430947E+01   -1.0074770360688149E+01
Cs   -2.7009429358739236E+00    9.0331633807675296E+00   -7.8623983695448274E+00
Cs   -8.0899540733492650E+00    1.1293560451727876E+01    8.7579955147817152E+00
Cs    3.0841372017849324E+00   -1.1597849881382302E+01    2.1694088075955804E+00
Cs   -1.2824768967697993E+01    1.7905477323170347E+00   -1.2706904214855220E+01
Cs   -1.3994039858948167E+01    1.0028649205910318E+01    4.8187419735222221E+00
Cs    8.5780648760107923E+00   -1.1609706610391459E+01   -4.1456427009190566E+00
Cs    1.0775795270470118E+01    2.6638676879465573E-01   -1.1837038673598908E+01
Cs   -1.2197106381613332E+00    1.2706006005510103E+01    9.5747240402815130E+00
Pb    3.3065844079748974E+00   -2.6665238130724993E+00   -2.8575983620711467E+00
Pb    4.5792881042339477E+00   -8.5763408762345019E+00   -1.8751995287599343E+00
Pb   -7.9811303093913466E+00   -3.7395009032351623E+00    4.8024243141204863E+00
Pb   -1.2837379672232314E+00   -1.0183799052132519E+01   -1.1896495498521251E+00
Pb    5.4537525193825298E-01    8.9721172832817171E+00   -4.8610585480146966E+00
Pb    1.9724277989295906E+00    3.0838454086559803E+00   -3.6597339226860921E+00
Pb    4.1338428684429358E+00   -1.6569405222108022E+00    3.3691038012604553E+00
Pb    5.1894446880128147E+00   -7.6720009792894119E+00    4.1550745039456753E+00
Pb   -4.9303465324128828E+00    8.6338181346991920E+00    1.0633434177956105E+00
Pb    9.9618013777223169E-01    1.0004874105734681E+01    9.4862794468560541E-01
Pb    2.8448358854336386E+00    4.1562821059938218E+00    2.1621402258160831E+00
Pb    4.8456860395022092E+00   -3.7653336279797733E-01    9.3393026563571091E+00
Pb    5.4626163999567128E+00   -6.0575840486323127E+00    1.0158401561087027E+01
Pb   -2.9447727278198879E+00    2.6347334865132157E+00    2.5911216880851415E+00
Pb    1.8157783058664310E+00    1.0497383597700066E+01    7.5348269708458533E+00
Pb    3.2125020594293234E+00    5.0092466418768362E+00    7.8843772447285634E+00
Pb   -1.3803186018126004E+00   -1.6941799434643234E+00    9.8076586302244593E+00
Pb   -7.0149932568429101E+00   -9.5302438095700968E+00    5.7255683861310454E+00
Pb   -9.8443880707115916E+00    1.3438877125872657E+00   -2.7262343659769681E+00
Pb   -3.3220880994281412E+00   -5.2691175447627971E+00   -7.4506124402811773E+00
Pb   -4.8699870745687435E-01   -9.0415634291420623E+00    4.5692292116432141E+00
Pb   -5.2572924270264085E+00    7.0715257190658489E+00   -4.9602324644306810E+00
Pb   -2.5586873279876116E-01   -7.7560099900507824E+00    1.0756646286514911E+01
Pb   -8.2860036419425711E+00   -4.6085997357987862E+00   -1.2007831092280967E+00
Pb   -7.4959564885273196E+00   -1.0465717599487226E+01   -2.0625540909185433E-01
Pb   -3.5617997007632511E+00    1.3233274840451177E+00   -3.1918766856509069E+00
Pb   -5.9755000560228124E+00   -8.9074385827840956E+00    1.2196357814459583E+01
Pb   -9.3906015908042590E+00   -6.1028383422015340E+00   -6.8259405770963353E+00
Pb    9.0225042701886160E+00   -3.5890594043955821E+00   -9.2388025471363751E+00
Pb    1.0270335041199912E+01   -9.8673198744785999E+00   -8.3759366561410733E+00
Pb   -2.1270002101052587E+00   -1.1116419528858557E+01   -7.3009218539725040E+00
Pb   -1.1213505980734135E+01    5.6684005462486446E+00   -1.0486156702878690E+01
Pb    2.6693501685543080E+00   -4.1770162190241944E+00   -8.5301716881694531E+00
Pb    3.9454705888971255E+00   -1.0158858213990447E+01   -7.6281538465783658E+00
Pb   -4.6399912458240848E+00    2.7546686506320006E-01   -9.3644058048784213E+00
Pb    7.1012193902405796E-01    7.4902924446180732E+00   -1.0602064735364955E+01
Pb    1.3167579094936093E+00    1.6339674465479019E+00   -9.5988081843801680E+00
Pb    9.2711699298125065E+00   -1.9012557148755362E+00   -3.5015285702138943E+00
Pb    1.0628657676726290E+01   -7.7336091318767153E+00   -2.6421277539664496E+00
Pb   -7.1964233671100004E+00   -3.0129263662768562E+00    1.0691008199734119E+01
Pb    7.1288074381341131E+00    8.1225722510934464E+00   -1.0876205024336253E+01
Pb   -1.0647079662364016E+01   -3.0411249655089789E-02   -8.5212701423577428E+00
Pb   -4.3753577722391235E+00    9.7516411411339323E+00    6.8576443827570852E+00
Pb    7.1439061004249451E+00    9.7753865472235741E+00   -5.3346217122333197E+00
Pb    7.9535391018607777E+00    3.9637710165660032E+00   -4.1845143545177690E+00
Pb    9.9077765244495684E+00   -6.4008524084631757E-01    2.2777249352567011E+00
Pb    1.0777906723766808E+01   -6.5512845663623445E+00    3.1800641740834434E+00
Pb    7.4472538278271978E+00    2.2322996525505938E+00   -1.0005393945075092E+01
Pb   -2.6498788353734004E+00    4.0249672308079782E+00    8.7498247268344826E+00
Pb    6.6750947006860839E+00    1.0638386451491716E+01    8.0227876879631022E-01
Pb    8.9738850548531595E+00    5.1315226463586434E+00    1.5726023708136767E+00
Pb    1.0461673265259549E+01    1.1305704131490921E+00    7.8582147205315716E+00
Pb    1.1291379621204280E+01   -4.9328453462541058E+00    9.1098788580848353E+00
Pb    7.2489708242828437E+00    1.2758922890344923E+01    6.4521827564396927E+00
Pb    9.2696796074218319E+00    6.8359506371206029E+00    7.2847394737144393E+00
Pb   -8.5798725238966504E+00    2.7685104391734492E+00    9.2435671306884082E+00
Pb   -1.9234719867993986E+00   -3.2353854071807571E+00    4.1416858308757378E+00
Pb   -1.0933176874227216E+01    7.9026284204873818E+00    1.7482893681507157E+00
Pb   -1.1128805462713801E+01    6.8308356141881363E+00   -4.3234292362021396E+00
Pb   -7.8257941541807519E+00   -1.2148524146531928E+01   -6.2483056779503974E+00
Pb   -5.3721010607549582E+00    5.9380220632811502E+00   -1.0921795395685583E+01
Pb   -9.0344290085661552E+00    1.8607024045515257E+00    3.2662666575723520E+00
Pb   -1.0560726398824084E+01    8.5219664264133232E+00    8.0743376371891262E+00
Pb   -2.4282691123985565E+00   -4.2409590013487506E+00   -1.6760259626042593E+00
Br    6.0035539114971981E-01   -3.9039540833570769E+00   -2.0015179597909962E+00
Br    3.7396082250534133E+00   -4.0606120225778124E+00   -5.5195514113478108E+00
Br    2.1786917781112467E+00   -1.7891129055333715E-01   -3.6535362659964674E+00
Br    1.7248934571030017E+00   -9.2187768132083487E+00   -1.1941386159795766E+00
Br    4.8584539129243529E+00   -9.9054391520918710E+00   -4.6936955145366426E+00
Br    3.8883541262707273E+00   -5.3924454562657216E+00   -2.2632897309617857E+00
Br   -2.6881462382014356E+00   -4.7604119347675118E+00   -4.7547806043185510E+00
Br   -7.8104432280744041E+00   -3.7009028823368264E+00    7.6930397302783540E+00
Br   -2.6073993593372102E+00   -1.5111629248713512E+00   -2.8687739895889783E+00
Br    4.7439201020733961E+00   -1.1317568092861874E+01   -1.1808351215219979E+00
Br    1.3137646252129347E+01   -9.8649536435508445E-01    1.9021080244558468E+00
Br   -4.7131196676851648E+00   -1.0103146668874743E+01   -1.0245806353586386E+00
Br   -1.0588064187263003E+01   -4.4898899186106442E+00    4.7527187677014977E+00
Br   -8.3094900295699325E+00   -3.6717282548462711E+00    1.7583992221826905E+00
Br    1.3945801032343550E+01   -6.1706278059596213E+00    3.2434676971213308E+00
Br   -2.0930423489140395E+00    7.7248063425637525E+00   -5.0370022558013332E+00
Br    1.0831174415061990E+00    8.3043225619704728E+00   -7.7912156145614109E+00
Br   -7.0117362239348890E-01    1.1371849558356613E+01   -5.6397412621920164E+00
Br   -6.1678231568477260E-01    1.9169132975752916E+00   -3.2329050814700295E+00
Br    1.3002747150228000E+00    2.5575189173028430E+00   -6.5793636728713070E+00
Br    1.4233244893272761E+00    6.0910151181207892E+00   -4.5455956753472035E+00
Br    1.0921593857731446E+00   -2.1840556288463788E+00    3.4860965632317624E+00
Br    3.1400408185175603E+00   -2.0494131282142822E+00    2.6684425036849313E-01
Br    3.7277965084206626E+00    1.3609364630252898E+00    2.8024629929117642E+00
Br    2.3390599163330434E+00   -8.4718020712217026E+00    3.8732267046256790E+00
Br    5.0210461974101568E+00   -7.9495442510583620E+00    9.3374839421986588E-01
Br    4.8086838142483534E+00   -4.8566417553808003E+00    3.6580221175951806E+00
Br   -8.3616984625545800E+00    5.1919617174761594E+00   -1.0876592963930571E+01
Br   -4.7227473336802754E+00    5.6592190679772187E+00   -1.3711570530609203E+01
Br    5.4016586655647165E+00   -1.0679128196461404E+01    4.6286025570995282E+00
Br   -5.2768762544111336E+00    8.8968755236957442E+00   -1.0843982722993799E+01
Br   -5.2490258581415166E+00    3.0876521345127736E+00   -1.0214731339846578E+01
Br   -8.3998896255879956E+00   -7.1154061109994104E-01    4.8768836804882216E+00
Br   -1.9115545093924313E+00   -1.1001368375251900E+01   -4.0212501702302870E+00
Br   -7.4660832699901896E+00    8.1664838646261622E+00    2.3128105811931183E+00
Br   -4.7377912486160252E+00    8.3220421930544575E+00   -1.5926458181618770E+00
Br   -5.8361501928567643E+00    1.1244469564528817E+01    3.7070995116379785E-01
Br   -1.9963346954624173E+00    9.7291678763666791E+00    6.4358642489733908E-01
Br    1.1532376646262019E+00    9.1022516236000346E+00   -1.7511722116252046E+00
Br    9.8163432751269020E-01    1.2909852822119465E+01    6.0149737939641346E-01
Br   -8.8062809924021976E-02    2.9400344533912102E+00    1.9660692106020390E+00
Br    2.1218725656245692E+00    3.4895080653956669E+00   -8.8549736687288683E-01
Br    1.7120486532634367E+00    6.9327881114599235E+00    1.6925150522730303E+00
Br    1.4942240886282441E+00   -1.0701342253544979E+00    9.4756987876273282E+00
Br    4.0997527500685207E+00   -9.3718914808628506E-01    6.3106841690629629E+00
Br    3.9308729788082730E+00    2.4830794985753095E+00    8.8895179562954159E+00
Br    2.5334498404373083E+00   -7.1113345737586453E+00    1.0109115909907977E+01
Br    5.4309910017329317E+00   -6.7939795325983976E+00    6.9174615236363461E+00
Br    5.2882093606276932E+00   -3.2939764640900151E+00    9.6251011684804908E+00
Br   -1.1770850009172168E+01    1.1014330195554438E+00    3.1900599545233503E+00
Br   -9.3950627379865566E+00    1.9108589212331124E+00    7.3732862677589092E-02
Br    6.8374692902245799E+00   -8.5288404483698539E+00    1.0558223023729559E+01
Br   -9.8695452347629438E+00    4.8584476365373490E+00    2.9161495337503549E+00
Br   -8.0476233000864745E+00   -4.5260289125669734E-02    9.5295434175248594E+00
Br   -1.7470779838664494E+00   -7.0062085684841851E+00   -1.5366175122894024E+00
Br   -5.9862440799425753E+00    2.0388182213810326E+00    2.8098356281471886E+00
Br   -3.1935731051098606E+00    2.2284498106865880E+00   -3.8547234835955835E-01
Br   -3.3641235731842798E+00    5.4399485622947878E+00    1.7812271768464614E+00
Br   -1.5636746968481547E+00    9.7289537125509788E+00    7.1646277532297393E+00
Br    5.2116765138618881E-01    9.9473289805150102E+00    4.0159560425119381E+00
Br    1.0358073040777791E+00    1.3118676697593580E+01    7.0216781797909809E+00
Br    4.2133447199043111E-01    3.8280905838240051E+00    7.4975076212687837E+00
Br    3.2618603660423680E+00    5.0688814897793160E+00    4.9381800213918563E+00
Br    1.9086931799490172E+00    7.6509924732752213E+00    7.6919150025422587E+00
Br   -4.8528516875200145E+00   -2.3110541513277334E+00    9.3262345917641394E+00
Br    4.4950406840227410E+00    2.0331024978367734E-01    1.2104425111154312E+01
Br   -1.0785922479295014E+00   -2.5484047966461474E+00    6.9171139269544586E+00
Br   -2.3332542033463612E+00    1.2279220177058083E+00    9.3085016211533063E+00
Br   -1.4809446460979530E+00   -1.2847213295633082E+01   -6.3002198288086542E-01
Br    5.9921464257722414E+00   -5.0666328862444256E+00    1.2628259081776099E+01
Br   -1.2510843208371695E+01    5.3013072390378591E-01   -1.8246109550836074E+00
Br   -2.3423228828538101E-01   -1.1683819568701596E+01    5.2876440644334721E+00
Br   -1.1016564765360661E+01   -4.8516225284524745E+00   -1.0701909511727272E+00
Br    1.4414931849502490E+00    1.0387415274779112E+01    1.0427118257702743E+01
Br   -8.5806331255906407E+00   -5.2263043969869702E+00   -3.9938272701020536E+00
Br   -8.9415668113110680E+00   -1.8097161692271329E+00   -1.9046676079107310E+00
Br    3.0487229296455634E+00    5.6584805281994868E+00    1.0899317359806540E+01
Br   -8.1038032532202244E+00    6.5776057842012552E+00   -4.7820455118099483E+00
Br   -4.7749239972763862E+00    5.8640587527708545E+00   -7.4280212283472249E+00
Br   -5.0036906052471046E+00    9.8513802546694329E+00   -5.4094785062598323E+00
Br   -6.4997929493098257E+00    1.0415252129444295E+00   -2.8649473699011603E+00
Br   -9.8518857625859333E+00   -1.0148486284833082E+01    6.7188534309733194E+00
Br   -3.7026059955397170E+00    1.0584940713539635E+00   -6.1404307760330932E+00
Br   -6.3658982832757038E+00   -5.5820134123629357E+00   -7.3493683346879770E+00
Br   -3.2605978656291286E+00   -6.0822255737789330E+00   -1.0416598032010658E+01
Br   -3.9315461425116327E+00   -2.7657027694450265E+00   -8.3447185973051692E+00
Br   -1.4113384280118899E+00    4.3467770798030028E+00    1.1340866175638299E+01
Br   -2.8105100484400745E+00   -8.6509045286583088E+00    1.1519675223998959E+01
Br   -2.9898887520976091E-02   -8.6502750677774571E+00    7.6344484333068072E+00
Br   -1.3382917253342790E+00   -4.8881090029244501E+00    1.0412976035007448E+01
Br   -6.8934266100118284E+00   -9.5960718467421913E+00    2.9415443436201456E+00
Br   -7.4329176679090363E+00   -6.6220105418177608E+00    5.3517694201228521E+00
Br   -9.4206779075151967E+00    8.9186247142261994E+00    1.0543440300030291E+01
Br    9.7559101159734318E+00    1.1133705024205968E+01    4.4668697298704058E-01
Br   -5.4656774991776178E+00   -7.3183579234879170E+00    1.4348693869795643E+01
Br    9.7697144625664549E+00    1.0183270352507177E+01   -4.9026928178391298E+00
Br    1.1297583468453814E+01    5.9324455050249876E+00    6.5573746359881124E-01
Br   -7.5558271230241258E+00    4.1745158258356323E+00    1.2063697902454992E+01
Br   -1.1908654335734889E+01   -6.8945192690529282E+00   -6.0732527117065738E+00
Br    1.3075865468943945E+01    1.9928574426283818E+00    6.5098539284431052E+00
Br   -4.0159344430981081E+00   -8.7096501428950823E+00    5.6460462747574400E+00
Br    5.5449711475625358E+00   -3.3374468213677759E+00   -8.9335646368987227E+00
Br    9.0575923726296867E+00   -4.7078125831182369E+00   -1.2154808010433175E+01
Br    1.4068697851296491E+01   -4.4992896180661708E+00    8.0239563848472191E+00
Br    8.1670412112917052E+00   -7.6586487218175170E-01   -9.8219926126916484E+00
Br   -5.6422865937003923E+00   -1.1749213530199356E+01    1.2920784086098910E+01
Br   -1.4992165120915395E+00   -9.3774795337745793E+00    2.0069075040319446E+00
Br   -8.6599908525702873E-01   -6.0061383444553931E+00    3.8165827822884677E+00
Br    7.3299224161190137E+00   -1.0124439957472880E+01   -7.5612205358923115E+00
Br   -4.8724472912192347E+00   -1.2132373960913414E+01   -6.4423730772035439E+00
Br    8.6321029444921038E+00   -1.0693442660462949E+01   -1.0913521333274518E+01
Br    8.8265463560652506E+00   -6.1842244591578890E+00   -8.5396119438015745E+00
Br    4.7743302059715881E-01   -1.0270445521652109E+01    1.1639176605073430E+01