 # Version information for this restart file 
 # current date 2021-06-17 12:32:10.951
 # current working dir /user/ub2042/exercises/2_fitting/MM_MD_workdir/md_settings
 # Program compiled at                              Thu Apr 22 21:44:59 EDT 2021
 # Program compiled on                cpn-k07-07-02.compute.cbls.ccr.buffalo.edu
 # Program compiled for                                                    local
 # Source code revision number                                       git:36754bb
 &GLOBAL
   PRINT_LEVEL  LOW
   PROJECT_NAME cp2k
   RUN_TYPE  MD
 &END GLOBAL
 &MOTION
   &MD
     ENSEMBLE  NVT
     STEPS  10000
     TIMESTEP     2.4999999999999996E+00
     STEP_START_VAL  500
     TIME_START_VAL     1.2500000000000068E+03
     ECONS_START_VAL    -1.3925666412857368E+01
     TEMPERATURE     3.0000000000000000E+02
     &BAROSTAT
       PRESSURE     1.0100000000000000E+00
       TIMECON     9.9999999999999982E+03
     &END BAROSTAT
     &THERMOSTAT
       TYPE  CSVR
       &CSVR
         TIMECON     9.9999999999999982E+03
         &THERMOSTAT_ENERGY
              -1.6815429218202504E-02
         &END THERMOSTAT_ENERGY
         &RNG_INIT
Wiener process for Thermostat # 1        1 F T F  -1.6641838422452651E-01        2082254386.0        4002166886.0         820843889.0        3085297725.0        3956791434.0        2489169757.0             12345.0             12345.0             12345.0             12345.0             12345.0             12345.0             12345.0             12345.0             12345.0             12345.0             12345.0             12345.0
         &END RNG_INIT
       &END CSVR
     &END THERMOSTAT
     &AVERAGES  T
       &RESTART_AVERAGES
         ITIMES_START  1
         AVECPU     1.8192101892083878E-02
         AVEHUGONIOT     0.0000000000000000E+00
         AVETEMP_BARO     0.0000000000000000E+00
         AVEPOT    -1.4326585550314034E+01
         AVEKIN     4.0969662024735248E-01
         AVETEMP     2.0782619438656067E+02
         AVEKIN_QM     0.0000000000000000E+00
         AVETEMP_QM     0.0000000000000000E+00
         AVEVOL     6.7483345830899505E+06
         AVECELL_A     1.8897261328856513E+02
         AVECELL_B     1.8897261328856513E+02
         AVECELL_C     1.8897261328856513E+02
         AVEALPHA     9.0000000000000000E+01
         AVEBETA     9.0000000000000000E+01
         AVEGAMMA     9.0000000000000000E+01
         AVE_ECONS    -2.0497120403534352E+00
         AVE_PRESS     0.0000000000000000E+00
         AVE_PXX     0.0000000000000000E+00
       &END RESTART_AVERAGES
     &END AVERAGES
     &PRINT
       &ENERGY  SILENT
         &EACH
           MD  10
         &END EACH
       &END ENERGY
     &END PRINT
   &END MD
   &PRINT
     &TRAJECTORY  SILENT
       &EACH
         MD  10
       &END EACH
     &END TRAJECTORY
     &CELL  SILENT
       &EACH
         MD  10
       &END EACH
     &END CELL
     &VELOCITIES  SILENT
       &EACH
         MD  10
       &END EACH
     &END VELOCITIES
     &FORCES  SILENT
       &EACH
         MD  10
       &END EACH
     &END FORCES
     &RESTART  SILENT
       &EACH
         MD  10
       &END EACH
     &END RESTART
   &END PRINT
 &END MOTION
 &FORCE_EVAL
   METHOD  FIST
   &MM
     &FORCEFIELD
       VDW_SCALE14     1.0000000000000000E+00
       EI_SCALE14     1.0000000000000000E+00
       SHIFT_CUTOFF  T
       DO_NONBONDED  T
       IGNORE_MISSING_CRITICAL_PARAMS  T
       &SPLINE
         R0_NB     2.5000000000000000E-01
       &END SPLINE
       &NONBONDED
         &LENNARD-JONES
           ATOMS Br Br
           EPSILON     1.2630795322675199E+02
           SIGMA     3.6900000000000004E+00
         &END LENNARD-JONES
         &LENNARD-JONES
           ATOMS Cs Pb
           EPSILON     8.6920055954630968E+01
           SIGMA     3.6699999999999999E+00
         &END LENNARD-JONES
         &LENNARD-JONES
           ATOMS Cs Cs
           EPSILON     2.2644852172126850E+01
           SIGMA     4.5300000000000002E+00
         &END LENNARD-JONES
         &LENNARD-JONES
           ATOMS Pb Pb
           EPSILON     3.3363415533600227E+02
           SIGMA     6.1000000000000005E+00
         &END LENNARD-JONES
         &LENNARD-JONES
           ATOMS Br Cs
           EPSILON     5.3481070753900497E+01
           SIGMA     3.6300000000000003E+00
         &END LENNARD-JONES
         &LENNARD-JONES
           ATOMS Br Pb
           EPSILON     2.0528187276773045E+02
           SIGMA     2.9800000000000000E+00
         &END LENNARD-JONES
       &END NONBONDED
       &CHARGE
         ATOM Cs
         CHARGE     4.1739999999999999E-01
       &END CHARGE
       &CHARGE
         ATOM Pb
         CHARGE     8.3479999999999999E-01
       &END CHARGE
       &CHARGE
         ATOM Br
         CHARGE    -4.1739999999999999E-01
       &END CHARGE
     &END FORCEFIELD
     &POISSON
       PERIODIC  XYZ
       &EWALD
         EWALD_TYPE  SPME
         GMAX  62 62 62
         O_SPLINE  4
       &END EWALD
     &END POISSON
     &PRINT
       &FF_INFO  LOW
         SPLINE_INFO  F
         SPLINE_DATA  F
       &END FF_INFO
     &END PRINT
   &END MM
   &SUBSYS
     &CELL
       A     1.0000000000000001E+02    0.0000000000000000E+00    0.0000000000000000E+00
       B     0.0000000000000000E+00    1.0000000000000001E+02    0.0000000000000000E+00
       C     0.0000000000000000E+00    0.0000000000000000E+00    1.0000000000000001E+02
       PERIODIC  XYZ
       MULTIPLE_UNIT_CELL  1 1 1
     &END CELL
     &COORD
Cs    1.9776245921884614E-01   -4.7697488566090068E-01   -5.8251448031078148E+00
Cs   -2.9533748419598255E-01   -6.9092417184428658E+00   -6.2548105511738754E+00
Cs   -6.5195886687457305E-01   -1.2233991613955590E+01   -5.4831441246724655E+00
Cs   -5.6659251172202740E+00   -6.5449162386413118E+00   -6.3127582000679334E+00
Br   -9.0632079379811437E+00   -1.2341067880057738E+01   -8.3989309426478762E+00
Br    1.1918390803631221E+01   -3.3459265775173721E+00   -8.2885899479540175E+00
Br   -2.0749781789011372E+00    3.0166490380286244E+00   -1.1424089959301796E+01
Cs    8.9880353582465447E-02    5.7286596871270916E+00   -6.1591275802819068E+00
Cs    2.2460872143964675E-01   -3.6289817763894400E-01    9.2216094648109301E-02
Cs    4.3322247869283864E-01   -6.4834142142599891E+00   -2.1894877874591168E-01
Br   -5.9734948185435162E+00   -2.8946167001047640E+00    3.5609941886332539E+00
Cs   -1.0417234154058306E+01   -6.2349080732826394E+00    1.2147863871388028E+01
Cs    1.1336876397544597E+01   -1.1475984395516580E+01   -2.1750921737022488E-01
Cs   -5.5892104871276658E+00    5.9276996022215647E+00    6.0168321062797747E-01
Cs   -3.9874190669895698E-01    1.1403773460720883E+01    5.2962864140909827E-01
Cs   -1.3554425713861640E-01    6.0504581084191313E+00    5.1838754749623339E-01
Cs    3.3346204555826503E-01    6.6909783350341634E-01    6.1440386705253216E+00
Cs    5.2410813527419853E-01   -5.3687414109733380E+00    6.4736033827044608E+00
Cs    6.3911534420860916E-01   -1.0563327634160894E+01    5.8414988433639685E+00
Cs   -8.2192738081189507E+00    6.2455377151042741E+00    1.2417751890605748E+01
Cs   -5.8480623328660419E+00   -2.4732953338661168E-01   -1.1884374283631541E+01
Cs   -5.3879633651410659E+00   -1.1724037338636416E+01   -6.5823404571360786E+00
Cs   -6.1972602041611085E+00   -3.3883706984519042E-02    5.7230116380376952E+00
Br   -3.6849762951570639E+00   -2.8568948049967586E+00    4.6153356486172747E-01
Cs   -2.0967716325093881E-03    5.7720173924568723E+00    6.5130564380104321E+00
Br    1.2158155297530458E+01   -8.9157132009280691E+00   -8.7902666571841692E+00
Cs    9.6285105050791786E-01   -5.9708780534884696E+00    1.1535199142077241E+01
Br   -2.7192186964765486E+00    1.0613324535722233E-02    2.5630435713799526E+00
Br   -8.6208423278172184E+00   -3.0789472697538098E+00    1.2125829908023244E+01
Cs    1.1187930470774505E+01    1.1427218516188402E+01   -6.1644153088639797E+00
Cs   -1.1375542259617614E+01   -5.7263906107355398E+00    6.0282846302318047E+00
Cs   -5.5152319890861543E+00   -5.5121865044674587E+00    6.0510403856197996E+00
Cs   -6.9114746008500294E+00    1.1329366642960741E+01   -6.4463808511393985E+00
Br   -1.1777125415147600E+01   -8.2303461700868752E+00    9.0538833160526639E+00
Br   -9.2781519402265431E+00   -9.3510497768512284E+00    5.8897092974936154E+00
Cs   -1.1160951816443294E+01   -6.6200524516393280E+00   -6.0143061030912603E+00
Cs   -5.5294430343687360E+00    6.4755658715731146E+00   -5.3956482612502761E+00
Br   -8.7554587761609692E+00   -5.7872021186978690E+00    9.2735862961921427E+00
Cs    1.2156391014821404E+01    6.5018886723912246E+00    1.0494624346415824E+01
Br   -1.2070629068585744E+01    8.5098871844769715E+00    8.5211641030519178E+00
Br   -5.9824890681472658E+00   -3.0517487254304445E+00   -2.7731431106084443E+00
Cs   -9.2930673626357804E-02    7.7804113985478973E-01    1.1822480392401459E+01
Cs    1.1601499520979136E+01    5.7497592260294246E+00   -3.0814453235197620E-01
Cs   -1.1159857474538276E+01   -5.3483330100464057E+00   -1.1429698699356374E+01
Cs    1.1929333385957099E+01    6.9064690718761812E-02    5.9032159698834503E+00
Cs   -1.1666314023630374E+01    1.1365796880574070E+01   -6.1863556603992853E+00
Cs    1.1959265720950464E+01   -1.2146571320556580E+01    5.3302468264751965E+00
Cs    5.9613096316142791E+00   -6.2689194294842219E+00   -1.1568778096732878E+01
Cs    5.5993537128490436E+00   -1.1297709111291431E+01    6.0789633388620361E+00
Cs   -5.8247188682110300E+00   -1.1695776975160999E+01    7.7059507680256345E-01
Cs    6.9866099988804269E+00   -1.2220137376832154E+01   -1.1230047610110125E+01
Cs    1.1467288399520344E+01    6.1369692627545120E+00   -6.2282907560866390E+00
Cs    1.1528547116903137E+01    1.2014208816637835E+01    5.9483294935631417E+00
Cs    9.9921239814628500E+00    5.9784583029580549E+00   -1.2357184676520690E+01
Cs    6.1472954282195169E-01   -6.2457684917530338E+00   -1.1757537897596153E+01
Cs   -1.1342229331763694E+01   -3.6992690696644609E-01   -5.7576145733463315E+00
Cs    6.3963072265767202E+00   -4.9342646604639020E+00    1.2433903090866101E+01
Cs    1.2409185997947409E+01   -5.5142497684989813E+00    6.9376562950596723E+00
Cs   -1.1161055370546533E+01   -1.1842774353144675E+01    1.2057516856321454E+01
Cs    1.4908452886928467E-01   -3.8678529124425531E-01   -1.1646899558927508E+01
Cs    3.4246784669478386E-01    1.1164135499776565E+01    6.2398421908807054E+00
Cs   -2.5177661763488818E-01    5.5789937373954430E+00   -1.1178347097248386E+01
Cs    5.6394970907843769E+00   -3.2100637247460101E-01   -5.3370776865628180E+00
Cs    5.7505261300987982E+00   -5.7376412357160103E+00   -6.2690169790323491E+00
Cs   -5.2082513039220446E+00   -1.1676198352254875E+01    5.8423502677876176E+00
Cs   -1.1907548782526058E+01    6.6104074026123394E-01    5.6928081802762378E+00
Cs    5.7639045070074735E+00   -5.3389695437717111E-01   -1.1882193161622411E+01
Cs    7.2389128306236428E+00    1.2357326679980599E+01   -1.1692618510233919E+01
Cs    2.8638476470936654E-02    6.0256982569309194E+00    1.2109050995745239E+01
Cs   -5.3481656206214288E+00    1.2093266959042133E+01    6.6794677539019460E+00
Cs    4.9135338962590911E+00    1.1213242810263129E+01   -6.5347855031947901E+00
Cs    5.6253605381953440E+00    5.7150974467312672E+00   -5.4139556540740914E+00
Cs    5.4462742197851783E+00    2.5906359861304484E-01    8.2759307725732534E-01
Cs    6.0488933871369497E+00   -7.0332100753600093E+00   -6.9661967532653368E-01
Cs    5.6146151766355974E+00   -1.1531342088904296E+01    7.0618994525658307E-01
Cs    5.3900483424907843E+00    6.4999728677456652E+00   -1.1297438174139662E+01
Cs   -6.1199413429340517E+00    6.7623905061590381E+00    5.8232408639811508E+00
Cs   -6.5568486275440838E+00   -6.1390890500572866E+00   -1.1032742183604876E+01
Cs    6.1070341768607301E+00    5.8262601719916223E+00    4.0540938581082941E-01
Cs    6.0664994832826142E+00   -1.3875778183800649E-01    6.1216459810427581E+00
Cs    7.0457593689158022E+00   -5.3961078357769452E+00    5.4169039877638161E+00
Cs   -5.7438416141545368E+00    1.1753968415239680E+01    1.2765893644607879E-01
Cs    1.1895047961620136E+01    1.8238848244136610E-01   -4.3107424321189236E-01
Cs   -4.9513670977705271E+00    2.6296727413273169E-01   -4.3184201699916097E-01
Cs   -1.0652194023626850E+01    5.9853080328477883E+00    5.8213467818968567E+00
Cs   -5.3244369838544472E+00    8.1544179978986731E-01    1.1431519183795585E+01
Cs    6.5972862366855356E+00    1.1069098222644060E+01    5.6923739715863801E+00
Cs    5.9170536771466002E+00    6.1795906405204857E+00    5.9375760312564436E+00
Cs    6.3962687873791753E+00    5.0422463204344592E-01    1.1698238266089392E+01
Cs    5.7593324723118258E+00    1.1042961729127045E+01   -1.8914212068519390E-01
Cs    1.1456279070750391E+01   -4.1717423135528192E-01   -5.3625237219402893E+00
Cs    1.1398683142527869E+01   -5.7336614354189042E+00   -5.9016953832882191E+00
Cs    6.3643747175255916E+00   -1.0993154477357356E+01    1.1359789285207620E+01
Cs    1.1246484540997525E+01    1.1561281271809959E+01   -3.5418905387424621E-01
Cs   -1.1023747561999389E+01    7.2583596407571971E-01    1.1399200385428578E+01
Cs   -6.0676441043362912E+00    5.8795858996850372E+00   -1.0679989006434496E+01
Cs   -1.2211047194894855E+01    1.1061057412583207E+01    3.5030475305906856E-03
Cs   -4.7498737876586583E+00   -5.3638883925778371E+00    1.1932597179065970E+01
Cs   -5.1119015712096809E+00   -1.0995842372133364E+01    1.1542929386871286E+01
Cs    6.8986456758133308E+00    6.5578882308371966E+00    1.0759526733611757E+01
Cs    1.1681437229952174E+01   -5.9561149830228253E+00    1.6449503854936598E-01
Cs   -1.1470624542302303E+01   -6.3443694266312323E-01   -1.6485370067893865E-01
Cs   -6.5942921226921127E+00    1.1543625147227401E+01   -1.1356545036687336E+01
Cs   -1.1157114144406846E+01    5.6585888034804430E+00   -4.5752067111342604E-01
Cs   -1.1697579853928332E+01   -1.2183975576014289E+01   -6.4366968674527252E+00
Cs   -1.1352874839322091E+01   -6.4671449837652339E+00   -8.4316342341993963E-02
Cs   -5.9481769485190634E+00   -5.1007184341804788E+00    2.6122142221897177E-01
Cs   -1.2991204652140050E+01   -9.7323689360508485E+00    5.3836269266869552E+00
Cs    1.0926572371846193E+01   -6.1910519482980186E+00    1.1870406795071087E+01
Cs    1.1802655986192960E+01    6.0730300985735370E+00    5.1067814965360574E+00
Cs   -1.1533288638077815E+01    4.7186972946080390E+00   -6.5076465062465738E+00
Cs   -6.1659392424922927E+00   -1.2201216535591151E+00   -5.7109503884273760E+00
Cs   -1.2194310322421035E+01   -1.0744306072763779E+01   -6.5647477342424365E-01
Cs    1.2785466944977864E+01   -1.1932109151088273E+01   -1.0133921589989171E+01
Cs   -1.2747310031301533E+01   -9.9853643637694205E+00   -1.2470546624974066E+01
Cs   -2.1596932535254765E-01    1.0951201219222128E+01   -1.0947232609335513E+01
Cs    4.7139266427824800E-01   -1.0967996168629307E+01   -1.2310711746770414E+01
Cs    3.7060394605120073E-01    1.1093500506472976E+01   -5.8278269190472081E+00
Cs   -1.2069575517399761E+01    1.0918354083323951E+01    1.0846330065993262E+01
Cs   -1.2549843346266226E-01   -1.1192317305052205E+01    3.5470435138642376E-01
Cs   -1.1358724238005054E+01   -3.0158019686428383E-01   -1.1640040196893658E+01
Cs   -1.1733161579477308E+01    1.0589206004513830E+01    5.6797247163733466E+00
Cs    6.5320865405405257E+00   -1.1518872927312314E+01   -5.6968066224143579E+00
Cs    1.0647761758469887E+01    2.4900753031897230E-01   -1.1881055025425947E+01
Cs   -5.1246148857301455E-01    1.1116952084546719E+01    1.1596564889618012E+01
Pb    2.8645355637270633E+00   -3.1318389117103353E+00   -2.4571109177248753E+00
Pb    2.9186666418579423E+00   -9.7957958555754026E+00   -3.5125857358843127E+00
Pb   -9.1401678309360026E+00   -3.1092823677176513E+00    3.3780988802756906E+00
Pb   -3.1519242894340485E+00   -9.3867666042158806E+00   -3.3223855632420745E+00
Pb    2.8493985976004508E+00    8.9758261162460737E+00   -2.7063769212256976E+00
Pb    2.9893412061674969E+00    2.8448742371083213E+00   -2.9889323058834028E+00
Pb    3.1115023317590866E+00   -2.7532374949187637E+00    3.4358575179776882E+00
Pb    3.1204590930185132E+00   -8.5790206826826001E+00    2.8871367048008953E+00
Pb   -3.1307749609491706E+00    9.3090524526631082E+00    3.1868885538445970E+00
Pb    2.9921667396419473E+00    9.3388833973947118E+00    3.3069641932217433E+00
Pb    3.3672138422960418E+00    3.1755044924963340E+00    3.1611439708906293E+00
Pb    3.4587359093767502E+00   -2.7861489057055389E+00    9.4760212806227848E+00
Pb    3.3501277966143772E+00   -8.7248913531656100E+00    9.0051634128860716E+00
Pb   -2.9205750438474363E+00    3.0763632403040577E+00    3.1209801204430030E+00
Pb    3.2181884701003187E+00    9.4471032064342566E+00    9.4346211908426181E+00
Pb    3.2835157351998068E+00    3.2886275410320982E+00    9.4039451904265938E+00
Pb   -2.6076563320618753E+00   -3.0028179189035265E+00    9.1509771217791886E+00
Pb   -8.7696535299925067E+00   -9.3003100949496211E+00    3.0525350925515613E+00
Pb   -9.1362487341526410E+00    2.9333072835855445E+00   -3.4524586258602614E+00
Pb   -3.0422337185148494E+00   -3.0966299399860433E+00   -9.2342896644489869E+00
Pb   -2.7950319256297873E+00   -9.0289556307399490E+00    2.8431238421350988E+00
Pb   -2.9726833778350801E+00    9.3266606273592068E+00   -2.9933407648669870E+00
Pb   -2.8791176504426295E+00   -8.9030386773067054E+00    8.8936106701242572E+00
Pb   -9.0077666539224825E+00   -3.2526203759182959E+00   -2.8329824322200294E+00
Pb   -9.4212753926332287E+00   -9.4951856149231908E+00   -3.3453584180620455E+00
Pb   -2.7503936274222012E+00    3.2368173720181126E+00   -2.9179295369624607E+00
Pb   -8.9959172265049610E+00   -8.8021075632423074E+00    8.9718713142978359E+00
Pb   -8.8140626659478709E+00   -3.6254180676386394E+00   -8.6453928706411087E+00
Pb    8.9796814450056175E+00   -3.0109127120213652E+00   -8.9777548348011766E+00
Pb    9.4002414382404922E+00   -8.9497914192291432E+00   -9.1174398000917538E+00
Pb   -3.0476803086844395E+00   -9.4200456192897555E+00   -9.6260433600513835E+00
Pb   -9.4393520346615070E+00    8.3107464679385021E+00   -9.5087879167092986E+00
Pb    3.0142105355016842E+00   -3.2854364074695570E+00   -9.1396985502403982E+00
Pb    3.2452399321648895E+00   -9.4898876709933138E+00   -9.6512326137860338E+00
Pb   -2.7741605767527839E+00    2.7424849851881019E+00   -8.8465587807932380E+00
Pb    2.9672525281972386E+00    8.7747634370419476E+00   -8.7808778478597187E+00
Pb    3.3391457768086434E+00    2.7780922717321013E+00   -8.8733697618320395E+00
Pb    9.0721492093903073E+00   -3.0458020084685247E+00   -2.8671776406727139E+00
Pb    9.1528503078073147E+00   -8.8992397018103233E+00   -3.2436405111455469E+00
Pb   -8.6177132018286251E+00   -2.8343677079637164E+00    9.3032063715008295E+00
Pb    9.0517117719872608E+00    9.3948252456544044E+00   -9.4765717485774044E+00
Pb   -8.8067699289896861E+00    2.3194900710901973E+00   -9.1476233340819171E+00
Pb   -3.0297487775803975E+00    9.2811228697281223E+00    9.0569806666865489E+00
Pb    8.8634920182012937E+00    8.8643415389551468E+00   -3.3601260202949157E+00
Pb    9.0045986191200722E+00    3.0763307976708476E+00   -2.7736502337836364E+00
Pb    9.4831207303999214E+00   -2.7111168413262150E+00    3.0388493960703773E+00
Pb    9.2888880276203789E+00   -9.0195632352695529E+00    3.0066177576725974E+00
Pb    9.2283109794961771E+00    3.0955159790956923E+00   -9.1368960629580727E+00
Pb   -2.7914115377959585E+00    3.3516415135764821E+00    8.7655127867355525E+00
Pb    9.3426780769838942E+00    9.2531724804693791E+00    2.7037542705409217E+00
Pb    9.5007390913611243E+00    3.1196546343824734E+00    3.1594819496571001E+00
Pb    9.2359161740964684E+00   -2.6984016747005612E+00    9.1429481003711892E+00
Pb    9.4176336079097691E+00   -8.8236458600472929E+00    8.8359963443469152E+00
Pb    9.7515935770579105E+00    9.2503101695643828E+00    8.8438640005572413E+00
Pb    9.5283937774473042E+00    3.3429695105194939E+00    8.9188417741007253E+00
Pb   -8.5313518661539369E+00    3.1498560920819640E+00    8.8868988470634651E+00
Pb   -2.7570581692857608E+00   -2.8336157966344908E+00    3.0631195044031898E+00
Pb   -8.8690845376902132E+00    9.0351268080734268E+00    2.6488469803773982E+00
Pb   -9.0699918989143953E+00    9.2102180550380233E+00   -3.2961198098829096E+00
Pb   -9.3925921435569357E+00   -9.8269822095865766E+00   -9.5992437313763705E+00
Pb   -3.1154243540383684E+00    8.7524986252341357E+00   -8.9629712453715111E+00
Pb   -8.9673219892873579E+00    3.0315303843836823E+00    2.7450649419383146E+00
Pb   -9.0496621357875089E+00    9.1276305892451930E+00    8.7407959705310141E+00
Pb   -3.1781144531636629E+00   -3.3281389590860879E+00   -2.9891262260249771E+00
Br   -2.8066695379373202E-01   -3.4114937034726398E+00   -2.1318320180855581E+00
Br    2.6031160168335759E+00   -3.5145312984149699E+00   -5.9051703468301255E+00
Br    2.4524002868441053E+00   -2.1020593976010571E-01   -3.1821581291531187E+00
Br    7.3733198557954507E-03   -9.6625202274275299E+00   -3.5743089827795864E+00
Br    3.2691309070397976E+00   -9.3809555818183590E+00   -6.4875932332670816E+00
Br    2.7090385797890373E+00   -6.0955877704055501E+00   -2.4839148316488746E+00
Br   -3.2178035784210177E+00   -3.2846976426610039E+00   -5.7693885776883356E+00
Br   -8.5388813989980719E+00   -3.1695611248204467E+00    6.2831569928063304E+00
Br   -2.7473604859698462E+00   -5.1473243414840286E-01   -3.1234250840051567E+00
Br    2.9191516139536557E+00   -1.2650356349913551E+01   -3.3967375084100069E+00
Br    1.2333147107731044E+01   -2.5663425604645256E+00    2.8736932348346382E+00
Br   -6.3405659587565726E+00   -9.5367741932724712E+00   -3.7068057628533020E+00
Br   -1.1930996245866989E+01   -3.6305141503156015E+00    3.3647966447995383E+00
Br   -8.7689431855982782E+00   -2.6769047910859096E+00    8.4794004700498887E-02
Br    1.2040883142784748E+01   -9.3094429824705447E+00    2.6932926906805248E+00
Br    5.6736050278498179E-02    9.3451623749392816E+00   -2.9804802950833862E+00
Br    2.7796401891435600E+00    8.6697237947217705E+00   -5.8498070383230214E+00
Br    2.8950736420938519E+00    1.1751213161098702E+01   -2.9543519140819656E+00
Br   -2.8295427360267543E-02    2.6441464801774046E+00   -2.8695452130121297E+00
Br    3.2327193075505236E+00    3.4061002208992992E+00   -5.9063203128754367E+00
Br    3.3361851010768695E+00    5.9898792569822970E+00   -2.8624338299779586E+00
Br    2.4112919724478052E-01   -2.6046674437750390E+00    3.4442110305793094E+00
Br    2.7245343727879172E+00   -2.3123019332632455E+00    5.6183825512507524E-01
Br    3.2909074808988619E+00    2.3016004733821313E-01    3.8540011900229878E+00
Br    2.2279505512699074E-01   -8.5257035496845841E+00    2.3642508996077964E+00
Br    2.8875338031479507E+00   -9.6157510060316955E+00   -3.1731872269224232E-01
Br    3.6545836488652212E+00   -5.8868234974244027E+00    2.4758301955685273E+00
Br   -6.3824567732719215E+00    8.7077504033463153E+00   -8.6524544216599182E+00
Br   -2.8835010142680897E+00    8.4205763026556664E+00   -1.1704252571040131E+01
Br    2.9057338225044602E+00   -1.1354853125705844E+01    3.0531506977066947E+00
Br   -3.6057247632776321E+00    1.1673857958494928E+01   -9.4642287229826554E+00
Br   -2.9069119537582111E+00    5.6982341014764071E+00   -8.7402836819336081E+00
Br   -9.3627701717449998E+00   -2.2937014368657213E-01    3.0618946388360890E+00
Br   -3.2278439994880825E+00   -8.6951418938290583E+00   -6.4141864238780748E+00
Br   -6.1100924137392258E+00    9.3282925842585431E+00    2.5716663883505468E+00
Br   -2.2960085946957127E+00    8.8000106043806809E+00    4.4165752590550700E-01
Br   -3.4311395300675329E+00    1.2140621611976751E+01    2.5130523105949938E+00
Br   -7.8410661587666082E-03    9.3965938702341560E+00    3.5477502089283979E+00
Br    2.8211310284967386E+00    9.5895467455093097E+00    2.1111836112819327E-01
Br    3.0273362492409461E+00    1.2185190473875895E+01    3.7814701796343679E+00
Br    3.1297375350872431E-01    2.8925835752222748E+00    3.4765481732964338E+00
Br    3.3329944526957802E+00    2.8749052730185070E+00    4.7385068063894070E-01
Br    2.7752781225795071E+00    6.0300495144619388E+00    2.7436989060553469E+00
Br    2.3418388382195532E-01   -2.8447077796719951E+00    9.1256407625713933E+00
Br    2.9808291486136214E+00   -3.0387239184924715E+00    6.4513303906806208E+00
Br    3.6621305992145370E+00    3.3935031376661406E-01    9.1136243059010678E+00
Br    1.9453007003367090E-01   -8.5541761768050275E+00    8.8232543470910993E+00
Br    3.0629323241967934E+00   -8.3694180062027641E+00    5.9093236674196152E+00
Br    3.4907731842035750E+00   -5.6660163234149437E+00    9.3097681329057895E+00
Br   -1.1902604518545942E+01    3.8982459771243336E+00    2.7142837856975151E+00
Br   -8.9187539766911303E+00    2.5788751925807580E+00   -1.3374388232494128E-01
Br    2.9511971798532874E+00   -1.1387835987297736E+01    8.4204897674756278E+00
Br   -8.1203603228711483E+00    5.8245360744664803E+00    3.0535028034956104E+00
Br   -8.3040324171263542E+00    3.1236416814746765E-01    9.0036742055443089E+00
Br   -3.7009658500899763E+00   -6.3672943180185895E+00   -3.0116903980683372E+00
Br   -5.9482559058259836E+00    2.6595689231275217E+00    2.4343437587654879E+00
Br   -2.5787480974362045E+00    3.6119786791190225E+00    9.5956654414175890E-02
Br   -3.0266875195501535E+00    6.3553672600357052E+00    3.2571824989372677E+00
Br   -1.7606689040266235E-01    8.6036509747069605E+00    8.6586574193219938E+00
Br    3.2639248146622104E+00    9.5169296106992398E+00    6.3638821158963799E+00
Br    1.7904164519677770E+00    1.1851528351415748E+01    9.2775144011771022E+00
Br    2.0817593198277795E-01    3.6094698776608776E+00    8.9820428548785820E+00
Br    3.2628073767078036E+00    3.1449197500608594E+00    6.3118448179496278E+00
Br    3.1951140214864568E+00    6.4031395216749729E+00    8.7583093268013883E+00
Br   -5.6329771845868244E+00   -2.8212941894414896E+00    9.6756903054353085E+00
Br    3.8395044939801752E+00   -2.5462374662636984E+00    1.2276752975976500E+01
Br   -2.9533268428502897E+00   -3.1581006042122679E+00    6.1152727745674298E+00
Br   -2.6592266697400566E+00    2.5799071665528989E-01    8.9291607444918899E+00
Br   -3.1272577308780813E+00   -1.2159687170704103E+01   -3.4589922529151420E+00
Br    3.3918434049753357E+00   -8.6961263014820602E+00    1.1817398799841900E+01
Br   -1.1797593978941894E+01    2.5715730655667333E+00   -3.2908382215473635E+00
Br   -2.8329624193687426E+00   -1.1954899641824307E+01    2.5536682023112651E+00
Br   -1.1653761364174281E+01   -2.8107819528326456E+00   -2.3740535222214763E+00
Br    2.7304846620315941E+00    8.9710268390656083E+00    1.2191976879562793E+01
Br   -9.0557887137789699E+00   -3.2643895563147742E+00   -5.8054465056432507E+00
Br   -8.9633126379176247E+00   -2.9039196407164997E-01   -3.3794135991694723E+00
Br    2.5618400175053799E+00    2.8137922701971769E+00    1.2082395147142618E+01
Br   -6.0806904453039756E+00    9.1370469231176674E+00   -3.5375718298844725E+00
Br   -2.8713413387738846E+00    9.1782419661683114E+00   -5.9944913975398677E+00
Br   -3.0737670101360282E+00    1.1964378996071769E+01   -1.8898795487984914E+00
Br   -5.7347166570455936E+00    3.5895674469692684E+00   -2.6163077188753636E+00
Br   -1.2837046044554647E+01   -9.0279503972299082E+00    2.2239687746139865E+00
Br   -2.9115330550114673E+00    2.9913031025226338E+00   -5.9570345652745536E+00
Br   -5.8402247134619172E+00   -3.5843789913498836E+00   -9.0490218986199373E+00
Br   -3.4363439713130539E+00   -2.6949950104294702E+00   -1.2030940735125156E+01
Br   -2.7998586456364518E+00   -2.1711844888843226E-01   -9.3479490125189457E+00
Br   -2.7248274878535255E+00    3.0757471967677037E+00    1.1787219728086049E+01
Br   -5.9525574416658813E+00   -9.1948566292833807E+00    8.4823369937214128E+00
Br   -2.7016082043138154E+00   -8.8281083281170734E+00    5.7075253840877611E+00
Br   -2.7894191604516441E+00   -5.9495810940911396E+00    8.4247998948639449E+00
Br   -8.7917530465138558E+00   -9.3363488608739260E+00   -1.7811596988899468E-02
Br   -9.4040205712017571E+00   -6.2812714849876556E+00    2.5860303332759229E+00
Br   -9.3009770524186806E+00    9.3228310390651341E+00    1.1482707859649146E+01
Br    1.2505301810623655E+01    9.1311250120074412E+00    2.1282190474702993E+00
Br   -8.4156012814697299E+00   -9.3890005032893136E+00    1.1906978998006819E+01
Br    1.1567196199669793E+01    8.7394403652070753E+00   -2.5217316015668971E+00
Br    1.2254612800936464E+01    3.1040050574037106E+00    2.7223655706848797E+00
Br   -8.4309293474057743E+00    2.9126902422041163E+00    1.1775499545011249E+01
Br   -1.1795586477644489E+01   -3.3344796840089921E+00   -8.8859891719144635E+00
Br    1.1891351099688247E+01   -2.4542382442373842E+00    8.2003307926811360E+00
Br   -5.8955545828460094E+00   -8.8073409773131921E+00    2.8953745480846966E+00
Br    6.0562420754607071E+00   -3.0468938013115991E+00   -9.3010656301542873E+00
Br    8.2563755686395375E+00   -3.0393395784848996E+00   -1.1924715565971972E+01
Br    1.2285822724735066E+01   -7.9031950866823415E+00    9.3108124011845277E+00
Br    8.4107108955153134E+00   -4.3735263421131772E-02   -9.2812099003328381E+00
Br   -9.8294411325291566E+00   -1.1864684059985636E+01    8.9467206627975742E+00
Br   -3.0234558741954780E+00   -9.3095142234231361E+00   -2.4530531283740925E-01
Br   -2.2952059024764528E+00   -6.0501498974233581E+00    2.5974302701537693E+00
Br    6.2384210161903173E+00   -9.3835333035396129E+00   -9.6853027696438705E+00
Br   -6.1426173972300324E+00   -9.6133386564525338E+00   -9.5834197739047493E+00
Br    9.9139356927167146E+00   -9.4597021451267125E+00   -1.1840423447937386E+01
Br    8.7364166791138143E+00   -6.1197294168849981E+00   -9.2036062122208779E+00
Br   -2.9737671399839125E+00   -1.1726816762628570E+01    8.4766172630037673E+00