 # Version information for this restart file 
 # current date 2021-06-17 12:32:37.744
 # current working dir /user/ub2042/exercises/2_fitting/MM_MD_workdir/md_settings
 # Program compiled at                              Thu Apr 22 21:44:59 EDT 2021
 # Program compiled on                cpn-k07-07-02.compute.cbls.ccr.buffalo.edu
 # Program compiled for                                                    local
 # Source code revision number                                       git:36754bb
 &GLOBAL
   PRINT_LEVEL  LOW
   PROJECT_NAME cp2k
   RUN_TYPE  MD
 &END GLOBAL
 &MOTION
   &MD
     ENSEMBLE  NVT
     STEPS  10000
     TIMESTEP     2.4999999999999996E+00
     STEP_START_VAL  2000
     TIME_START_VAL     4.9999999999997863E+03
     ECONS_START_VAL    -1.3925666412857368E+01
     TEMPERATURE     3.0000000000000000E+02
     &BAROSTAT
       PRESSURE     1.0100000000000000E+00
       TIMECON     9.9999999999999982E+03
     &END BAROSTAT
     &THERMOSTAT
       TYPE  CSVR
       &CSVR
         TIMECON     9.9999999999999982E+03
         &THERMOSTAT_ENERGY
              -8.1168141315409337E-02
         &END THERMOSTAT_ENERGY
         &RNG_INIT
Wiener process for Thermostat # 1        1 F T F  -4.1316006610438311E-01        3467588906.0        2335825785.0        3211720173.0        1531220123.0        1256874348.0        2092146405.0             12345.0             12345.0             12345.0             12345.0             12345.0             12345.0             12345.0             12345.0             12345.0             12345.0             12345.0             12345.0
         &END RNG_INIT
       &END CSVR
     &END THERMOSTAT
     &AVERAGES  T
       &RESTART_AVERAGES
         ITIMES_START  1
         AVECPU     1.7944047200027836E-02
         AVEHUGONIOT     0.0000000000000000E+00
         AVETEMP_BARO     0.0000000000000000E+00
         AVEPOT    -1.4309412740771899E+01
         AVEKIN     4.1912493999989386E-01
         AVETEMP     2.1260888410571744E+02
         AVEKIN_QM     0.0000000000000000E+00
         AVETEMP_QM     0.0000000000000000E+00
         AVEVOL     6.7483345830898648E+06
         AVECELL_A     1.8897261328855916E+02
         AVECELL_B     1.8897261328855916E+02
         AVECELL_C     1.8897261328855916E+02
         AVEALPHA     9.0000000000000000E+01
         AVEBETA     9.0000000000000000E+01
         AVEGAMMA     9.0000000000000000E+01
         AVE_ECONS    -2.5560288573653120E+00
         AVE_PRESS     0.0000000000000000E+00
         AVE_PXX     0.0000000000000000E+00
       &END RESTART_AVERAGES
     &END AVERAGES
     &PRINT
       &ENERGY  SILENT
         &EACH
           MD  10
         &END EACH
       &END ENERGY
     &END PRINT
   &END MD
   &PRINT
     &TRAJECTORY  SILENT
       &EACH
         MD  10
       &END EACH
     &END TRAJECTORY
     &CELL  SILENT
       &EACH
         MD  10
       &END EACH
     &END CELL
     &VELOCITIES  SILENT
       &EACH
         MD  10
       &END EACH
     &END VELOCITIES
     &FORCES  SILENT
       &EACH
         MD  10
       &END EACH
     &END FORCES
     &RESTART  SILENT
       &EACH
         MD  10
       &END EACH
     &END RESTART
   &END PRINT
 &END MOTION
 &FORCE_EVAL
   METHOD  FIST
   &MM
     &FORCEFIELD
       VDW_SCALE14     1.0000000000000000E+00
       EI_SCALE14     1.0000000000000000E+00
       SHIFT_CUTOFF  T
       DO_NONBONDED  T
       IGNORE_MISSING_CRITICAL_PARAMS  T
       &SPLINE
         R0_NB     2.5000000000000000E-01
       &END SPLINE
       &NONBONDED
         &LENNARD-JONES
           ATOMS Br Br
           EPSILON     1.2630795322675199E+02
           SIGMA     3.6900000000000004E+00
         &END LENNARD-JONES
         &LENNARD-JONES
           ATOMS Cs Pb
           EPSILON     8.6920055954630968E+01
           SIGMA     3.6699999999999999E+00
         &END LENNARD-JONES
         &LENNARD-JONES
           ATOMS Cs Cs
           EPSILON     2.2644852172126850E+01
           SIGMA     4.5300000000000002E+00
         &END LENNARD-JONES
         &LENNARD-JONES
           ATOMS Pb Pb
           EPSILON     3.3363415533600227E+02
           SIGMA     6.1000000000000005E+00
         &END LENNARD-JONES
         &LENNARD-JONES
           ATOMS Br Cs
           EPSILON     5.3481070753900497E+01
           SIGMA     3.6300000000000003E+00
         &END LENNARD-JONES
         &LENNARD-JONES
           ATOMS Br Pb
           EPSILON     2.0528187276773045E+02
           SIGMA     2.9800000000000000E+00
         &END LENNARD-JONES
       &END NONBONDED
       &CHARGE
         ATOM Cs
         CHARGE     4.1739999999999999E-01
       &END CHARGE
       &CHARGE
         ATOM Pb
         CHARGE     8.3479999999999999E-01
       &END CHARGE
       &CHARGE
         ATOM Br
         CHARGE    -4.1739999999999999E-01
       &END CHARGE
     &END FORCEFIELD
     &POISSON
       PERIODIC  XYZ
       &EWALD
         EWALD_TYPE  SPME
         GMAX  62 62 62
         O_SPLINE  4
       &END EWALD
     &END POISSON
     &PRINT
       &FF_INFO  LOW
         SPLINE_INFO  F
         SPLINE_DATA  F
       &END FF_INFO
     &END PRINT
   &END MM
   &SUBSYS
     &CELL
       A     1.0000000000000001E+02    0.0000000000000000E+00    0.0000000000000000E+00
       B     0.0000000000000000E+00    1.0000000000000001E+02    0.0000000000000000E+00
       C     0.0000000000000000E+00    0.0000000000000000E+00    1.0000000000000001E+02
       PERIODIC  XYZ
       MULTIPLE_UNIT_CELL  1 1 1
     &END CELL
     &COORD
Cs    2.6430091830662111E-01   -5.5326437169071419E-01   -5.7570090682384034E+00
Cs    4.4085266798047174E-01   -6.0153313219081692E+00   -5.0861867732265544E+00
Cs   -2.5743929442694935E-01   -1.2138184610752042E+01   -5.0459857375988655E+00
Cs   -6.0537852723877945E+00   -5.7963262354305316E+00   -5.6553975317886973E+00
Br   -7.5126374967277343E+00   -1.2273540365256146E+01   -7.5188536515840507E+00
Br    1.1789606578207438E+01   -3.2429537667365782E+00   -8.6104784457928130E+00
Br   -3.2689812859979068E+00    2.1389879780812162E+00   -1.1817236765499944E+01
Cs   -1.2235005693875027E-01    5.5568253979350049E+00   -5.9857729942076530E+00
Cs   -1.4849849976999513E-01    1.5817433775656617E-01    9.2559290563302865E-02
Cs    3.7405282672159657E-01   -5.9281786753524823E+00   -1.5485199051147819E-01
Br   -5.7084586994765738E+00   -2.8548021440799203E+00    2.9779306031750639E+00
Cs   -1.1656981638625615E+01   -5.9106965071276552E+00    1.2432641820228337E+01
Cs    1.2479384818739746E+01   -1.0397037258465794E+01   -3.6837536854911662E-01
Cs   -6.3868543321178244E+00    6.2771514664615209E+00   -4.7624480589331769E-01
Cs   -3.7702017582611180E-01    1.0887116479381346E+01   -2.9102537331812650E-01
Cs   -8.7931914675096257E-02    5.3090859198231932E+00    4.9350391851188474E-01
Cs    1.0030993393563190E+00    7.3079607986496664E-01    6.2258520639878601E+00
Cs   -5.1908280167948018E-01   -6.3900253224628978E+00    5.6763665161979482E+00
Cs    8.9784499169682641E-01   -1.1970042239524206E+01    7.5987861794026248E+00
Cs   -6.1094446821928656E+00    6.7265256219233915E+00    1.1052223541099774E+01
Cs   -6.1787137352847514E+00    1.4696503280936968E-01   -1.1230331040619621E+01
Cs   -5.3009011886411868E+00   -1.1564544371551580E+01   -5.0258524865677634E+00
Cs   -5.8481001355189823E+00    8.5978597505001156E-02    5.3142270449746620E+00
Br   -3.2469941283111341E+00   -3.5285396614613611E+00   -5.7178172155501937E-02
Cs    4.6379550052201457E-01    6.5479703968659537E+00    5.7158735600682027E+00
Br    1.2004515361527529E+01   -9.1262192826169724E+00   -9.2432191207980381E+00
Cs    1.9271850712098310E-01   -5.8573029356165396E+00    1.0954764255081505E+01
Br   -3.1680774458327723E+00   -3.3647601218282480E-01    3.2645500763812256E+00
Br   -8.6681112029216560E+00   -2.9909055394324282E+00    1.2034316369544115E+01
Cs    1.3266931709846824E+01    9.1438009782419929E+00   -6.8927487904650819E+00
Cs   -1.0954132501499371E+01   -6.1380128829588951E+00    5.2348547691272165E+00
Cs   -5.1546716735278721E+00   -6.6809054618497594E+00    6.1023904571459839E+00
Cs   -5.3831452940290969E+00    1.1062445039852969E+01   -7.1735264173701605E+00
Br   -1.1364540625715250E+01   -9.2307571695485571E+00    9.9508031400996995E+00
Br   -8.3057003519572312E+00   -9.5155073440919882E+00    7.2578297225333630E+00
Cs   -1.1027316296455133E+01   -6.6465902902891791E+00   -5.6047991925677607E+00
Cs   -6.7402025314200618E+00    5.6747145954837857E+00   -6.2509442577090217E+00
Br   -8.5277966427919303E+00   -6.1285312782422441E+00    9.6431436779313273E+00
Cs    1.1499134240453504E+01    6.7392920731699117E+00    1.0196701772385657E+01
Br   -1.1881556246425022E+01    9.2148081652003242E+00    8.6938078834758556E+00
Br   -5.9636865037681455E+00   -3.5813563108125734E+00   -3.0534046964715618E+00
Cs    3.7312074167463194E-01   -2.6175846450373119E-01    1.1666634020415311E+01
Cs    1.2218676800290780E+01    7.4846090545496979E+00   -2.9455757841793978E-01
Cs   -1.2585707585280590E+01   -7.7454133250574699E+00   -1.0214205800994497E+01
Cs    1.2215368290083086E+01    1.0784363749108017E+00    7.0468522036988261E+00
Cs   -1.1457664075613359E+01    1.1931653554425409E+01   -6.1784721093100510E+00
Cs    1.1619130231955022E+01   -1.0779246086565502E+01    6.1360685940143043E+00
Cs    7.4053970856947924E+00   -6.0477206110773780E+00   -1.1849726890719831E+01
Cs    6.4989645281207773E+00   -1.1391888555387011E+01    6.6823490885091017E+00
Cs   -5.4043824578521900E+00   -1.2184645569863504E+01    1.0622844082714332E-01
Cs    6.6070135253230404E+00   -1.2880797280436594E+01   -1.1316494992928583E+01
Cs    1.0989139264528816E+01    5.2932680229013060E+00   -6.7817257939942879E+00
Cs    1.1423421703822056E+01    1.1905804373089937E+01    5.1431128120460112E+00
Cs    1.0951956041887657E+01    5.3990749144619095E+00   -1.1974998776312717E+01
Cs   -1.0542313673108047E-01   -5.7613868919913642E+00   -1.1012710884877380E+01
Cs   -1.2002050798634754E+01    2.3420944322371756E-01   -5.1476960742082385E+00
Cs    6.2564311710649561E+00   -5.2714293051504528E+00    1.1101833902336503E+01
Cs    1.1219124894379824E+01   -5.7486794149017895E+00    5.8861668457497851E+00
Cs   -1.1176191815701923E+01   -1.1563934666658238E+01    1.2654723051229356E+01
Cs   -8.0547212374717805E-02   -1.8227266706123227E-01   -1.1275228460155301E+01
Cs   -5.8864687347844524E-01    1.1549859762918688E+01    5.5537360866973673E+00
Cs   -5.4213500982459051E-01    5.3484377576190232E+00   -1.1503288595129566E+01
Cs    5.8265314090996831E+00    7.5628001886369400E-01   -5.9105348602724295E+00
Cs    6.0751374907953011E+00   -5.0790404123250710E+00   -5.5031694391998149E+00
Cs   -3.7311250673057161E+00   -1.2381229981594535E+01    6.5820836189982073E+00
Cs   -1.1258997997590669E+01   -1.7503386202153862E-02    5.7277913090906516E+00
Cs    6.0293887306055804E+00   -8.8844809181379159E-02   -1.1523010140584686E+01
Cs    5.7091438297027128E+00    1.1223716305901075E+01   -1.1397263681455279E+01
Cs   -8.1094947534544104E-02    5.9714576895237172E+00    1.1000123401267798E+01
Cs   -6.0720967409485844E+00    1.1407097584148666E+01    4.9223629310971111E+00
Cs    5.7323155184482548E+00    1.2062545744908540E+01   -5.9883940401275915E+00
Cs    5.5484511858449732E+00    5.8789397017277043E+00   -6.8220925163195147E+00
Cs    6.0402264272191690E+00    3.2822900817112893E-01   -6.5138032823544900E-01
Cs    6.2928300824937153E+00   -5.6532713968887052E+00    6.3197103330727566E-01
Cs    6.8067389921608852E+00   -1.1185868889107811E+01    6.2020171243901201E-01
Cs    5.6955263825540570E+00    5.4820711254511920E+00   -1.2148372683933433E+01
Cs   -5.7448856026066846E+00    5.3879610639414270E+00    5.3517881517141941E+00
Cs   -6.6329844111467535E+00   -6.3549900206747392E+00   -1.1829459280094978E+01
Cs    5.4980048767394338E+00    6.8469980004288846E+00   -8.0270693280187411E-01
Cs    7.2418400969874179E+00    2.9423290764445187E-01    5.6956654527576287E+00
Cs    5.8108469992366576E+00   -5.5503717026803061E+00    5.3211282816097709E+00
Cs   -5.7238689108789780E+00    1.1521915159136716E+01   -5.4534630368788573E-01
Cs    1.1196518045446499E+01    9.2438102876313577E-01    6.2699771135593010E-02
Cs   -5.8965269534608105E+00   -3.6667595898292776E-01    1.0480304571857985E-01
Cs   -1.1675789502877732E+01    5.6345841291749323E+00    7.2764502004929348E+00
Cs   -6.2996083768618574E+00    3.5986650224732519E-01    1.0324580658435567E+01
Cs    6.1870988397492583E+00    1.1520027360530417E+01    6.7852757286296326E+00
Cs    5.6068650502548030E+00    5.8693882267489137E+00    5.6521928913310004E+00
Cs    6.2527760315570733E+00    1.4646374401727333E-01    1.1137109703374319E+01
Cs    6.1335526792281723E+00    1.1720362663784194E+01   -3.1548921454015616E-01
Cs    1.1281101176114531E+01    2.6477003355334938E-01   -5.5385377275004890E+00
Cs    1.2868378423404074E+01   -6.3357554045975988E+00   -7.5328556211441287E+00
Cs    6.3160372489309360E+00   -9.4807202201400536E+00    1.2562699810856538E+01
Cs    1.1591303711568598E+01    1.2833414607743933E+01   -4.8131215307591640E-01
Cs   -1.1823038021005631E+01    1.0124525043665117E-01    1.1087502324544388E+01
Cs   -6.8260363233670391E+00    5.2982031781295813E+00   -1.1216396055444712E+01
Cs   -1.1007197729729858E+01    1.1254060012705837E+01   -2.0134864851888304E-01
Cs   -5.6533225972786827E+00   -5.3766394891575464E+00    1.1443278107726742E+01
Cs   -3.9290078349835249E+00   -1.1835720294692736E+01    1.2724792560966115E+01
Cs    5.4139003994548229E+00    6.6407265397734729E+00    1.1720485897603298E+01
Cs    1.0757667068753568E+01   -5.3344928756411729E+00   -1.7047582507800524E-01
Cs   -1.1514183601636326E+01    1.6838335969813874E-02   -5.3928599339241934E-01
Cs   -6.4500954070139844E+00    1.0760537894759629E+01   -1.1932222405674992E+01
Cs   -1.1617747692707090E+01    4.9738162332414806E+00   -1.0400997976328266E-01
Cs   -1.0044347354513539E+01   -1.2239268242012692E+01   -5.4561413708097826E+00
Cs   -1.1514110698279389E+01   -5.5345770068197258E+00    6.2316644199078874E-01
Cs   -6.1869177037821244E+00   -6.2132965352555605E+00    2.0221512978166795E-01
Cs   -9.9908425649284727E+00   -1.3142270415258871E+01    7.5307792523862824E+00
Cs    1.2013304420911457E+01   -5.0814070708558887E+00    1.0919586524784748E+01
Cs    1.1639104554734173E+01    6.4949584234878781E+00    4.9741762694197362E+00
Cs   -1.1690192117382637E+01    6.2938805298927178E+00   -6.0078009331543605E+00
Cs   -5.8457552886411737E+00   -5.6227730019498956E-01   -6.0282097293620316E+00
Cs   -1.1383477438762750E+01   -1.1329947391235144E+01    3.3538753804647065E-01
Cs    1.1850056467811934E+01   -1.0718430135233842E+01   -1.2048063516134572E+01
Cs   -5.0132518228279315E+00   -1.1780239894976111E+01   -1.1157288263314841E+01
Cs   -4.3126191125088170E-02    1.1969160143518138E+01   -1.1153757450948870E+01
Cs    1.6171025221253896E-01   -1.1385842314820318E+01   -1.0502411134393505E+01
Cs   -3.8140131557793744E-01    1.1265143542264864E+01   -6.3426862553695562E+00
Cs   -1.0619198212498635E+01    1.1537185083000374E+01    1.2065363076869774E+01
Cs    2.4207675217189095E-01   -1.1228034322777074E+01    8.9360761346093354E-01
Cs   -1.1019680697182391E+01   -1.0663725254450884E+00   -1.1433312436531249E+01
Cs   -1.1249888265544566E+01    1.2296908306709007E+01    6.8358587060155136E+00
Cs    5.9216961840829958E+00   -1.1403701086167036E+01   -5.2461912684899916E+00
Cs    1.1559598016436485E+01   -7.9575966710188273E-01   -1.0939787275970366E+01
Cs    1.9669830276303851E-01    1.0705066672964312E+01    1.1940405597967032E+01
Pb    2.7428060199421336E+00   -2.8495334225209228E+00   -2.8687229074421707E+00
Pb    3.3840909631819445E+00   -8.9145691125224449E+00   -2.7787702413342594E+00
Pb   -8.5581943689633171E+00   -3.1239191619836117E+00    3.3290185274288739E+00
Pb   -2.7498743421402772E+00   -9.0385319672991358E+00   -2.5643070495737947E+00
Pb    3.1365702849060417E+00    9.3346616978412591E+00   -3.4150487088972543E+00
Pb    2.6474032145519470E+00    3.5105227349063077E+00   -3.1747334715703444E+00
Pb    3.4294651807470240E+00   -2.8101266439570409E+00    2.9258603583412413E+00
Pb    3.1042341232909494E+00   -8.7557063603329297E+00    2.9821702523213336E+00
Pb   -3.4097210232273585E+00    8.7106614352632654E+00    3.0051578310899072E+00
Pb    2.9382127352397425E+00    9.3112481217540122E+00    2.3572737992836403E+00
Pb    3.0034383694467528E+00    3.1505677685612521E+00    2.5891464888518660E+00
Pb    3.2325420908823341E+00   -2.7312117453155942E+00    8.6796964572867594E+00
Pb    3.2923226786712125E+00   -8.8475432420475837E+00    8.8662344482033841E+00
Pb   -2.9626456951496047E+00    2.7501946434258633E+00    2.9927739173763035E+00
Pb    3.0802889509761679E+00    9.0811165045699820E+00    8.3482663543563564E+00
Pb    2.9503101318770821E+00    3.0651281546721902E+00    8.6930489668579316E+00
Pb   -3.0029841389056182E+00   -3.2337208856459672E+00    8.6435744940747394E+00
Pb   -8.5648313741765438E+00   -9.4611332623568831E+00    3.5413633057279403E+00
Pb   -9.0531292887741870E+00    2.7226989261611600E+00   -2.9929018444226259E+00
Pb   -2.9307936951524409E+00   -3.0351553018011237E+00   -8.8563552572804181E+00
Pb   -2.7709785950010177E+00   -9.4583973141849587E+00    3.2578979995420916E+00
Pb   -3.1442157802913377E+00    8.8381827547252492E+00   -3.1530579683802995E+00
Pb   -2.5462489986239798E+00   -9.1914518580991764E+00    9.7084331054913253E+00
Pb   -8.9537419929882063E+00   -3.5571424495707893E+00   -2.5439339444309446E+00
Pb   -8.8144960918647755E+00   -9.3912192930886675E+00   -2.6019488113115661E+00
Pb   -3.3965345141135126E+00    3.0278563180042890E+00   -2.9217355789804844E+00
Pb   -8.3887570165853642E+00   -9.0034194875167994E+00    1.0262299109129451E+01
Pb   -9.1167715277709753E+00   -3.3860619095949693E+00   -8.7361123150910345E+00
Pb    9.1515896103632368E+00   -3.2904764641545463E+00   -8.6501320273802271E+00
Pb    9.3683092594542305E+00   -9.6475797747420557E+00   -8.9572816836412379E+00
Pb   -2.7908887879001689E+00   -8.9756119663637079E+00   -8.5358728991452963E+00
Pb   -9.3214454751894849E+00    8.7255929079734056E+00   -9.3773067736431965E+00
Pb    3.2559255203049733E+00   -2.8859164036443095E+00   -9.0483658346120528E+00
Pb    3.2943959127477158E+00   -8.9303667689342756E+00   -8.3953584136573429E+00
Pb   -3.2558073632603057E+00    2.8347214727648304E+00   -9.1094004865604283E+00
Pb    2.5971457242306317E+00    8.9191895493317048E+00   -9.3594314707407271E+00
Pb    2.7991092917343252E+00    3.0009033643799050E+00   -9.1698337400782535E+00
Pb    9.0678423671512753E+00   -2.6833633264997641E+00   -2.8935373793234032E+00
Pb    9.4545000348514385E+00   -9.1018485455152582E+00   -3.2632904163759373E+00
Pb   -9.2000690349988616E+00   -3.2365087953678895E+00    9.1815672199280893E+00
Pb    8.7030565792760921E+00    8.5606108424810898E+00   -9.3345220765194679E+00
Pb   -9.6960560731146153E+00    2.5099274414166488E+00   -8.9274706999759310E+00
Pb   -3.0110282527274359E+00    8.9558353802843076E+00    8.7398221150947251E+00
Pb    9.5463533727395085E+00    9.3244068809918623E+00   -3.3203409825231165E+00
Pb    8.7419266351347247E+00    3.2921445917914589E+00   -3.2088928648185990E+00
Pb    9.5223367595497823E+00   -2.3281954682075128E+00    2.9815737575753301E+00
Pb    9.3515228683638068E+00   -8.5544956858901617E+00    2.9834079890714280E+00
Pb    8.4605571814052656E+00    2.8359064909542413E+00   -9.4758537267941243E+00
Pb   -3.1802872131007263E+00    3.0093754878832648E+00    8.9604082879511360E+00
Pb    8.8379600847994375E+00    9.5697935290927436E+00    2.5328304573154958E+00
Pb    8.9790644480804058E+00    3.6009663221998953E+00    2.5867445070305792E+00
Pb    9.3550194905324116E+00   -2.6479916005703177E+00    8.9298491283568158E+00
Pb    9.2409245192120082E+00   -8.5132135256541286E+00    9.0555239081044530E+00
Pb    9.2409386357326557E+00    9.6990958738975159E+00    8.4658088914622152E+00
Pb    9.1773069084892249E+00    3.5763107239782088E+00    8.6357338328572109E+00
Pb   -9.4083928343455057E+00    3.0095906114731634E+00    9.0031212933945532E+00
Pb   -2.7895267512837725E+00   -3.4711686592462998E+00    3.0156460724210503E+00
Pb   -9.3161805275256224E+00    9.2421528098285322E+00    2.8428320333513928E+00
Pb   -9.1957893400627650E+00    8.7795226453296191E+00   -3.2456623311892052E+00
Pb   -8.6908954898146575E+00   -9.6537411490366960E+00   -8.5345077122445829E+00
Pb   -3.2503751209342497E+00    8.7298276583079328E+00   -9.5905579003651944E+00
Pb   -9.1850667353063962E+00    3.1829123586095798E+00    2.8457098213377945E+00
Pb   -9.0737492446564172E+00    8.9833742275078734E+00    9.1696620389209897E+00
Pb   -3.1135168725641349E+00   -2.9331652200177878E+00   -2.8380590339424030E+00
Br   -1.7700778800641820E-01   -2.5990919529813197E+00   -2.7360311720541577E+00
Br    3.0219963968133099E+00   -2.9285267386473350E+00   -5.7417052486839015E+00
Br    2.9814494152230675E+00    8.1385483822921018E-02   -3.1200778202715767E+00
Br    1.1912364097709512E-01   -9.1174121714432381E+00   -2.2923987280743336E+00
Br    3.6984527571040355E+00   -8.1767763413206751E+00   -5.7357361212861013E+00
Br    3.1671698012748348E+00   -5.8310593481878614E+00   -3.1570078053650499E+00
Br   -3.1728962826118794E+00   -2.7119294881500307E+00   -5.6662611846437558E+00
Br   -9.3741652759659679E+00   -3.2480200559737105E+00    6.0723736887541957E+00
Br   -4.0314555372671466E+00    2.0103567788542570E-01   -2.9208586938603487E+00
Br    3.0314320076725143E+00   -1.1771453120811378E+01   -3.0343125850078274E+00
Br    1.2142700231281555E+01   -3.3441601808981796E+00    2.4853418578779545E+00
Br   -5.6903015627370221E+00   -8.8615441591714905E+00   -2.7764618786335342E+00
Br   -1.1420290472731766E+01   -3.2602943750816711E+00    2.9391492716456815E+00
Br   -8.6349250322661497E+00   -3.8151083138650486E+00    3.6594178434523050E-01
Br    1.2258660562374684E+01   -8.8708614283378893E+00    3.8210988281142950E+00
Br   -4.3228140135741344E-01    9.2947148576641876E+00   -3.6470075384390319E+00
Br    2.1666907589167210E+00    8.7174519715608980E+00   -6.4951494892324160E+00
Br    3.5871047224885109E+00    1.2024752806781510E+01   -3.6961885073872938E+00
Br   -3.1917235143514711E-01    3.2843006248414390E+00   -3.2125613257451606E+00
Br    2.9412992326293850E+00    3.2735881158458864E+00   -6.1628605020764127E+00
Br    3.0367334452701811E+00    6.3942127353591358E+00   -3.8937665387228710E+00
Br    3.2597401938651310E-01   -3.2676147481405335E+00    3.0851657527002496E+00
Br    2.9169556338923583E+00   -2.7841803768499402E+00    2.4848288000376171E-02
Br    3.0287776820007140E+00    2.1645064717138518E-01    3.0462640029907591E+00
Br    3.5975498844217035E-01   -8.6233287518716430E+00    2.9872487483587880E+00
Br    2.9562608183783250E+00   -8.4347517265698606E+00   -8.9999941585660853E-02
Br    3.2165282052169064E+00   -5.8097463962668936E+00    2.9068150371042458E+00
Br   -6.2764829644910849E+00    8.5739820674367060E+00   -9.4662720572047636E+00
Br   -3.5383684898539887E+00    9.4737201379452340E+00   -1.2401738762046833E+01
Br    3.4044026914578867E+00   -1.1513189558678324E+01    2.3548842532425005E+00
Br   -2.6229567952794293E+00    1.1412996462862900E+01   -8.9779932492374659E+00
Br   -3.6278461059106397E+00    5.6809200326974896E+00   -9.9428281500558615E+00
Br   -8.9537012418904087E+00   -1.0506391485005379E-01    3.4053943832295266E+00
Br   -2.7555218457840276E+00   -8.6073477041054662E+00   -5.4967049617441894E+00
Br   -6.6148598699366490E+00    8.6021771039489909E+00    2.5648728452311369E+00
Br   -3.2595139934774933E+00    8.5340717594414297E+00    4.8119546136107326E-02
Br   -3.0475452834546424E+00    1.1468332935354326E+01    2.2670427617637352E+00
Br   -3.8815290875288072E-01    8.7823026261563317E+00    3.1346724976961542E+00
Br    2.3766578152664724E+00    8.5472694697527558E+00   -6.3573287563362124E-01
Br    2.6735467923053289E+00    1.1899997636092277E+01    1.4469918308132681E+00
Br    1.8123770154498681E-01    2.8523597564550416E+00    2.7211205080215435E+00
Br    2.0832679139090073E+00    2.8686721029184801E+00   -2.7940701559235664E-01
Br    2.5629284818405078E+00    6.2226113684359756E+00    2.0562575125679676E+00
Br    3.3509855889132423E-01   -2.8170827888123373E+00    8.7663053694471422E+00
Br    3.2025441874796861E+00   -2.4989822829675603E+00    5.7442013287517577E+00
Br    3.2560740103829828E+00    2.2253923803180511E-01    8.6037627649380646E+00
Br    5.6047105332406022E-01   -8.8081781584943197E+00    8.9412582040477115E+00
Br    3.1540260187702343E+00   -9.4299463567859387E+00    5.9484948543063370E+00
Br    3.1441490950830366E+00   -5.6906541533384170E+00    7.7408319104279952E+00
Br   -1.1948149707824070E+01    2.6313257345903631E+00    2.1706957064496519E+00
Br   -8.8481065948363113E+00    2.9086949994028051E+00   -9.7663760391461504E-02
Br    3.6436130976417296E+00   -1.1550125261624588E+01    9.1380356822352571E+00
Br   -1.0083416386523938E+01    6.2698394776695299E+00    3.2083931457607680E+00
Br   -9.4068421936486288E+00   -4.0085693767743075E-01    8.6672205935991382E+00
Br   -2.8078417907612150E+00   -5.8451024088192582E+00   -2.7598424871352973E+00
Br   -6.3803051628030722E+00    2.6463825706565793E+00    3.3946330632343504E+00
Br   -3.5586215131537098E+00    2.9634145471096067E+00    5.7882534731240470E-02
Br   -3.3210840263949435E+00    5.5355841958666803E+00    2.8724448049179547E+00
Br    3.6221325297703505E-01    9.1772246687916113E+00    7.9796628834058811E+00
Br    3.0967714511211941E+00    8.9238370575853949E+00    5.3237379018791104E+00
Br    2.9947106076156191E+00    1.2001598698065729E+01    8.2852036369062443E+00
Br   -7.7603290503434438E-02    2.9723266511940061E+00    8.4203257493289279E+00
Br    3.2527768451559305E+00    3.0381255822506059E+00    5.5477407713653113E+00
Br    3.2169942168411243E+00    5.9469522253276157E+00    7.9971871184093661E+00
Br   -6.0815796698155200E+00   -2.8877441012727108E+00    8.7581225856210274E+00
Br    2.7027730707745845E+00   -2.8677283781946650E+00    1.1702570887054177E+01
Br   -2.7476694077246289E+00   -3.3987900172872281E+00    5.8278076031294841E+00
Br   -3.2664346188958646E+00   -1.5176121221384803E-01    8.8044921139829455E+00
Br   -3.2381983049454015E+00   -1.1963305648468298E+01   -2.7012358786996904E+00
Br    3.4846296807595656E+00   -7.3180717777514888E+00    1.1634652855993686E+01
Br   -1.2061227541516979E+01    2.6774176254677680E+00   -2.8277951684967255E+00
Br   -2.5583485314847869E+00   -1.2386779365576707E+01    2.5958838810478913E+00
Br   -1.1832129868344271E+01   -3.0832186178622489E+00   -1.8127275435371968E+00
Br    2.8314885592420600E+00    8.7913960426173858E+00    1.1189470339493445E+01
Br   -9.1973676348172066E+00   -3.8815917919032970E+00   -5.4067472527571194E+00
Br   -8.3845054812211952E+00   -3.0517001786335757E-01   -2.8575041202987923E+00
Br    2.8624060882113223E+00    3.8341640690614209E+00    1.1294823923679401E+01
Br   -6.1179661072878559E+00    8.8208973844092871E+00   -3.1448830503655758E+00
Br   -3.1116249010869557E+00    8.3693915381630930E+00   -6.5368149901078016E+00
Br   -3.2258409074004404E+00    1.1824526854064269E+01   -3.4175420661037954E+00
Br   -6.3929179942262691E+00    3.8328965079541191E+00   -2.9710598963457198E+00
Br   -1.1003856657749132E+01   -8.5019267945941497E+00    2.3235646027137702E+00
Br   -3.6012523902368807E+00    3.4170716801517522E+00   -6.2219460276600413E+00
Br   -5.9904753232857111E+00   -2.9132493311540002E+00   -9.0917934980207988E+00
Br   -2.7121419519666130E+00   -3.5307025792462436E+00   -1.1639225277709032E+01
Br   -3.2445680659885228E+00   -9.6502541575393938E-02   -8.7501432092724549E+00
Br   -2.4702374513958327E+00    3.5788613420532345E+00    1.1634863978214813E+01
Br   -5.3057089510727744E+00   -9.2758780789906972E+00    1.0394021770731760E+01
Br   -2.4615740990921888E+00   -9.4321224372848143E+00    6.2991694531343789E+00
Br   -2.8757991838941797E+00   -6.0604000756352594E+00    8.6573977546287466E+00
Br   -8.0876740789375834E+00   -9.9826360339275215E+00    5.3486955172172068E-01
Br   -7.9206195161297543E+00   -6.3979084389900480E+00    3.7943492111101724E+00
Br   -8.8164367615617820E+00    8.8102204917705045E+00    1.1942365383387960E+01
Br    1.1923312853585530E+01    9.4479505496537719E+00    3.1319521323717479E+00
Br   -8.7173810802103748E+00   -8.3590712946591559E+00    1.2881224040540637E+01
Br    1.2376560752927036E+01    9.5290807747321917E+00   -3.3344921155726963E+00
Br    1.1716970266341830E+01    3.8398417193119618E+00    1.9102730067264506E+00
Br   -9.1349509405515885E+00    1.9858780556406352E+00    1.1552838780354350E+01
Br   -1.1644058899452686E+01   -4.4038570764081975E+00   -8.6055895751818454E+00
Br    1.2009343913862656E+01   -2.0735428305600889E+00    8.2424308514806111E+00
Br   -5.6963147557887082E+00   -9.7404674614364239E+00    3.8217691803050946E+00
Br    6.3166614712685298E+00   -3.1035910650483918E+00   -9.3071679802894138E+00
Br    9.4159691674339481E+00   -3.5207435882748976E+00   -1.1689704012717169E+01
Br    1.2106328073576391E+01   -7.7471960074188031E+00    8.5060014898857439E+00
Br    8.8578585095297679E+00   -1.0538207859731306E-01   -8.9420470948819553E+00
Br   -8.5202868290164702E+00   -1.1835303763781074E+01    1.0080584058857671E+01
Br   -2.8139532399188205E+00   -8.9835305440997395E+00    3.5046867280100019E-01
Br   -3.0358727393175364E+00   -6.6018808026219959E+00    3.3691322999546647E+00
Br    6.1430221710518849E+00   -1.0548255938486696E+01   -8.3036214864523838E+00
Br   -5.8692790550765226E+00   -8.7576575097161182E+00   -8.9906896769940214E+00
Br    8.9854523747251704E+00   -9.2826389490882555E+00   -1.1843379126890444E+01
Br    8.6924264175471428E+00   -6.3853824472961485E+00   -8.5391336878846200E+00
Br   -2.3228851567296167E+00   -1.2024931900931001E+01    9.6599369829158306E+00