 # Version information for this restart file 
 # current date 2021-06-17 12:34:34.041
 # current working dir /user/ub2042/exercises/2_fitting/MM_MD_workdir/md_settings
 # Program compiled at                              Thu Apr 22 21:44:59 EDT 2021
 # Program compiled on                cpn-k07-07-02.compute.cbls.ccr.buffalo.edu
 # Program compiled for                                                    local
 # Source code revision number                                       git:36754bb
 &GLOBAL
   PRINT_LEVEL  LOW
   PROJECT_NAME cp2k
   RUN_TYPE  MD
 &END GLOBAL
 &MOTION
   &MD
     ENSEMBLE  NVT
     STEPS  10000
     TIMESTEP     2.4999999999999996E+00
     STEP_START_VAL  8500
     TIME_START_VAL     2.1249999999997028E+04
     ECONS_START_VAL    -1.3925666412857368E+01
     TEMPERATURE     3.0000000000000000E+02
     &BAROSTAT
       PRESSURE     1.0100000000000000E+00
       TIMECON     9.9999999999999982E+03
     &END BAROSTAT
     &THERMOSTAT
       TYPE  CSVR
       &CSVR
         TIMECON     9.9999999999999982E+03
         &THERMOSTAT_ENERGY
              -2.7727632397695612E-01
         &END THERMOSTAT_ENERGY
         &RNG_INIT
Wiener process for Thermostat # 1        1 F T F  -2.8362147348688715E-01        1345684160.0        2613614255.0         356479449.0        1864827433.0        1119393688.0        1928389553.0             12345.0             12345.0             12345.0             12345.0             12345.0             12345.0             12345.0             12345.0             12345.0             12345.0             12345.0             12345.0
         &END RNG_INIT
       &END CSVR
     &END THERMOSTAT
     &AVERAGES  T
       &RESTART_AVERAGES
         ITIMES_START  1
         AVECPU     1.7901020681540290E-02
         AVEHUGONIOT     0.0000000000000000E+00
         AVETEMP_BARO     0.0000000000000000E+00
         AVEPOT    -1.4253194017664001E+01
         AVEKIN     4.7631988442292028E-01
         AVETEMP     2.4162207838203756E+02
         AVEKIN_QM     0.0000000000000000E+00
         AVETEMP_QM     0.0000000000000000E+00
         AVEVOL     6.7483345830911631E+06
         AVECELL_A     1.8897261328855686E+02
         AVECELL_B     1.8897261328855686E+02
         AVECELL_C     1.8897261328855686E+02
         AVEALPHA     9.0000000000000000E+01
         AVEBETA     9.0000000000000000E+01
         AVEGAMMA     9.0000000000000000E+01
         AVE_ECONS    -3.7981723198516013E+00
         AVE_PRESS     0.0000000000000000E+00
         AVE_PXX     0.0000000000000000E+00
       &END RESTART_AVERAGES
     &END AVERAGES
     &PRINT
       &ENERGY  SILENT
         &EACH
           MD  10
         &END EACH
       &END ENERGY
     &END PRINT
   &END MD
   &PRINT
     &TRAJECTORY  SILENT
       &EACH
         MD  10
       &END EACH
     &END TRAJECTORY
     &CELL  SILENT
       &EACH
         MD  10
       &END EACH
     &END CELL
     &VELOCITIES  SILENT
       &EACH
         MD  10
       &END EACH
     &END VELOCITIES
     &FORCES  SILENT
       &EACH
         MD  10
       &END EACH
     &END FORCES
     &RESTART  SILENT
       &EACH
         MD  10
       &END EACH
     &END RESTART
   &END PRINT
 &END MOTION
 &FORCE_EVAL
   METHOD  FIST
   &MM
     &FORCEFIELD
       VDW_SCALE14     1.0000000000000000E+00
       EI_SCALE14     1.0000000000000000E+00
       SHIFT_CUTOFF  T
       DO_NONBONDED  T
       IGNORE_MISSING_CRITICAL_PARAMS  T
       &SPLINE
         R0_NB     2.5000000000000000E-01
       &END SPLINE
       &NONBONDED
         &LENNARD-JONES
           ATOMS Br Br
           EPSILON     1.2630795322675199E+02
           SIGMA     3.6900000000000004E+00
         &END LENNARD-JONES
         &LENNARD-JONES
           ATOMS Cs Pb
           EPSILON     8.6920055954630968E+01
           SIGMA     3.6699999999999999E+00
         &END LENNARD-JONES
         &LENNARD-JONES
           ATOMS Cs Cs
           EPSILON     2.2644852172126850E+01
           SIGMA     4.5300000000000002E+00
         &END LENNARD-JONES
         &LENNARD-JONES
           ATOMS Pb Pb
           EPSILON     3.3363415533600227E+02
           SIGMA     6.1000000000000005E+00
         &END LENNARD-JONES
         &LENNARD-JONES
           ATOMS Br Cs
           EPSILON     5.3481070753900497E+01
           SIGMA     3.6300000000000003E+00
         &END LENNARD-JONES
         &LENNARD-JONES
           ATOMS Br Pb
           EPSILON     2.0528187276773045E+02
           SIGMA     2.9800000000000000E+00
         &END LENNARD-JONES
       &END NONBONDED
       &CHARGE
         ATOM Cs
         CHARGE     4.1739999999999999E-01
       &END CHARGE
       &CHARGE
         ATOM Pb
         CHARGE     8.3479999999999999E-01
       &END CHARGE
       &CHARGE
         ATOM Br
         CHARGE    -4.1739999999999999E-01
       &END CHARGE
     &END FORCEFIELD
     &POISSON
       PERIODIC  XYZ
       &EWALD
         EWALD_TYPE  SPME
         GMAX  62 62 62
         O_SPLINE  4
       &END EWALD
     &END POISSON
     &PRINT
       &FF_INFO  LOW
         SPLINE_INFO  F
         SPLINE_DATA  F
       &END FF_INFO
     &END PRINT
   &END MM
   &SUBSYS
     &CELL
       A     1.0000000000000001E+02    0.0000000000000000E+00    0.0000000000000000E+00
       B     0.0000000000000000E+00    1.0000000000000001E+02    0.0000000000000000E+00
       C     0.0000000000000000E+00    0.0000000000000000E+00    1.0000000000000001E+02
       PERIODIC  XYZ
       MULTIPLE_UNIT_CELL  1 1 1
     &END CELL
     &COORD
Cs   -1.7244790598987224E-02   -1.2554352817016692E+00   -6.9768752844018600E+00
Cs   -2.5688336566331699E-01   -8.3695656181813245E+00   -4.5266332592303202E+00
Cs    1.6272337154216316E+00   -1.2279396294487031E+01   -4.3818769268249058E+00
Cs   -5.2234110949421577E+00   -7.2231985421426517E+00   -4.6130117176941043E+00
Br   -7.8501103478986467E+00   -1.4443854640408471E+01   -6.3423385696228323E+00
Br    1.1937237543699768E+01   -2.9409579503745071E+00   -9.7161544839500902E+00
Br   -4.0201437060610363E+00    1.0169520196120090E+00   -1.1838512203073780E+01
Cs   -4.1292549422698233E-01    5.5804325801257617E+00   -6.8481688217032586E+00
Cs   -1.4045986590855710E-02   -4.3201960187357469E-01   -4.6393546730817448E-01
Cs    1.1514049538592954E+00   -6.0318916228577484E+00    7.3440022734256671E-01
Br   -5.3349218132344332E+00   -4.1155203743036424E+00    3.8816078217245069E+00
Cs   -9.7737150855436248E+00   -5.5160782073825452E+00    1.3598526782950497E+01
Cs    1.2934581891310181E+01   -9.9402131781178564E+00    1.9005928676179135E-01
Cs   -6.8136009396990467E+00    4.5488017586331839E+00   -3.0182684565905275E-02
Cs   -1.9679298089118995E+00    1.1463128685353171E+01   -1.7082212396652734E+00
Cs   -8.8368129206437118E-01    6.0537553844488468E+00   -1.1272391701278057E+00
Cs    9.5951073495234351E-02    1.2658171551240347E+00    5.9204119647596229E+00
Cs    1.4717252385861592E+00   -5.1458609272003910E+00    6.6993088943729298E+00
Cs    2.8493586681658467E+00   -1.0892833702404641E+01    6.7868238077749403E+00
Cs   -7.6772107523387279E+00    6.2631414684295823E+00    1.1632800369598034E+01
Cs   -6.3716680415217377E+00   -1.8522881309020995E+00   -1.1845825178940519E+01
Cs   -4.2002338982368519E+00   -1.3145639675857650E+01   -3.6166706968328168E+00
Cs   -5.3087588380582194E+00    2.4316099935135521E-01    6.3449709363866038E+00
Br   -2.7908312442619598E+00   -3.9049941415729066E+00    2.6871826818590361E-01
Cs   -1.0222220453045798E+00    6.5868612670814475E+00    4.8257621116859388E+00
Br    1.1858223218792338E+01   -8.7725916260171619E+00   -8.5029753491103026E+00
Cs    2.4136940470698751E+00   -4.5116817734012091E+00    1.2002624614148118E+01
Br   -2.8964599142408343E+00   -2.8088586571048019E-01    3.4911170779005842E+00
Br   -7.2661744990690185E+00   -3.1307081800514500E+00    1.3197166362877914E+01
Cs    9.3424316708397939E+00    1.2661721050780415E+01   -8.6227775850717983E+00
Cs   -9.0055656039602141E+00   -6.0372934481424707E+00    7.9672251280532569E+00
Cs   -4.7222239928374163E+00   -6.4831753934108205E+00    8.5355687452141513E+00
Cs   -7.2942411679673125E+00    9.6753233302190775E+00   -7.0782033013465844E+00
Br   -9.8645498166171990E+00   -1.0182543860727318E+01    1.2173686571922648E+01
Br   -7.3142364212466680E+00   -9.6665532107262031E+00    8.8546355608449065E+00
Cs   -1.1001806077008176E+01   -8.1296844671525896E+00   -4.5426941184905418E+00
Cs   -6.2830744429812100E+00    3.9327453128210870E+00   -5.6325971272355533E+00
Br   -7.7969735218689822E+00   -6.0396875138247923E+00    1.0991409653960522E+01
Cs    1.0760579742584799E+01    1.0148564168114525E+01    9.1884065647263640E+00
Br   -1.2931029999598518E+01    9.5597317222440772E+00    8.5255152392603595E+00
Br   -5.5245429878788972E+00   -4.4386495671537443E+00   -2.5171582093242635E+00
Cs    3.1245572172077790E-01    2.6223102822212887E+00    1.2035546658191498E+01
Cs    1.1285582902226629E+01    7.1764278249405544E+00   -1.6290069815455146E+00
Cs   -1.1038704267780870E+01   -9.5580320323614600E+00   -9.0491761488340980E+00
Cs    1.1502074873012972E+01    3.6696191007534518E+00    5.6370183140807129E+00
Cs   -1.3165408033737553E+01    8.5619884730577649E+00   -6.9120402012415729E+00
Cs    1.3571034708925010E+01   -8.0555566345996095E+00    6.4464291677439549E+00
Cs    5.8392718788979074E+00   -6.6889323342082694E+00   -1.1129603145670741E+01
Cs    8.5743401708035183E+00   -9.2556534427055936E+00    6.7651327837467141E+00
Cs   -5.4218249127349010E+00   -1.2948163217528082E+01    2.6318363864906380E+00
Cs    6.3525931468659822E+00   -1.2658085600579641E+01   -1.0722802328310879E+01
Cs    1.1200872155940496E+01    7.1712336629176683E+00   -7.7455467740978303E+00
Cs    1.0325684032802020E+01    1.4297469791453262E+01    3.3926314551098282E+00
Cs    1.1113894884099883E+01    7.0477799870017908E+00   -1.3409553389426479E+01
Cs    3.3031182907359430E-01   -7.6666989840322923E+00   -1.0365694925689477E+01
Cs   -1.1259440892271353E+01   -2.9231224455615501E+00   -5.4069761411039607E+00
Cs    8.0208677814841050E+00   -2.8747030988168669E+00    1.1029535860427684E+01
Cs    1.3107303945982029E+01   -2.5178239842496244E+00    5.4046041839251799E+00
Cs   -8.8338999616599931E+00   -1.1523332788558326E+01    1.5033856252073370E+01
Cs    1.5433937981274495E-01   -1.3677086623000365E+00   -1.1340576754560471E+01
Cs   -7.3696946257843721E-01    1.2209616137214397E+01    4.8117235402691163E+00
Cs   -1.5698260304428455E+00    3.4405674238216042E+00   -1.2079288775995837E+01
Cs    4.8679250824309319E+00    6.1011300242394685E-02   -5.9977338044211184E+00
Cs    5.8362792133944739E+00   -6.5627574506589612E+00   -5.9702620017322117E+00
Cs   -1.8229722901031480E+00   -1.2629515079471924E+01    8.2610386103075477E+00
Cs   -1.2744045635496137E+01    1.1285147458346920E+00    6.3354488818627015E+00
Cs    5.6084808722258943E+00   -1.0182736991700578E+00   -1.1356297550889627E+01
Cs    4.1115242842779711E+00    1.2189569251529743E+01   -1.2464434506216584E+01
Cs   -4.7458601325787309E-01    8.1591038731740309E+00    1.0472002839460220E+01
Cs   -6.2717578003745142E+00    1.1088389374329505E+01    4.3563966604839166E+00
Cs    4.5268195694492670E+00    1.1669085928852891E+01   -8.0362361241269333E+00
Cs    5.1082979626751692E+00    6.1854480827665750E+00   -6.8671106097752057E+00
Cs    5.5063400439368531E+00   -1.8277528366827350E-01   -3.4054860826362010E-01
Cs    7.0528129629485736E+00   -5.2376528901894481E+00    2.9298610657908292E-01
Cs    7.9579495222977643E+00   -1.0250673895621938E+01    9.4904919288591105E-01
Cs    5.0066160402965396E+00    5.0911644150289348E+00   -1.3188134981839765E+01
Cs   -6.6544928717835479E+00    4.6396367438667108E+00    5.9764126051304878E+00
Cs   -5.9872157906892669E+00   -8.9553999247020002E+00   -1.0022081844909740E+01
Cs    5.1982954307958495E+00    6.5780774911641773E+00   -7.5256840541036452E-01
Cs    6.1176691715542431E+00    2.6032856379246123E+00    4.9573785136581101E+00
Cs    6.8218804859284656E+00   -3.3899044193956085E+00    6.5720090571533651E+00
Cs   -7.7395834157450825E+00    1.1228918622174595E+01   -1.5763855604439023E+00
Cs    1.0839959075623096E+01    1.7435801279772216E+00   -1.6349957537909101E+00
Cs   -5.6169610737003550E+00   -1.9853469746187948E+00   -2.0446426327712700E-01
Cs   -1.1509296022050295E+01    5.0381131598609459E+00    5.4483946567590502E+00
Cs   -4.8791823589972285E+00    1.3824753630293396E-01    1.2014843468209540E+01
Cs    4.6720638067790183E+00    1.2782529390380603E+01    3.4956480044245426E+00
Cs    4.8468693443479056E+00    7.8141001970906547E+00    4.4254809015455994E+00
Cs    6.6279001040414665E+00    2.8685808351467537E+00    1.0239921840487821E+01
Cs    4.2622698934205188E+00    1.2243919205627934E+01   -2.2917007875900088E+00
Cs    1.1383996710924297E+01    3.7760309264000252E-01   -7.8337057698135926E+00
Cs    1.1605366448737914E+01   -6.2109529506853471E+00   -6.0939073373489077E+00
Cs    9.0770855346667485E+00   -7.9528871671352599E+00    1.2031838777372377E+01
Cs    7.9238343717747846E+00    1.4138518224144974E+01   -2.4312652851724761E+00
Cs   -1.2352685160083261E+01    6.1436036704990986E+00    1.0735798502242963E+01
Cs   -6.6135937953448973E+00    3.7762240831081786E+00   -1.1739594663700231E+01
Cs   -1.3924456119716019E+01    8.5272105698714533E+00   -5.4195847479998338E-01
Cs   -3.5259239389858616E+00   -4.4762342772820398E+00    1.3217303677104743E+01
Cs   -3.0750223002105539E+00   -9.2933967450578336E+00    1.4874040331596861E+01
Cs    6.3664096910038817E+00    9.7601219151429763E+00    1.0699411234996958E+01
Cs    1.1413806686608568E+01   -4.5197715563956020E+00   -9.5234839849992381E-01
Cs   -1.1304032789784076E+01   -2.1669897801725262E+00    7.6510022497504371E-01
Cs   -8.9343081318350475E+00    7.7954982379625735E+00   -1.2936556392911768E+01
Cs   -1.2328345713108741E+01    4.4105317421976933E+00    2.6007894106029435E-02
Cs   -8.6390971303649362E+00   -1.5157049002028923E+01   -2.7569972740258417E+00
Cs   -1.0170794516364777E+01   -7.5995925662743113E+00    2.0272362208985437E+00
Cs   -4.9241446675751872E+00   -6.8237045215342391E+00    2.3933650166891378E+00
Cs   -6.8509676231349790E+00   -1.3998660075552316E+01    9.1475929544695322E+00
Cs    1.2837047744199849E+01   -2.0409203838918244E+00    1.0363018909553487E+01
Cs    1.0527934914877102E+01    9.1923984399673699E+00    4.6627895402028283E+00
Cs   -1.2544691621072134E+01    2.7264086610615794E+00   -6.1519496074547604E+00
Cs   -6.3728686576845597E+00   -2.5490800866538441E+00   -6.2037723677838166E+00
Cs   -1.0454095944265125E+01   -1.2214313127650055E+01    4.3935584677389743E+00
Cs    1.1368904908626472E+01   -6.4227920915078762E+00   -1.0715770401126186E+01
Cs   -5.9187825616542726E+00   -1.4784434801979565E+01   -9.0125488745625226E+00
Cs   -2.4224132566662129E+00    9.5910712296660350E+00   -1.2755270306055063E+01
Cs    7.9117824868905992E-02   -1.2993582000603974E+01   -1.0652761546679852E+01
Cs   -1.4736015118352170E+00    9.6996714288977905E+00   -6.9590526836004871E+00
Cs   -8.0359175929344193E+00    1.2233670813945333E+01    1.0133815759836478E+01
Cs    1.4944785698560710E+00   -1.1803070664744519E+01    1.0466137655312677E+00
Cs   -1.1813337127248795E+01    2.5061148839169500E+00   -1.1508156586177185E+01
Cs   -1.2902360525680127E+01    1.0913762408895609E+01    5.3585185246605667E+00
Cs    7.0622012033081489E+00   -1.1411834896611133E+01   -4.1960158791686428E+00
Cs    1.0260077642034206E+01   -6.0678584637499988E-01   -1.3187845704376782E+01
Cs   -1.0419239101489666E+00    1.3094683758503363E+01    9.7432669621869579E+00
Pb    3.2812753810430082E+00   -3.1992822257079636E+00   -2.6797410132312880E+00
Pb    4.0396886014574234E+00   -9.4758504883518384E+00   -1.8258585004888161E+00
Pb   -8.4004937815799021E+00   -4.1044867507544049E+00    4.3543312887653425E+00
Pb   -2.0346684658962153E+00   -9.8842783309020330E+00   -1.4067416575842979E+00
Pb    1.8930550152656225E+00    8.8228511834512400E+00   -4.3627653494143672E+00
Pb    2.6653700235070477E+00    2.7503996970793101E+00   -3.5447432711040969E+00
Pb    3.4178405750849348E+00   -2.0175414215861966E+00    3.4034305722403295E+00
Pb    4.5744571685953384E+00   -7.8281269909867559E+00    3.8983759698448401E+00
Pb   -3.9799121292754469E+00    8.7150554340595505E+00    1.6908431845138414E+00
Pb    1.7009845919915894E+00    9.9183823725450342E+00    1.5495440404655509E+00
Pb    2.6789376012489772E+00    3.8450654847019599E+00    2.2124403262397041E+00
Pb    4.0313420579907655E+00   -1.0871151955119625E+00    9.2144562484307322E+00
Pb    5.1980601505159534E+00   -7.3262879518524260E+00    9.8577379449481590E+00
Pb   -3.3244285374356353E+00    2.5157859401382621E+00    2.8129084902168042E+00
Pb    1.9556718794526440E+00    1.0482329279717812E+01    7.8426080635011255E+00
Pb    2.6355472446974821E+00    4.3577291987034403E+00    8.0693361939530650E+00
Pb   -1.7210882622853587E+00   -2.1514380806959870E+00    9.5950748741479153E+00
Pb   -7.1315354162920555E+00   -1.0285412043809499E+01    5.7639604816098027E+00
Pb   -9.3015328426245762E+00    9.8124324145787667E-01   -2.8426934977647500E+00
Pb   -2.9148756881542699E+00   -4.8830727285128956E+00   -8.5824894977890995E+00
Pb   -1.1585498388085544E+00   -9.3665073111640247E+00    4.5485776711879682E+00
Pb   -4.1486255259877352E+00    7.5524890811744942E+00   -4.0448115132219780E+00
Pb   -7.4642795804494633E-01   -7.8500086554106669E+00    1.0495076293411538E+01
Pb   -8.5935810165856168E+00   -5.0350770203847430E+00   -1.7887053452892960E+00
Pb   -8.0982498649237726E+00   -1.1076205079410496E+01   -7.0668572521820450E-01
Pb   -3.2253185244927889E+00    1.9393642885658460E+00   -3.1610622517904003E+00
Pb   -7.0861858836548599E+00   -9.0020745407844434E+00    1.1963756759745211E+01
Pb   -9.0617811936662740E+00   -5.9074236699230829E+00   -8.0320202592849501E+00
Pb    9.1335918393442199E+00   -3.2680694896866487E+00   -9.6408000148084305E+00
Pb    9.0485029464792088E+00   -9.4343265938742960E+00   -8.5792873509395111E+00
Pb   -2.5588515275768002E+00   -1.1255188427473991E+01   -7.1710477850597307E+00
Pb   -1.0416097879317711E+01    5.9632929157447760E+00   -9.2381765959782065E+00
Pb    2.9503503652333700E+00   -3.8809107836716197E+00   -8.7447570987473195E+00
Pb    3.3633624571611485E+00   -1.0388921096500541E+01   -7.7690290444683567E+00
Pb   -3.3653774834685177E+00    8.7672597216857495E-01   -9.0791816837912744E+00
Pb    1.7978104512737958E+00    8.1690357001435743E+00   -1.0685306010822488E+01
Pb    2.5541171230775692E+00    2.3581435958212769E+00   -9.8638086552821864E+00
Pb    8.7974504588200464E+00   -2.2199264705232515E+00   -3.6317315068338831E+00
Pb    9.4386269265990119E+00   -8.1349259098911855E+00   -2.6789615754395855E+00
Pb   -8.0539207538194333E+00   -2.6443422555730911E+00    1.0437794145420439E+01
Pb    7.6192170250475941E+00    9.0159124744801389E+00   -1.1232729992482986E+01
Pb   -9.2688204840485611E+00   -1.2984214269121849E-01   -8.8130166907150578E+00
Pb   -3.9029772109433911E+00    9.5167774251332506E+00    7.7880514115251236E+00
Pb    7.6671540270895404E+00    9.8198468871439673E+00   -5.1532764660898858E+00
Pb    8.9296143619187038E+00    3.7281057666809772E+00   -4.5825574983230410E+00
Pb    8.9632687656078769E+00   -8.7925062468703807E-01    2.1797380035973508E+00
Pb    1.0561237409425994E+01   -6.4641986858458313E+00    3.3564900769715056E+00
Pb    8.5045069866598730E+00    3.0636781392707682E+00   -1.0830326610940737E+01
Pb   -3.3085252187888194E+00    3.5302271266524801E+00    8.7615803386505231E+00
Pb    7.9766127670111997E+00    1.0821787810741547E+01    7.2525538920853094E-01
Pb    8.6770119612398577E+00    4.9928397031359850E+00    1.7560536280641865E+00
Pb    9.8467238548900031E+00    2.3212807613296910E-01    7.8642391588214515E+00
Pb    1.1332574202197542E+01   -5.7170508561364901E+00    9.0739275785006264E+00
Pb    7.8112944643932574E+00    1.2583371507757931E+01    6.4425410186367644E+00
Pb    8.5768412194923371E+00    6.3533748088603419E+00    7.7666775667261581E+00
Pb   -9.0887551852221513E+00    3.0106109121495819E+00    9.4676780842003900E+00
Pb   -2.3498588699829024E+00   -3.2816042541806349E+00    3.5835792882137292E+00
Pb   -1.0214836898914013E+01    7.9975800184682893E+00    2.3506385952634345E+00
Pb   -9.8650758636599249E+00    7.1222724174853544E+00   -3.5017958121036434E+00
Pb   -8.4898353253724679E+00   -1.1707882168237528E+01   -6.3318540570015207E+00
Pb   -4.2400211665575185E+00    7.1461403211554329E+00   -1.0053051085374415E+01
Pb   -9.4577254451269770E+00    1.8114215633752622E+00    3.2758712932502947E+00
Pb   -9.6600720484550777E+00    8.9675402407416289E+00    8.1782919907311769E+00
Pb   -2.6362207436033933E+00   -3.9725306888017800E+00   -2.6151212265688004E+00
Br    2.5553125142355448E-01   -4.0226887824986344E+00   -2.8593464555540238E+00
Br    3.3343472699373087E+00   -3.6096630713753357E+00   -5.8695782142068111E+00
Br    2.5520644816264135E+00   -7.2547131857980691E-03   -3.1825114889040478E+00
Br    7.8692060175763456E-01   -9.3141010420512416E+00   -1.4729334421267801E+00
Br    3.9717679322662094E+00   -9.7869742441148055E+00   -4.9121490757851118E+00
Br    3.9005207348856570E+00   -6.4837457318750333E+00   -2.6282761204740317E+00
Br   -2.9906682400516895E+00   -4.4725229608006920E+00   -5.5844537861547829E+00
Br   -8.0108930095078978E+00   -2.7266615891882182E+00    7.3972712513088146E+00
Br   -3.2227294179517574E+00   -9.0801230355250373E-01   -2.7980829346575899E+00
Br    3.8137884944726657E+00   -1.2325014293425793E+01   -1.7933637839001917E+00
Br    1.1827783826447492E+01   -1.9273106373153420E-01    1.5640943668564731E+00
Br   -4.9485400698492770E+00   -1.0610018436962950E+01   -6.6751838140895969E-01
Br   -1.0982028292806206E+01   -4.6571331804216118E+00    3.5265937592009458E+00
Br   -8.1137979378243728E+00   -4.6028037767060086E+00    1.1618843769310341E+00
Br    1.3154271888291257E+01   -5.7434822532458405E+00    2.6407059094605470E+00
Br   -1.1566138026989536E+00    8.7053890368169746E+00   -3.8647764164991152E+00
Br    2.0259080950872401E+00    7.7383314430335988E+00   -7.7488935965079060E+00
Br    1.4556045261758839E+00    1.1579145286293036E+01   -4.7413581037755694E+00
Br   -2.6793651909373234E-01    2.2734173927843120E+00   -3.9632924316024596E+00
Br    2.2875871415071987E+00    2.6540080327200424E+00   -6.8126367683371853E+00
Br    2.2773027941418280E+00    5.6659270763085141E+00   -3.8154661073784579E+00
Br    4.3729212174370075E-01   -3.0629897016786471E+00    3.6366295864551468E+00
Br    2.8900322990129932E+00   -2.8786458160891493E+00    4.6608352379159718E-01
Br    3.2652962331853059E+00    1.2562244062013108E+00    3.1374916200165730E+00
Br    1.5506006092228131E+00   -7.6391228487065987E+00    4.1169147201029226E+00
Br    4.3624184546554332E+00   -8.6306507147728944E+00    1.0598540294340628E+00
Br    4.2030888607008006E+00   -4.8406628021061193E+00    3.4282958182226362E+00
Br   -7.6872132301001743E+00    6.3040120483941884E+00   -9.6270660060513880E+00
Br   -4.8948591981956726E+00    6.7525225667741120E+00   -1.2868738144710708E+01
Br    4.8913085213328511E+00   -1.0803561101058746E+01    4.2335328714642397E+00
Br   -4.1924133215601120E+00    9.7685267007720924E+00   -9.2295458189699300E+00
Br   -4.0121685587780620E+00    4.5037860531183922E+00   -9.9303217818593712E+00
Br   -9.2555691464953043E+00   -1.1907443677145393E+00    3.4200481926526853E+00
Br   -2.1138102315044942E+00   -1.0847314844397230E+01   -4.1237025035659540E+00
Br   -7.2174951095575937E+00    8.2861280169666003E+00    2.7486135337742974E+00
Br   -3.9581744794878437E+00    7.6868514198209246E+00   -1.0483299487664179E+00
Br   -4.5096874042033370E+00    1.1041418998106694E+01    5.0654040817932289E-01
Br   -1.1050635250267022E+00    8.9043056685868311E+00    1.4922641482285277E+00
Br    1.4421312589714654E+00    9.4494454628811351E+00   -1.3688611560258359E+00
Br    1.5614493869242945E+00    1.2573013064507792E+01    2.0955455558607343E+00
Br   -4.7006366364225993E-01    2.9280868365093884E+00    3.0254365067069124E+00
Br    2.8761224057780987E+00    2.9751249050570499E+00   -5.9624343549877890E-01
Br    2.3610891552830964E+00    6.9254993744572406E+00    2.0101098628649785E+00
Br    1.2144265021612570E+00   -2.0563322781677584E+00    1.0022860833287629E+01
Br    3.5953538021323195E+00   -2.1377879859997044E+00    6.3528408867636879E+00
Br    3.0546880925476785E+00    1.3968457857435224E+00    7.9672673786805666E+00
Br    1.9646329009462602E+00   -7.2727699213507035E+00    9.8838408065425671E+00
Br    4.7618978452262644E+00   -8.2640852947755619E+00    6.7378213966350966E+00
Br    5.0189656511609817E+00   -4.2658611647548206E+00    9.2270497106660176E+00
Br   -1.2381033826903577E+01    1.8797165194045014E+00    3.4769933045890129E+00
Br   -8.5449191721508306E+00    1.3882393376199429E+00    5.5066538483148697E-01
Br    6.6707180433068638E+00   -1.0405746687125259E+01    9.3286990324044119E+00
Br   -9.5656181565516185E+00    4.9069929201458722E+00    2.7617688768196955E+00
Br   -8.3317638365848570E+00    2.5374285704764687E-01    1.0402266844908041E+01
Br   -2.6416344828933891E+00   -6.9106041550814847E+00   -2.3898876001145046E+00
Br   -6.2014132359537664E+00    1.8163841592881877E+00    3.6258561594560188E+00
Br   -2.5837257716659492E+00    1.7254329577210825E+00    6.1234485293379722E-02
Br   -4.1896017838437327E+00    5.9921392467412540E+00    2.7041820614865779E+00
Br   -1.1072474156311338E+00    9.5253404140524154E+00    7.6397290509561699E+00
Br    1.9554359348027897E+00    9.6370208920603133E+00    4.4514697767761566E+00
Br    1.1668161580967051E+00    1.3126316731824362E+01    7.1802090260363212E+00
Br   -1.6503377824978846E-01    4.2770625317801736E+00    8.6949832820098472E+00
Br    2.4544169343122206E+00    4.5126564975805588E+00    5.2370712566222570E+00
Br    2.1894620133172653E+00    7.4151861736981548E+00    8.1356603163872130E+00
Br   -4.9124343615635366E+00   -2.4904125777210222E+00    9.9149764225684844E+00
Br    5.4052232823685857E+00   -1.0684742701224652E+00    1.1589479326196507E+01
Br   -1.9538328694619551E+00   -2.9224649059954952E+00    6.8015994525410504E+00
Br   -2.1201724540687081E+00    9.8169845622516960E-01    8.9472620679281967E+00
Br   -1.9138563924820906E+00   -1.2666127439170827E+01   -8.8129104733995989E-01
Br    6.0606716227951525E+00   -7.9177836213641566E+00    1.2516708089233342E+01
Br   -1.1313293483217432E+01    3.9637114799402789E-01   -1.2809008803388910E+00
Br    2.5736697815055865E-01   -1.2027222701559845E+01    4.6385142816696128E+00
Br   -1.1238620400563507E+01   -4.8405875821731561E+00   -1.9861393476103959E+00
Br    1.8504977199045185E+00    1.1095879424052914E+01    1.0762428762876988E+01
Br   -8.4192884224018290E+00   -4.9385759058805885E+00   -5.2743211443767395E+00
Br   -8.6622922726572256E+00   -2.0193007534694543E+00   -2.2705643170498195E+00
Br    3.2223801124872544E+00    3.9215815972020054E+00    1.0796899058828027E+01
Br   -6.7362372772164631E+00    6.5531636808009068E+00   -3.5880650401572209E+00
Br   -4.1710926307764744E+00    7.1308833171326720E+00   -6.8959906084508580E+00
Br   -4.2574903302162070E+00    1.0254333784380540E+01   -4.4459775315003061E+00
Br   -6.1327589281243666E+00    2.1359404198290961E+00   -2.9756300089879177E+00
Br   -1.0031705444045265E+01   -9.3578821995299606E+00    5.8480252369264996E+00
Br   -3.3406496339893850E+00    1.9743565802485072E+00   -6.3476663737568115E+00
Br   -5.8183077048847567E+00   -4.1238405302913055E+00   -9.4938390699274056E+00
Br   -2.6737387578718970E+00   -5.9906522032974969E+00   -1.0956125867696910E+01
Br   -3.0397681620252546E+00   -1.6881163074239685E+00   -8.3434844420887089E+00
Br   -3.3313695221121167E+00    3.3614302389593345E+00    1.1783049510030114E+01
Br   -4.2746142866895571E+00   -7.5926110048382922E+00    1.1736013707323082E+01
Br   -8.9362217744362704E-01   -8.6106289546176651E+00    7.7095634562679294E+00
Br   -1.4146810559858067E+00   -5.0698855528892119E+00    9.9566386513675447E+00
Br   -7.6940589841189908E+00   -1.0502208689416774E+01    2.3442175115468422E+00
Br   -7.6380358299707813E+00   -6.9078191049376665E+00    5.0171425603235251E+00
Br   -9.7126193799507767E+00    9.5625839899606202E+00    1.1213946284984592E+01
Br    1.0943788387280774E+01    1.0583994133958811E+01    7.1223465515380824E-01
Br   -7.0702463450391173E+00   -8.3057648138899918E+00    1.4628951655607725E+01
Br    1.0622313431786186E+01    1.0362609386083907E+01   -6.2902600397135160E+00
Br    1.1478164321326650E+01    5.5153089547178809E+00    1.8729920714626644E+00
Br   -1.0171872177430370E+01    3.8800387606433846E+00    1.1971274142135037E+01
Br   -1.1642513722912481E+01   -6.0075807854713972E+00   -7.0592343599941776E+00
Br    1.2624325724233762E+01    4.7564357713656519E-01    7.6080583229315497E+00
Br   -4.2320830111020156E+00   -1.0444623274901504E+01    5.7801449659063531E+00
Br    6.0855006598418218E+00   -3.8052327430845567E+00   -9.4071385762079132E+00
Br    8.7283077969601468E+00   -3.5850704257630825E+00   -1.2336021352498662E+01
Br    1.4098014823650042E+01   -4.6448956309782350E+00    8.7099945347307628E+00
Br    8.9141691643975474E+00   -2.9189344578861470E-01   -1.0150962131217520E+01
Br   -6.4342999553757005E+00   -1.1667685977795715E+01    1.2719467595220038E+01
Br   -1.6490932761846584E+00   -9.2479447234157792E+00    1.4982981029559235E+00
Br   -2.0998074056803095E+00   -6.4167605732574078E+00    4.5200034869171049E+00
Br    6.2627462650522663E+00   -9.8424477798883654E+00   -8.2626208146244675E+00
Br   -5.3667539568428273E+00   -1.1231172199181264E+01   -5.9236440584410159E+00
Br    8.5106957893887945E+00   -9.3162787890190106E+00   -1.1595360154827494E+01
Br    8.5936621385802443E+00   -6.3529431779353720E+00   -9.0514013983027723E+00
Br   -1.1880322918595643E+00   -1.0535685802898403E+01    1.1487184766821507E+01