 # Version information for this restart file 
 # current date 2021-06-17 12:35:00.378
 # current working dir /user/ub2042/exercises/2_fitting/MM_MD_workdir/md_settings
 # Program compiled at                              Thu Apr 22 21:44:59 EDT 2021
 # Program compiled on                cpn-k07-07-02.compute.cbls.ccr.buffalo.edu
 # Program compiled for                                                    local
 # Source code revision number                                       git:36754bb
 &GLOBAL
   PRINT_LEVEL  LOW
   PROJECT_NAME cp2k
   RUN_TYPE  MD
 &END GLOBAL
 &MOTION
   &MD
     ENSEMBLE  NVT
     STEPS  10000
     TIMESTEP     2.4999999999999996E+00
     STEP_START_VAL  9980
     TIME_START_VAL     2.4949999999995503E+04
     ECONS_START_VAL    -1.3925666412857368E+01
     TEMPERATURE     3.0000000000000000E+02
     &BAROSTAT
       PRESSURE     1.0100000000000000E+00
       TIMECON     9.9999999999999982E+03
     &END BAROSTAT
     &THERMOSTAT
       TYPE  CSVR
       &CSVR
         TIMECON     9.9999999999999982E+03
         &THERMOSTAT_ENERGY
              -3.1834166548152987E-01
         &END THERMOSTAT_ENERGY
         &RNG_INIT
Wiener process for Thermostat # 1        1 F T F   1.0571577890008135E+00        2254892290.0        3032320490.0        1438837230.0         879273700.0         502542477.0        1398262910.0             12345.0             12345.0             12345.0             12345.0             12345.0             12345.0             12345.0             12345.0             12345.0             12345.0             12345.0             12345.0
         &END RNG_INIT
       &END CSVR
     &END THERMOSTAT
     &AVERAGES  T
       &RESTART_AVERAGES
         ITIMES_START  1
         AVECPU     1.7886787150097210E-02
         AVEHUGONIOT     0.0000000000000000E+00
         AVETEMP_BARO     0.0000000000000000E+00
         AVEPOT    -1.4241975041612385E+01
         AVEKIN     4.8596599096671278E-01
         AVETEMP     2.4651524448244010E+02
         AVEKIN_QM     0.0000000000000000E+00
         AVETEMP_QM     0.0000000000000000E+00
         AVEVOL     6.7483345830912264E+06
         AVECELL_A     1.8897261328855686E+02
         AVECELL_B     1.8897261328855686E+02
         AVECELL_C     1.8897261328855686E+02
         AVEALPHA     9.0000000000000000E+01
         AVEBETA     9.0000000000000000E+01
         AVEGAMMA     9.0000000000000000E+01
         AVE_ECONS    -3.8405351776329235E+00
         AVE_PRESS     0.0000000000000000E+00
         AVE_PXX     0.0000000000000000E+00
       &END RESTART_AVERAGES
     &END AVERAGES
     &PRINT
       &ENERGY  SILENT
         &EACH
           MD  10
         &END EACH
       &END ENERGY
     &END PRINT
   &END MD
   &PRINT
     &TRAJECTORY  SILENT
       &EACH
         MD  10
       &END EACH
     &END TRAJECTORY
     &CELL  SILENT
       &EACH
         MD  10
       &END EACH
     &END CELL
     &VELOCITIES  SILENT
       &EACH
         MD  10
       &END EACH
     &END VELOCITIES
     &FORCES  SILENT
       &EACH
         MD  10
       &END EACH
     &END FORCES
     &RESTART  SILENT
       &EACH
         MD  10
       &END EACH
     &END RESTART
   &END PRINT
 &END MOTION
 &FORCE_EVAL
   METHOD  FIST
   &MM
     &FORCEFIELD
       VDW_SCALE14     1.0000000000000000E+00
       EI_SCALE14     1.0000000000000000E+00
       SHIFT_CUTOFF  T
       DO_NONBONDED  T
       IGNORE_MISSING_CRITICAL_PARAMS  T
       &SPLINE
         R0_NB     2.5000000000000000E-01
       &END SPLINE
       &NONBONDED
         &LENNARD-JONES
           ATOMS Br Br
           EPSILON     1.2630795322675199E+02
           SIGMA     3.6900000000000004E+00
         &END LENNARD-JONES
         &LENNARD-JONES
           ATOMS Cs Pb
           EPSILON     8.6920055954630968E+01
           SIGMA     3.6699999999999999E+00
         &END LENNARD-JONES
         &LENNARD-JONES
           ATOMS Cs Cs
           EPSILON     2.2644852172126850E+01
           SIGMA     4.5300000000000002E+00
         &END LENNARD-JONES
         &LENNARD-JONES
           ATOMS Pb Pb
           EPSILON     3.3363415533600227E+02
           SIGMA     6.1000000000000005E+00
         &END LENNARD-JONES
         &LENNARD-JONES
           ATOMS Br Cs
           EPSILON     5.3481070753900497E+01
           SIGMA     3.6300000000000003E+00
         &END LENNARD-JONES
         &LENNARD-JONES
           ATOMS Br Pb
           EPSILON     2.0528187276773045E+02
           SIGMA     2.9800000000000000E+00
         &END LENNARD-JONES
       &END NONBONDED
       &CHARGE
         ATOM Cs
         CHARGE     4.1739999999999999E-01
       &END CHARGE
       &CHARGE
         ATOM Pb
         CHARGE     8.3479999999999999E-01
       &END CHARGE
       &CHARGE
         ATOM Br
         CHARGE    -4.1739999999999999E-01
       &END CHARGE
     &END FORCEFIELD
     &POISSON
       PERIODIC  XYZ
       &EWALD
         EWALD_TYPE  SPME
         GMAX  62 62 62
         O_SPLINE  4
       &END EWALD
     &END POISSON
     &PRINT
       &FF_INFO  LOW
         SPLINE_INFO  F
         SPLINE_DATA  F
       &END FF_INFO
     &END PRINT
   &END MM
   &SUBSYS
     &CELL
       A     1.0000000000000001E+02    0.0000000000000000E+00    0.0000000000000000E+00
       B     0.0000000000000000E+00    1.0000000000000001E+02    0.0000000000000000E+00
       C     0.0000000000000000E+00    0.0000000000000000E+00    1.0000000000000001E+02
       PERIODIC  XYZ
       MULTIPLE_UNIT_CELL  1 1 1
     &END CELL
     &COORD
Cs   -7.2284777165140479E-01   -4.7101259056421069E-01   -5.8590230060857724E+00
Cs    3.4610912052890463E-01   -5.9872307358229522E+00   -4.4137657592418620E+00
Cs    2.1815159576242871E+00   -1.2021817598910866E+01   -3.1787972000585953E+00
Cs   -4.3435856381112181E+00   -7.8483945148265777E+00   -3.4515901392099417E+00
Br   -7.6339300960068082E+00   -1.5082442500748671E+01   -5.2282463511167503E+00
Br    1.1729566943356422E+01   -2.2843273969474267E+00   -9.5287361642188255E+00
Br   -5.6250793088292532E+00   -1.1693202738276547E+00   -1.1820665878880323E+01
Cs   -9.9582551520836216E-01    4.7542930377448105E+00   -6.7564355885986132E+00
Cs   -8.6529211550656730E-03   -8.2674049368793978E-01   -2.6151898152677366E-01
Cs    8.8400887897472225E-01   -5.5388511168679511E+00    9.7520483333734109E-01
Br   -5.0401364890376872E+00   -3.6005759134081470E+00    4.3248882801856769E+00
Cs   -9.7027535813966850E+00   -6.1064410174150794E+00    1.4210168600265144E+01
Cs    1.3816082683418164E+01   -8.5267627978762697E+00    1.5375245145187878E-03
Cs   -6.5994588052235601E+00    4.6337764521234917E+00    4.1047462224965831E-01
Cs   -2.1406193408642107E+00    1.0628283599710354E+01   -2.3674468283487085E+00
Cs   -9.2747847581608667E-01    5.7136692964576028E+00   -9.1390877726045727E-01
Cs    8.4696826535553993E-01    1.5006448251480340E+00    4.8649555284942014E+00
Cs    1.9826676650383124E+00   -3.9863872876809547E+00    7.4743106983076526E+00
Cs    2.9367864565738224E+00   -1.0489770657627092E+01    7.2468965934274410E+00
Cs   -6.2655040595944520E+00    6.8511225365895063E+00    9.9052429954385328E+00
Cs   -6.8710330658839096E+00   -3.8708989559954126E+00   -1.0439995825820594E+01
Cs   -4.9238833652191367E+00   -1.3952050431234609E+01   -3.1632869730976814E+00
Cs   -5.7890471650115831E+00    8.1320869200174106E-01    6.8641851134203362E+00
Br   -2.5865802019023176E+00   -3.7159488889599439E+00    1.2566930672745549E+00
Cs   -4.1793663624626137E-01    6.5583423389222890E+00    5.3121765827090499E+00
Br    1.2236907243860902E+01   -7.9085928923005717E+00   -8.9507039428370305E+00
Cs    2.2221733644789516E+00   -4.1371735215665506E+00    1.2000318275947789E+01
Br   -2.3933856149181527E+00   -1.9055475786974432E-01    3.1146156907698068E+00
Br   -5.8624528365055566E+00   -2.3483186489114716E+00    1.3213260615366609E+01
Cs    1.3571551721210273E+01    1.0342265002491681E+01   -7.3725270000609218E+00
Cs   -8.9590113428485623E+00   -6.5091827824243396E+00    8.7773149759573652E+00
Cs   -4.4093088669230145E+00   -5.8383646949960459E+00    7.8657518805230415E+00
Cs   -8.9224160314789369E+00    9.2555380419799800E+00   -7.8385571703086612E+00
Br   -8.7577958313554660E+00   -9.4728681838186812E+00    1.2848918471240449E+01
Br   -5.7377261638479178E+00   -1.0036670071188169E+01    8.3942233527715313E+00
Cs   -1.0788517746855641E+01   -7.9108418635077378E+00   -2.9813721206974084E+00
Cs   -7.7572553276314569E+00    3.6757386634586342E+00   -6.7653625968437030E+00
Br   -6.1172030530562553E+00   -6.3084040717098251E+00    1.0837050703912029E+01
Cs    1.0409379960441758E+01    1.0066804448631840E+01    9.8222947201488662E+00
Br   -1.3054331803200757E+01    7.8165663015729914E+00    9.0233811356056783E+00
Br   -5.2685893924019922E+00   -4.8682869389393950E+00   -1.2297274634514372E+00
Cs    1.4639085956208389E+00    2.1890567388275892E+00    1.1280959965600347E+01
Cs    1.0093021310213384E+01    7.8662130209407586E+00   -1.7648200517853345E+00
Cs   -1.1717358724623578E+01   -9.8154035082555797E+00   -8.4215284671381916E+00
Cs    1.2435200916631143E+01    4.7187712593575908E+00    4.8190871465505012E+00
Cs   -1.3415763168090782E+01    8.2629009061942238E+00   -7.6474037429963886E+00
Cs    1.3490614563451928E+01   -7.7245958066911049E+00    6.2302979212385541E+00
Cs    6.6495442987209712E+00   -7.5262132144126710E+00   -1.0974700976276697E+01
Cs    8.5534567450071339E+00   -8.8085414797902715E+00    7.0855453723360640E+00
Cs   -3.6426085593114101E+00   -1.1463303582830889E+01    2.8673967053941505E+00
Cs    6.7267263056449051E+00   -1.3177125375109787E+01   -9.4827252250237208E+00
Cs    9.2316274934575695E+00    6.2454886515936945E+00   -8.0763957049423514E+00
Cs    8.3019796421594236E+00    1.5701962340348270E+01    2.5701087652137447E+00
Cs    8.9679839097102647E+00    5.2721970457644991E+00   -1.3088105003284095E+01
Cs    7.6732736670461307E-02   -7.9391213844185309E+00   -1.1118960315739992E+01
Cs   -1.2395175841845155E+01   -2.5919236352204895E+00   -5.1037785651641014E+00
Cs    8.6679590833710769E+00   -2.1089739902522302E+00    1.1303343891361363E+01
Cs    1.2788332440117239E+01   -2.4589379280099388E+00    5.2143751175588502E+00
Cs   -7.4157939536556894E+00   -1.0181427749177322E+01    1.6025365267384441E+01
Cs   -1.8548460437963465E+00   -3.1253583881767830E+00   -1.1340099873542655E+01
Cs   -2.0779287619460929E+00    1.2046382206542845E+01    3.7911772427250443E+00
Cs   -2.1506998845282284E+00    2.9228137450368572E+00   -1.2969024627334333E+01
Cs    5.8388982359492063E+00   -8.3987212923629628E-01   -6.6028985734809549E+00
Cs    6.4605925030179350E+00   -5.5438622858923878E+00   -6.1006226201946099E+00
Cs   -2.2440737202987222E+00   -1.1023617205913437E+01    9.1774507613099292E+00
Cs   -1.0797813600269002E+01   -1.3644260800477461E+00    7.0484284614612127E+00
Cs    4.5904145417117217E+00   -1.3877054697257016E+00   -1.1769177140022922E+01
Cs    4.3684789054075193E+00    1.0135945501744734E+01   -1.3363610641709977E+01
Cs   -1.1424723522020122E+00    8.1856574302927640E+00    1.0158142398435135E+01
Cs   -7.7286143951076189E+00    1.1068284291145130E+01    4.4680258056137294E+00
Cs    4.5640952421872569E+00    1.1111590853390046E+01   -8.9954450909365544E+00
Cs    4.3162743042945726E+00    5.9080464602196381E+00   -7.6118104720409256E+00
Cs    4.7699265094499026E+00    7.9690186539682251E-01   -7.2783640502569946E-01
Cs    7.8368523854619800E+00   -4.9986901685710494E+00    1.0575457028532986E+00
Cs    8.1490434890932786E+00   -9.6122273572019754E+00    1.0370046991896857E+00
Cs    3.7912058615072235E+00    4.5349631153484262E+00   -1.2457518212385605E+01
Cs   -6.2531135986196942E+00    5.5887780763198789E+00    5.9508056116817958E+00
Cs   -5.9809751563806923E+00   -8.9164478874365454E+00   -9.0046587511057954E+00
Cs    3.7412472763778730E+00    7.5209396642851649E+00   -1.8105828106793878E+00
Cs    7.0361110061685199E+00    2.4079254991435657E+00    4.9064834137785569E+00
Cs    7.4146299137988194E+00   -3.5057301662982212E+00    5.5383432751640385E+00
Cs   -6.8808863936177742E+00    1.0712589017407060E+01   -2.7092771333575500E+00
Cs    1.1494785892469567E+01    2.0981892000735711E+00   -1.3990716582149239E+00
Cs   -5.5367726851636707E+00   -1.5346041662714933E+00    2.9598455405110441E-01
Cs   -1.2409323780961286E+01    4.1093690638759393E+00    5.8654546604883944E+00
Cs   -4.0680930679646456E+00    1.4794768893072623E+00    1.2891245229316032E+01
Cs    3.4049581665408666E+00    1.2813390652275608E+01    4.2590538658574602E+00
Cs    5.2879581768512649E+00    7.9361604909308321E+00    3.6945018495186641E+00
Cs    9.4418497646923569E+00    3.8544403902041187E+00    1.1144483662661761E+01
Cs    3.2839913879410649E+00    1.2912478767462506E+01   -1.9351609126937388E+00
Cs    1.1096868222731485E+01    1.1207956301652577E+00   -6.9757938668729036E+00
Cs    1.2601569157754472E+01   -5.8446252751623033E+00   -6.4608393546778995E+00
Cs    9.7564691217311985E+00   -7.2865370296110683E+00    1.1966690737536537E+01
Cs    9.0873461316670205E+00    1.2803914972513775E+01   -2.2639052764242198E+00
Cs   -1.1304481715785679E+01    5.4396489130655548E+00    1.0953371550148622E+01
Cs   -8.2039696253434666E+00    1.8403168960665470E+00   -1.1547365932141476E+01
Cs   -1.4013312935561443E+01    9.2542404299967256E+00   -1.5457215776107616E+00
Cs   -2.8995233799197386E+00   -5.3584387360047447E+00    1.3403998812971317E+01
Cs   -1.7762521650521617E+00   -9.6948783293773051E+00    1.4901956242479375E+01
Cs    5.3317833169615856E+00    8.4453330841621241E+00    9.3960695345760570E+00
Cs    1.2586689677607128E+01   -3.9890732653098828E+00   -3.9733676659389311E-01
Cs   -1.1156279905671369E+01   -2.0215419758547153E+00    7.9758448159514472E-01
Cs   -8.5561916279793397E+00    6.3675854443229971E+00   -1.4205298601135636E+01
Cs   -1.3120095531640004E+01    3.9073160102788247E+00    5.9331232438921699E-01
Cs   -1.0224096009912122E+01   -1.3236148042245913E+01   -2.5539614177058931E+00
Cs   -1.0271806019817356E+01   -7.2266705133136044E+00    2.4579258763099077E+00
Cs   -4.8167408952101383E+00   -6.5469934291395209E+00    2.0312019184857122E+00
Cs   -7.4716282029584447E+00   -1.2811479428840544E+01    9.0153403308303481E+00
Cs    1.3717301150870165E+01   -1.4173387251543512E+00    1.0442823821741994E+01
Cs    1.0280159513595645E+01    9.5627116994332617E+00    3.8675131469511252E+00
Cs   -1.3868642797855957E+01    2.2267187812595006E+00   -5.9507471482085537E+00
Cs   -6.7628371829909701E+00   -2.3967010313955259E+00   -5.7433227525054367E+00
Cs   -8.7100119399313609E+00   -1.3231478142547465E+01    2.6460864373572299E+00
Cs    1.2048306515258259E+01   -6.4733902513223915E+00   -1.1813221068154107E+01
Cs   -4.8300289096711673E+00   -1.5545053654005180E+01   -8.4520841207562949E+00
Cs   -2.4717187437122154E+00    8.8670707420487496E+00   -1.2870767015535691E+01
Cs    7.0046794732697304E-01   -1.3148692759946403E+01   -1.0114629851189724E+01
Cs   -2.7085900638651190E+00    9.1037584404875993E+00   -7.8365814346095721E+00
Cs   -8.0879126049342478E+00    1.1285984533174227E+01    8.7671825433327086E+00
Cs    3.0982513213297698E+00   -1.1588327962178447E+01    2.1007750048778844E+00
Cs   -1.2773774927150457E+01    1.7919032497458507E+00   -1.2716650015467806E+01
Cs   -1.3986231058820939E+01    9.9838123661593574E+00    4.8083144786146121E+00
Cs    8.5741980260089399E+00   -1.1624117658261488E+01   -4.2092941024919437E+00
Cs    1.0838416621041771E+01    3.1257962777742176E-01   -1.1746022428787491E+01
Cs   -1.1780167261616579E+00    1.2671522857373573E+01    9.5736226119579015E+00
Pb    3.2842089885005787E+00   -2.6375868520782544E+00   -2.8243299829046027E+00
Pb    4.6038197858038759E+00   -8.6030048937045560E+00   -1.8994265160084083E+00
Pb   -7.9854850549166239E+00   -3.7417550114691300E+00    4.7980615072116164E+00
Pb   -1.2968287122410957E+00   -1.0226712267140869E+01   -1.1564418472945197E+00
Pb    5.1807504178615471E-01    9.0135782436194596E+00   -4.8000730287715321E+00
Pb    1.9667179159669375E+00    3.0501465190683437E+00   -3.6725370646136568E+00
Pb    4.1116208907303591E+00   -1.6784131368013340E+00    3.3706071213948383E+00
Pb    5.1446479792955886E+00   -7.6612912694445923E+00    4.1516497268475785E+00
Pb   -4.9333940022357927E+00    8.6539792458489337E+00    1.0654261754910017E+00
Pb    9.7708500220768801E-01    9.9529360177718207E+00    9.2236475525453232E-01
Pb    2.8635594248308536E+00    4.2223966370567636E+00    2.1235100654858923E+00
Pb    4.8139911071620851E+00   -3.5487443016943221E-01    9.2651931456601382E+00
Pb    5.4322414561785708E+00   -6.0609627212042065E+00    1.0168872201258445E+01
Pb   -2.9415242146333402E+00    2.6644178158993572E+00    2.5759433790366133E+00
Pb    1.8186684697182576E+00    1.0514746904000578E+01    7.5394220830940633E+00
Pb    3.1922956235259670E+00    5.0173507252181162E+00    7.9045086521520842E+00
Pb   -1.3587755324489557E+00   -1.7018292843389196E+00    9.9061013817755210E+00
Pb   -7.0248941478840896E+00   -9.5345044591533750E+00    5.8115729510388796E+00
Pb   -9.8711209131650932E+00    1.3221506685974784E+00   -2.7043980841795081E+00
Pb   -3.2839038250947934E+00   -5.2802287976305404E+00   -7.4498861194160177E+00
Pb   -4.7447690755971678E-01   -8.9907049125875229E+00    4.5829901108556159E+00
Pb   -5.2822340314542435E+00    7.0594392411687954E+00   -4.9508659026975153E+00
Pb   -2.4087277003559421E-01   -7.7880827304773188E+00    1.0767925212223517E+01
Pb   -8.2885950690368588E+00   -4.6086148855773557E+00   -1.2262912741149354E+00
Pb   -7.4454579530160325E+00   -1.0494071730253246E+01   -2.1059167078713931E-01
Pb   -3.5264651585993092E+00    1.3250737806540009E+00   -3.1758107910255489E+00
Pb   -6.0051325615125632E+00   -8.9121952940457501E+00    1.2173479693323694E+01
Pb   -9.3598909841393123E+00   -6.1107491986007565E+00   -6.8250781592633087E+00
Pb    9.0019104825310219E+00   -3.5763892855067478E+00   -9.2291137463195589E+00
Pb    1.0227049974985041E+01   -9.9100534257529826E+00   -8.3653243413699983E+00
Pb   -2.1170977177748846E+00   -1.1119386552943750E+01   -7.3065502549441108E+00
Pb   -1.1175880357930035E+01    5.6735579593384475E+00   -1.0483764593495385E+01
Pb    2.6569734221839925E+00   -4.1795490096704935E+00   -8.5621312827773544E+00
Pb    3.9303292920629764E+00   -1.0173142142152191E+01   -7.6135519608247906E+00
Pb   -4.6223629883641548E+00    2.5219263631231131E-01   -9.3808282717313709E+00
Pb    7.2644369473712300E-01    7.5377166555471611E+00   -1.0587476115285726E+01
Pb    1.3486519308034131E+00    1.6499340326382290E+00   -9.5803157344242518E+00
Pb    9.2637740503532093E+00   -1.8862285369315399E+00   -3.4657870891784550E+00
Pb    1.0647721815667994E+01   -7.7142415071908772E+00   -2.6756353943925886E+00
Pb   -7.2078625458939172E+00   -3.0022534293320540E+00    1.0703340058172392E+01
Pb    7.1628957476462283E+00    8.0787181609752725E+00   -1.0875405414684115E+01
Pb   -1.0674873387747466E+01    9.6814640225673966E-03   -8.5453912069012503E+00
Pb   -4.3246736031780193E+00    9.7389130982033301E+00    6.8895757647150653E+00
Pb    7.1425519350860673E+00    9.7783397129245753E+00   -5.3147333648646278E+00
Pb    7.9694909039050588E+00    3.9595280163328379E+00   -4.1572830317623080E+00
Pb    9.9380704707433232E+00   -6.4270080010846109E-01    2.2987018940889445E+00
Pb    1.0819162950738260E+01   -6.5893013298832921E+00    3.2305083005171920E+00
Pb    7.4207929338439538E+00    2.2122966516333680E+00   -9.9786581214981283E+00
Pb   -2.6123638725631486E+00    4.0397724173174607E+00    8.7204309639037749E+00
Pb    6.6951011348370431E+00    1.0623465622776484E+01    8.0303649111432129E-01
Pb    9.0166772026093422E+00    5.1041470364305956E+00    1.6039580297818701E+00
Pb    1.0465904525538095E+01    1.1369283325796375E+00    7.8810779074480033E+00
Pb    1.1278862136879258E+01   -4.9119307040311613E+00    9.0899664687603323E+00
Pb    7.2724056843262881E+00    1.2761993194671780E+01    6.4803954005829567E+00
Pb    9.2857423725057480E+00    6.8267783921541589E+00    7.2495410224545429E+00
Pb   -8.5703344579678209E+00    2.7718408145121911E+00    9.2295449152717222E+00
Pb   -1.8952739815564039E+00   -3.2637302556397816E+00    4.1311380796962789E+00
Pb   -1.0976153930028316E+01    7.9013930036152944E+00    1.7455421288398449E+00
Pb   -1.1126055827200210E+01    6.8240115038706488E+00   -4.3467385292506169E+00
Pb   -7.7892772049180623E+00   -1.2144162625498829E+01   -6.2253803135772783E+00
Pb   -5.3709356341465151E+00    5.9740205841140979E+00   -1.0885496420373077E+01
Pb   -9.0352393794456738E+00    1.8097457663134522E+00    3.2854993720299697E+00
Pb   -1.0589469377516092E+01    8.5232006050747913E+00    8.1012268086815862E+00
Pb   -2.4711643102407117E+00   -4.2539580786992266E+00   -1.6528348106764919E+00
Br    5.3322359346618875E-01   -3.9118764366559629E+00   -2.0551802427685963E+00
Br    3.6871005097681113E+00   -4.0239549801970975E+00   -5.5235227641691358E+00
Br    2.1650932592734762E+00   -1.4934704732726220E-01   -3.6049308630247201E+00
Br    1.7115827200124685E+00   -9.2424425669857762E+00   -1.2525941817280537E+00
Br    4.8019924556724778E+00   -9.8921816796601156E+00   -4.6052290413277204E+00
Br    3.9202460814511997E+00   -5.4326887833435071E+00   -2.3179651117109410E+00
Br   -2.7140364883385462E+00   -4.7443536209536585E+00   -4.7007845276739770E+00
Br   -7.8611987682732867E+00   -3.6360689865816012E+00    7.7781683909694106E+00
Br   -2.5801485476527182E+00   -1.4945881745489327E+00   -2.8048274569823319E+00
Br    4.7379060038837766E+00   -1.1340626891143858E+01   -1.2533063490926963E+00
Br    1.3070766212038889E+01   -9.2976928870498876E-01    1.8736118762648954E+00
Br   -4.6682723555779742E+00   -1.0103909333714563E+01   -9.8522858705941940E-01
Br   -1.0604916647554610E+01   -4.4620009980390227E+00    4.7361321891473107E+00
Br   -8.2955840497144457E+00   -3.7673944421205907E+00    1.7218007661885737E+00
Br    1.3900189493268668E+01   -6.1969552775947996E+00    3.1679130446120967E+00
Br   -2.0998391651765651E+00    7.7253605608438951E+00   -5.0223095413057575E+00
Br    1.0380142175912557E+00    8.3065044502679921E+00   -7.8015108528888915E+00
Br   -7.0444877233972414E-01    1.1314288367715957E+01   -5.6726342041247362E+00
Br   -7.1460032429533638E-01    1.9583818502381316E+00   -3.2370179711029290E+00
Br    1.3364401521628186E+00    2.6318686052182576E+00   -6.6099245545044054E+00
Br    1.4259416660494768E+00    6.1366047415420431E+00   -4.5474961156776503E+00
Br    1.1441302526634969E+00   -2.1304211892037852E+00    3.4403793085340491E+00
Br    3.1164773810868507E+00   -2.0462551192905818E+00    2.5048181256233337E-01
Br    3.6829609850049283E+00    1.4425462928194506E+00    2.8120581133958820E+00
Br    2.3911278608150397E+00   -8.4662985903104264E+00    3.8877742473366448E+00
Br    4.9835897748873066E+00   -7.9367607517776602E+00    8.7698466553920562E-01
Br    4.7673886923962607E+00   -4.8683172339815686E+00    3.6669454945728011E+00
Br   -8.3084242927325516E+00    5.1865945344425413E+00   -1.0905690228604460E+01
Br   -4.8463128498027297E+00    5.6704239239932637E+00   -1.3632914049432413E+01
Br    5.3653408672776530E+00   -1.0682260261529649E+01    4.5804759116472429E+00
Br   -5.2809413067619477E+00    8.9650287329349077E+00   -1.0879412424903538E+01
Br   -5.1802952226151611E+00    3.1075399662954131E+00   -1.0253999473003567E+01
Br   -8.4233385345405658E+00   -7.4823247617666999E-01    4.8223993086116259E+00
Br   -1.8686529854804783E+00   -1.1014393844955313E+01   -4.0903730309731312E+00
Br   -7.4520010843801190E+00    8.1677088060445495E+00    2.3358449401477515E+00
Br   -4.7520793979871581E+00    8.3017931564355223E+00   -1.6539676407742583E+00
Br   -5.8233780205135446E+00    1.1342916016995497E+01    2.9210499147882396E-01
Br   -1.9875719065509510E+00    9.7065730519277249E+00    6.7881178081622140E-01
Br    1.2133899693526147E+00    9.1023639146356228E+00   -1.7438356884858923E+00
Br    9.6897653298634823E-01    1.2946139013602822E+01    6.2628741394393472E-01
Br   -6.7048087413688090E-02    2.9111104894465187E+00    1.9371342726887306E+00
Br    2.1257331652002791E+00    3.4448287871899037E+00   -8.4940800339244871E-01
Br    1.7008344020788655E+00    6.9537124017051157E+00    1.7459319202736998E+00
Br    1.4401983224064541E+00   -9.9465047815521579E-01    9.4676351444262341E+00
Br    4.0518457715108838E+00   -8.5645029131724659E-01    6.3428148361032122E+00
Br    3.9160688684516298E+00    2.4428132315887079E+00    8.8668901750706155E+00
Br    2.5434268428379232E+00   -7.1090793777005334E+00    1.0099352382122952E+01
Br    5.4506052018063045E+00   -6.7913066072227073E+00    7.0010573471646129E+00
Br    5.2720433037094336E+00   -3.2902783488457921E+00    9.6257892663954596E+00
Br   -1.1830026776081803E+01    1.0219914961158036E+00    3.1820942742521816E+00
Br   -9.3385974143499073E+00    1.8897875476829835E+00    3.4780397442074833E-02
Br    6.8892810532960054E+00   -8.5940614719782413E+00    1.0636140817949798E+01
Br   -9.8304211713228415E+00    4.7474289553637021E+00    2.9366166609978031E+00
Br   -8.0774404086376563E+00    1.0106194114728869E-02    9.5469840231729464E+00
Br   -1.7462274010894026E+00   -7.0391413521474160E+00   -1.6407961059669700E+00
Br   -5.9954005533356458E+00    2.0992171300889928E+00    2.8140914598235671E+00
Br   -3.1163000130696505E+00    2.2704703251864280E+00   -3.7045907007903639E-01
Br   -3.3286594369907663E+00    5.4642613622014560E+00    1.8281068380750931E+00
Br   -1.4548610199120569E+00    9.7384917428600453E+00    7.1430824715218648E+00
Br    5.1055680467832909E-01    9.8586225241540557E+00    4.0249369322103137E+00
Br    1.1032210630272044E+00    1.3153341551647140E+01    6.8884109655999080E+00
Br    4.0984620059266480E-01    3.8378358996358659E+00    7.4770334347207417E+00
Br    3.2031588899464434E+00    5.1317557435546162E+00    4.8723593334679416E+00
Br    1.9647603720626177E+00    7.6501855800082534E+00    7.7044781132146731E+00
Br   -4.8459605333947575E+00   -2.3023079884651123E+00    9.3234909681648652E+00
Br    4.4637596096388927E+00    2.5409224602993635E-01    1.2031029683602126E+01
Br   -1.0976845930017725E+00   -2.4576810348501943E+00    6.9255989090642380E+00
Br   -2.2971190574626066E+00    1.2292302405439910E+00    9.2797609783063457E+00
Br   -1.5264918389758646E+00   -1.2873330328259993E+01   -7.3029713315619393E-01
Br    5.9610082176830268E+00   -5.0842243332701091E+00    1.2659367075046134E+01
Br   -1.2516746168183154E+01    4.3842296820736970E-01   -1.8298923623657906E+00
Br   -1.8975759608003451E-01   -1.1622652378139977E+01    5.3380267301576412E+00
Br   -1.0975272669396398E+01   -4.8579045530217533E+00   -1.0920913191433028E+00
Br    1.3260525630511939E+00    1.0393189449171819E+01    1.0409930003856136E+01
Br   -8.6563330702116961E+00   -5.2859716685519240E+00   -3.9967351844536352E+00
Br   -8.8663221461709725E+00   -1.7796593383022032E+00   -1.9227944902893273E+00
Br    3.0625410786578038E+00    5.7099264081206202E+00    1.0875517613619373E+01
Br   -8.0978129055306081E+00    6.5679492259717138E+00   -4.7905022390417402E+00
Br   -4.7211781154922186E+00    5.8465886656514821E+00   -7.4640567574242507E+00
Br   -5.0059314073660897E+00    9.8918056140839639E+00   -5.4033581415867022E+00
Br   -6.5162743797709890E+00    1.1100842003395111E+00   -2.9015104138930301E+00
Br   -9.8549378880150940E+00   -1.0125899205168627E+01    6.7048420330029543E+00
Br   -3.7596098665454503E+00    1.0726145457797565E+00   -6.1383579333282343E+00
Br   -6.3102712102341876E+00   -5.5384181415472726E+00   -7.3652914599531680E+00
Br   -3.2934027864834294E+00   -6.0890016880739415E+00   -1.0379523506072996E+01
Br   -3.9174099881459115E+00   -2.6804198889648747E+00   -8.2836248662761545E+00
Br   -1.4807496703278020E+00    4.3520905020039136E+00    1.1293955053119353E+01
Br   -2.8729957615303228E+00   -8.6297453930010271E+00    1.1457532146482311E+01
Br   -4.7246578437224844E-03   -8.6638255562908153E+00    7.6654473874069060E+00
Br   -1.3225973268523832E+00   -4.8279015019053446E+00    1.0395357666740468E+01
Br   -6.8464433011563877E+00   -9.6366982657094518E+00    2.8853511082445582E+00
Br   -7.3666126722707057E+00   -6.5933995277464428E+00    5.4039323887151021E+00
Br   -9.4089842375488466E+00    8.9342254090405842E+00    1.0531956772191002E+01
Br    9.8012223051357825E+00    1.1109886070152623E+01    4.3193222857045532E-01
Br   -5.4837664820281926E+00   -7.3189810658077983E+00    1.4374900486013292E+01
Br    9.8345361799698523E+00    1.0209192926845569E+01   -4.8788723165417700E+00
Br    1.1367595864837906E+01    5.9237661591898512E+00    6.3861016001334747E-01
Br   -7.5604316295159304E+00    4.2392509138517305E+00    1.2030742476341837E+01
Br   -1.1951473161889714E+01   -6.9549872600893643E+00   -6.1015108218493177E+00
Br    1.3118050823802896E+01    1.9369630753447642E+00    6.4703477659815034E+00
Br   -4.0077174390830965E+00   -8.7108925190363866E+00    5.5908724473308471E+00
Br    5.5529150274691892E+00   -3.3266691926527558E+00   -8.9379196710096416E+00
Br    9.0454237326306526E+00   -4.6740427406264393E+00   -1.2124392654559594E+01
Br    1.4060292036336293E+01   -4.4977919426070399E+00    8.0392997050511035E+00
Br    8.1441725442160955E+00   -7.6228032199987095E-01   -9.8381142862527788E+00
Br   -5.6703855060321802E+00   -1.1743326781627285E+01    1.2980449159233723E+01
Br   -1.5107773220091183E+00   -9.3874104143506365E+00    2.0017904426613216E+00
Br   -8.7741284892970584E-01   -5.9908238768571644E+00    3.8702818186918910E+00
Br    7.3589358083654615E+00   -1.0129150636913918E+01   -7.5533948625831835E+00
Br   -4.8504302179296239E+00   -1.2099038763305970E+01   -6.4529821044263356E+00
Br    8.5884382204732361E+00   -1.0723937710591773E+01   -1.0985767209051634E+01
Br    8.8416686834457501E+00   -6.1000592107172560E+00   -8.5320585891057075E+00
Br    5.1779610438842461E-01   -1.0301881373838311E+01    1.1629787829964519E+01