 # Version information for this restart file 
 # current date 2021-06-17 12:33:57.985
 # current working dir /user/ub2042/exercises/2_fitting/MM_MD_workdir/md_settings
 # Program compiled at                              Thu Apr 22 21:44:59 EDT 2021
 # Program compiled on                cpn-k07-07-02.compute.cbls.ccr.buffalo.edu
 # Program compiled for                                                    local
 # Source code revision number                                       git:36754bb
 &GLOBAL
   PRINT_LEVEL  LOW
   PROJECT_NAME cp2k
   RUN_TYPE  MD
 &END GLOBAL
 &MOTION
   &MD
     ENSEMBLE  NVT
     STEPS  10000
     TIMESTEP     2.4999999999999996E+00
     STEP_START_VAL  6500
     TIME_START_VAL     1.6249999999999092E+04
     ECONS_START_VAL    -1.3925666412857368E+01
     TEMPERATURE     3.0000000000000000E+02
     &BAROSTAT
       PRESSURE     1.0100000000000000E+00
       TIMECON     9.9999999999999982E+03
     &END BAROSTAT
     &THERMOSTAT
       TYPE  CSVR
       &CSVR
         TIMECON     9.9999999999999982E+03
         &THERMOSTAT_ENERGY
              -2.2262996643115596E-01
         &END THERMOSTAT_ENERGY
         &RNG_INIT
Wiener process for Thermostat # 1        1 F T F  -2.3128527479914282E-01        1729520286.0         791701394.0        1751649578.0        1556234409.0        3197624234.0        4093563390.0             12345.0             12345.0             12345.0             12345.0             12345.0             12345.0             12345.0             12345.0             12345.0             12345.0             12345.0             12345.0
         &END RNG_INIT
       &END CSVR
     &END THERMOSTAT
     &AVERAGES  T
       &RESTART_AVERAGES
         ITIMES_START  1
         AVECPU     1.7865894091530467E-02
         AVEHUGONIOT     0.0000000000000000E+00
         AVETEMP_BARO     0.0000000000000000E+00
         AVEPOT    -1.4268562720358519E+01
         AVEKIN     4.6156721868302292E-01
         AVETEMP     2.3413851560348945E+02
         AVEKIN_QM     0.0000000000000000E+00
         AVETEMP_QM     0.0000000000000000E+00
         AVEVOL     6.7483345830909889E+06
         AVECELL_A     1.8897261328855731E+02
         AVECELL_B     1.8897261328855731E+02
         AVECELL_C     1.8897261328855731E+02
         AVEALPHA     9.0000000000000000E+01
         AVEBETA     9.0000000000000000E+01
         AVEGAMMA     9.0000000000000000E+01
         AVE_ECONS    -3.7184201431776907E+00
         AVE_PRESS     0.0000000000000000E+00
         AVE_PXX     0.0000000000000000E+00
       &END RESTART_AVERAGES
     &END AVERAGES
     &PRINT
       &ENERGY  SILENT
         &EACH
           MD  10
         &END EACH
       &END ENERGY
     &END PRINT
   &END MD
   &PRINT
     &TRAJECTORY  SILENT
       &EACH
         MD  10
       &END EACH
     &END TRAJECTORY
     &CELL  SILENT
       &EACH
         MD  10
       &END EACH
     &END CELL
     &VELOCITIES  SILENT
       &EACH
         MD  10
       &END EACH
     &END VELOCITIES
     &FORCES  SILENT
       &EACH
         MD  10
       &END EACH
     &END FORCES
     &RESTART  SILENT
       &EACH
         MD  10
       &END EACH
     &END RESTART
   &END PRINT
 &END MOTION
 &FORCE_EVAL
   METHOD  FIST
   &MM
     &FORCEFIELD
       VDW_SCALE14     1.0000000000000000E+00
       EI_SCALE14     1.0000000000000000E+00
       SHIFT_CUTOFF  T
       DO_NONBONDED  T
       IGNORE_MISSING_CRITICAL_PARAMS  T
       &SPLINE
         R0_NB     2.5000000000000000E-01
       &END SPLINE
       &NONBONDED
         &LENNARD-JONES
           ATOMS Br Br
           EPSILON     1.2630795322675199E+02
           SIGMA     3.6900000000000004E+00
         &END LENNARD-JONES
         &LENNARD-JONES
           ATOMS Cs Pb
           EPSILON     8.6920055954630968E+01
           SIGMA     3.6699999999999999E+00
         &END LENNARD-JONES
         &LENNARD-JONES
           ATOMS Cs Cs
           EPSILON     2.2644852172126850E+01
           SIGMA     4.5300000000000002E+00
         &END LENNARD-JONES
         &LENNARD-JONES
           ATOMS Pb Pb
           EPSILON     3.3363415533600227E+02
           SIGMA     6.1000000000000005E+00
         &END LENNARD-JONES
         &LENNARD-JONES
           ATOMS Br Cs
           EPSILON     5.3481070753900497E+01
           SIGMA     3.6300000000000003E+00
         &END LENNARD-JONES
         &LENNARD-JONES
           ATOMS Br Pb
           EPSILON     2.0528187276773045E+02
           SIGMA     2.9800000000000000E+00
         &END LENNARD-JONES
       &END NONBONDED
       &CHARGE
         ATOM Cs
         CHARGE     4.1739999999999999E-01
       &END CHARGE
       &CHARGE
         ATOM Pb
         CHARGE     8.3479999999999999E-01
       &END CHARGE
       &CHARGE
         ATOM Br
         CHARGE    -4.1739999999999999E-01
       &END CHARGE
     &END FORCEFIELD
     &POISSON
       PERIODIC  XYZ
       &EWALD
         EWALD_TYPE  SPME
         GMAX  62 62 62
         O_SPLINE  4
       &END EWALD
     &END POISSON
     &PRINT
       &FF_INFO  LOW
         SPLINE_INFO  F
         SPLINE_DATA  F
       &END FF_INFO
     &END PRINT
   &END MM
   &SUBSYS
     &CELL
       A     1.0000000000000001E+02    0.0000000000000000E+00    0.0000000000000000E+00
       B     0.0000000000000000E+00    1.0000000000000001E+02    0.0000000000000000E+00
       C     0.0000000000000000E+00    0.0000000000000000E+00    1.0000000000000001E+02
       PERIODIC  XYZ
       MULTIPLE_UNIT_CELL  1 1 1
     &END CELL
     &COORD
Cs   -3.0684835698771079E-01   -3.1633791774857817E-01   -6.3665070597636815E+00
Cs    3.1927593280540656E-01   -6.7351391181098181E+00   -5.2074486455363491E+00
Cs    1.7174530690916776E+00   -1.2194804692526569E+01   -4.7365919392700739E+00
Cs   -5.2630849168170073E+00   -6.9602208485560828E+00   -5.6066989998951584E+00
Br   -8.3742482061461523E+00   -1.3873671424409057E+01   -7.1114655782497334E+00
Br    1.1939411102439250E+01   -2.5732345926317577E+00   -9.8890438580931797E+00
Br   -3.6400743072284047E+00    1.4150402011769496E+00   -1.2248815330654924E+01
Cs   -1.4230662704118635E+00    5.5839662700800847E+00   -6.6134722055519486E+00
Cs    1.2493981023412322E+00    5.8159500735342214E-02   -1.5502168196704520E+00
Cs    7.8162061982060549E-01   -5.8112435539706446E+00    3.4309081308359474E-01
Br   -5.5916983098844604E+00   -2.7461941020778635E+00    3.3787895171156346E+00
Cs   -9.4432260987338967E+00   -5.1710984569769858E+00    1.2599618994617094E+01
Cs    1.1331216224916140E+01   -1.1399791888528339E+01    1.0078286272467225E+00
Cs   -7.3731084436224670E+00    5.4224373794227514E+00   -4.6221532393201170E-03
Cs   -9.5320368713364456E-01    1.1211267355747538E+01   -1.0680510812879578E+00
Cs   -8.6170301368267255E-01    6.1069219110172410E+00   -1.2446940069424579E+00
Cs    6.2534083755254011E-01    3.8840278343660334E-01    6.5939135258875314E+00
Cs    1.4678507805542629E+00   -4.9930782315695046E+00    6.4454910877344593E+00
Cs    7.9189507380701074E-01   -1.0729468167754298E+01    7.8843935909835192E+00
Cs   -6.0157850885417279E+00    6.1023686944442126E+00    1.0921012626261051E+01
Cs   -5.6647944756935145E+00   -1.6329666433105658E+00   -1.0573846762138938E+01
Cs   -4.7501202283622757E+00   -1.2156640591435105E+01   -4.3695589907744274E+00
Cs   -5.2999092191066977E+00    2.9062067515956269E-01    6.0473970913755171E+00
Br   -2.6690378182023937E+00   -2.8865863417803914E+00    3.1622249597676966E-01
Cs   -6.6127544593993925E-01    7.1707683948361822E+00    5.5592674787476808E+00
Br    1.3308573631622911E+01   -7.7167265839028136E+00   -9.0122805011591662E+00
Cs    1.0285108104321889E+00   -4.8358748690460143E+00    1.1775565539032202E+01
Br   -3.0883067148340593E+00    3.8621641038582555E-01    3.2968025741892930E+00
Br   -7.1363211498171051E+00   -2.2872601630379497E+00    1.2283412981835346E+01
Cs    9.3503105623802387E+00    1.2268425340632483E+01   -8.8364516879840007E+00
Cs   -9.8666558275467811E+00   -6.6610530404226598E+00    6.7882693826751144E+00
Cs   -4.2465050470912526E+00   -5.2839385551833491E+00    7.3301224745740781E+00
Cs   -8.6995164426892995E+00    9.9439322631639069E+00   -6.1786886759820785E+00
Br   -9.5060127762867292E+00   -1.1369091302528760E+01    1.0781371516362256E+01
Br   -7.7826192877105953E+00   -9.7903876346712444E+00    7.5018311660066139E+00
Cs   -1.0994641592642976E+01   -7.4337357896420135E+00   -4.9269860011796371E+00
Cs   -7.2268848975102911E+00    4.6616672770372984E+00   -5.9142351538275859E+00
Br   -8.5598082511602716E+00   -6.8070745445974303E+00    9.8296153908693462E+00
Cs    1.2441948709884688E+01    7.7134634380236689E+00    8.6841471384979840E+00
Br   -1.1910219816629079E+01    8.7145691244461414E+00    8.4533314381484175E+00
Br   -5.5000281988916635E+00   -3.7542146599279489E+00   -1.9884590517968388E+00
Cs    7.0465906961857872E-01    2.2778267070324865E+00    1.2111165545987946E+01
Cs    1.1026705308347861E+01    6.8755635232923771E+00   -9.1910257896541891E-01
Cs   -8.7603360926539100E+00   -8.4335968680166111E+00   -1.2479722021007255E+01
Cs    1.1760285031895915E+01    1.4746306380525682E+00    6.0942649484030573E+00
Cs   -1.3700910026963298E+01    8.9500144578457945E+00   -5.9759367031772248E+00
Cs    1.3081183559271993E+01   -9.5438467206921995E+00    6.9462155615069445E+00
Cs    7.1242911564111706E+00   -7.0643809245131157E+00   -1.0839097576003004E+01
Cs    7.4079641856675069E+00   -9.8381656878863861E+00    5.9566964825866773E+00
Cs   -3.6803813465348520E+00   -1.2729679924366762E+01    1.3862399988143428E+00
Cs    8.6276815349564178E+00   -1.2134158750442746E+01   -1.0968569679066064E+01
Cs    1.0283705408810622E+01    6.9748666982860863E+00   -7.2015493455720492E+00
Cs    1.1101029831067052E+01    1.1765280868134766E+01    3.6245820655913041E+00
Cs    1.0227868068547393E+01    5.6933753628971209E+00   -1.2188648530731687E+01
Cs    1.2170584058981319E-01   -7.1199916720049421E+00   -1.0650509945732729E+01
Cs   -1.1102133925293947E+01   -3.0210352742634403E+00   -4.5905355056951800E+00
Cs    7.1444283130425577E+00   -4.5032242619004466E+00    1.1557828063504545E+01
Cs    1.1173644037275732E+01   -4.7936561979792831E+00    6.4697269178815651E+00
Cs   -1.0352025501303991E+01   -1.1903708806213814E+01    1.4145410536011282E+01
Cs   -6.9470865001394891E-02   -1.4947723686991314E+00   -1.1481905054821141E+01
Cs   -7.6239077348787321E-01    1.2907113046509696E+01    4.6621687006006987E+00
Cs   -1.9194942865744482E+00    4.4970582824973393E+00   -1.2568644309080584E+01
Cs    6.1573055710220865E+00    4.1020870668882886E-01   -6.2735002045947432E+00
Cs    6.6523830976990315E+00   -5.9062981250288118E+00   -4.6628178541139853E+00
Cs   -4.2683649706665490E+00   -1.0953147079269552E+01    7.3300784457907202E+00
Cs   -1.1221811708992906E+01   -5.1615750689662465E-01    7.1348459339464476E+00
Cs    5.5496540329806718E+00   -1.1595073008075374E+00   -1.2481562443225604E+01
Cs    4.4532143148125041E+00    9.9717437112284220E+00   -1.3386598999633481E+01
Cs    7.9881503176712942E-01    7.3832781441261544E+00    1.0327055089778819E+01
Cs   -6.8474083483277850E+00    1.1307411852387469E+01    5.4349494072596167E+00
Cs    3.4602300916461095E+00    1.1001423982334897E+01   -8.4700742296367846E+00
Cs    4.7233016489690227E+00    5.9181953505474221E+00   -7.8942757889888036E+00
Cs    6.3262452694090747E+00    5.8352964608675817E-01   -5.5097318805219564E-01
Cs    6.3253749831166406E+00   -5.2813107685528893E+00   -1.5779087403285308E-01
Cs    6.3968189492616254E+00   -1.0346603351219350E+01    4.8682115990937019E-01
Cs    5.0139047976081121E+00    5.0368015380315203E+00   -1.2596042056771520E+01
Cs   -7.1401589541675543E+00    6.3740043645850095E+00    5.6691346507876625E+00
Cs   -5.1946484296378816E+00   -8.2313856967565950E+00   -1.0646557303521716E+01
Cs    5.8919057809258950E+00    6.5108078577204891E+00   -8.6234958043862897E-01
Cs    6.2184000022290702E+00    1.4335774600227127E+00    5.6500918388233297E+00
Cs    5.9946438697621165E+00   -4.2934173342169863E+00    6.1882680295767223E+00
Cs   -6.9742191778183376E+00    1.1205971350630245E+01   -1.1617722319579047E+00
Cs    1.2246806632601590E+01    1.2707125005396251E+00    3.0890763220055223E-01
Cs   -5.0347529808869860E+00   -3.4019859770464966E-01    5.3564306463928461E-03
Cs   -1.2051908408919594E+01    5.9907509621076596E+00    6.5840087627877448E+00
Cs   -5.6052776483907616E+00    1.1485457252944964E+00    1.1448451171852327E+01
Cs    5.3307159456291684E+00    1.2557999421410791E+01    4.7188001650113058E+00
Cs    5.0219572991157291E+00    8.0167916009451545E+00    4.5185387102026695E+00
Cs    5.7457128154023502E+00    2.3370160457495794E+00    1.1495835110433307E+01
Cs    4.3841567006242128E+00    1.1862636992749538E+01   -1.6931299133590334E+00
Cs    1.1924864786057078E+01   -3.9363943964004949E-01   -6.7374389038777123E+00
Cs    1.2670528605342550E+01   -6.2780601418361890E+00   -4.9516906532567813E+00
Cs    7.5298482766098420E+00   -1.0234604339543054E+01    1.1916435561495835E+01
Cs    1.0206287555284078E+01    1.2433592818177621E+01   -2.0248026678015045E+00
Cs   -1.0359887348327334E+01    1.9525092782130580E+00    1.3606798308654797E+01
Cs   -8.4084431661037549E+00    3.9351263244716410E+00   -1.2076121795729177E+01
Cs   -1.2620281609367124E+01    1.0591420228224370E+01   -9.3859463614397765E-01
Cs   -4.4083428600642494E+00   -4.6784787736829001E+00    1.2254562592317290E+01
Cs   -3.4466500403121483E+00   -1.0215746223720970E+01    1.3601276120433596E+01
Cs    6.3559952503924144E+00    7.8524349607918724E+00    1.0240093529423564E+01
Cs    1.2194719813152934E+01   -4.3757737692182417E+00   -2.5145051376860433E-01
Cs   -1.1038519751196970E+01   -1.6796199326351802E+00    5.0939755532921160E-01
Cs   -9.0644515020756291E+00    1.0546993908568849E+01   -1.1471988146196638E+01
Cs   -1.3262437383689315E+01    4.2439780884506355E+00    2.0676351200619796E+00
Cs   -1.0759292048348891E+01   -1.3311884048191111E+01   -4.3086032820325704E+00
Cs   -1.0125677294284054E+01   -8.1011441130351418E+00    7.2810617531246768E-01
Cs   -5.5924867807484491E+00   -5.3159395799727118E+00    8.1272512878308922E-01
Cs   -1.0622906516357190E+01   -1.1865615178873609E+01    7.6468306333817688E+00
Cs    1.2854076351817964E+01   -4.8293072034834017E+00    1.1554189458292303E+01
Cs    1.1494031299371901E+01    6.5684041029838518E+00    4.6356810625673308E+00
Cs   -1.2601999693185229E+01    4.0656101755432177E+00   -5.6224556130699144E+00
Cs   -6.2987435278045512E+00   -8.6348764183068472E-01   -5.5452882798333842E+00
Cs   -9.6742791052509727E+00   -1.3549795749680532E+01    1.4293818260623032E+00
Cs    1.1595842657341310E+01   -5.5158919117974712E+00   -1.1681571093440159E+01
Cs   -5.5223434559080831E+00   -1.3384480825421820E+01   -9.4737829234792290E+00
Cs   -1.7110643416553888E+00    1.0596829925691411E+01   -1.2242662038444355E+01
Cs    1.0268410767869942E+00   -1.1666398670618252E+01   -1.1057914866470128E+01
Cs   -2.5356953983561552E+00    1.2120896121888864E+01   -6.5724556789088311E+00
Cs   -6.5531639368410302E+00    1.2285756295182203E+01    1.0698284641188106E+01
Cs    9.9734962751506995E-01   -1.1258400744131155E+01    1.6667286833592017E+00
Cs   -1.2203490161359415E+01   -2.4944274556097468E+00   -1.0371225687543241E+01
Cs   -1.1516140939985545E+01    1.2898499994821737E+01    5.3545362438849029E+00
Cs    7.6660161136051119E+00   -1.1678493776387898E+01   -5.3315602233432751E+00
Cs    9.8628016020521656E+00   -3.2213181780417671E-01   -1.2614617401033241E+01
Cs    1.4683625378249560E-01    1.3058957922807540E+01    9.6210863838309031E+00
Pb    3.2800851420332888E+00   -2.6786305233551060E+00   -3.3350959193868706E+00
Pb    3.9358385607741009E+00   -8.3997791978346861E+00   -2.5080737036651106E+00
Pb   -8.3266153678095112E+00   -3.7309589496578375E+00    3.7783423342604525E+00
Pb   -1.8556975927081019E+00   -9.2086305577200100E+00   -1.6907472464844759E+00
Pb    1.5180825236380964E+00    8.9622170804395704E+00   -4.4216861953338515E+00
Pb    2.9685835363821003E+00    3.3188537637362838E+00   -4.0277351030894284E+00
Pb    3.5958801572158663E+00   -2.3921366751515283E+00    2.8452877967639090E+00
Pb    3.9322518547046101E+00   -8.1227620460355521E+00    3.6407562111398528E+00
Pb   -4.2214436687203110E+00    9.0280368936692366E+00    1.9628031274868984E+00
Pb    2.0256923361326651E+00    9.7429514360137528E+00    1.7572196520697021E+00
Pb    3.0343643635633955E+00    3.9661634806869759E+00    2.3089264074935913E+00
Pb    3.5908660451621763E+00   -1.7001142780161511E+00    9.3450808825666734E+00
Pb    4.1066509435572751E+00   -7.9788354364975635E+00    9.8339332054758142E+00
Pb   -3.3038884963810418E+00    3.3508322380298750E+00    2.7864961668523551E+00
Pb    2.4615014186789401E+00    1.0438618075279448E+01    7.7134762913147892E+00
Pb    3.0763464530009479E+00    4.2507487924698300E+00    8.2653208547591586E+00
Pb   -2.2644712093992134E+00   -1.5725908921925558E+00    9.3228433287576440E+00
Pb   -7.6671504340328580E+00   -9.6965505150324187E+00    4.6308022359674998E+00
Pb   -9.3219564674316171E+00    1.5733725036148316E+00   -2.4567639597176929E+00
Pb   -2.7305312682937610E+00   -4.4127726381363352E+00   -8.3655509543975182E+00
Pb   -2.2200313695586975E+00   -8.4372830734453732E+00    4.0776248727369273E+00
Pb   -4.5407881563260020E+00    8.3739850439827119E+00   -3.8868252158168781E+00
Pb   -1.8501546004712959E+00   -7.4807137894642297E+00    1.0390044193537447E+01
Pb   -8.2992602583379629E+00   -4.4090036936652064E+00   -2.0748398573594837E+00
Pb   -7.8695595451477196E+00   -1.0806900603073078E+01   -1.4380904856456898E+00
Pb   -3.4351258384398058E+00    2.3022612566700591E+00   -3.3419660979197721E+00
Pb   -7.2595026490700274E+00   -9.3331943135998010E+00    1.0710168441830632E+01
Pb   -8.9708598941694735E+00   -4.7568224939890209E+00   -8.1302026306067923E+00
Pb    9.0461046191872256E+00   -3.0890900963154753E+00   -8.8566361189517711E+00
Pb    1.0695246530647125E+01   -8.8406589431230849E+00   -8.5550166018938913E+00
Pb   -2.3461198387178155E+00   -1.0598423166601966E+01   -7.5749518498306720E+00
Pb   -1.0823909231675660E+01    7.1704023338277345E+00   -9.3728240837792534E+00
Pb    2.9260660643746008E+00   -3.8545909090234125E+00   -9.1562896722516278E+00
Pb    4.0956183760223670E+00   -1.0025777512870356E+01   -8.5837709569681664E+00
Pb   -3.5255484686097520E+00    1.6620115233926722E+00   -9.4216369588825390E+00
Pb    1.2677679902290104E+00    7.8477973838747372E+00   -1.0564630409726664E+01
Pb    2.2744290096889830E+00    1.9478681881820405E+00   -9.9529748873218171E+00
Pb    9.3353546386685267E+00   -2.2658742118756892E+00   -3.0329754031296505E+00
Pb    1.0080019307597597E+01   -8.6044883353774981E+00   -2.1948282812151714E+00
Pb   -8.0392090684578630E+00   -2.6399707356740612E+00    9.6031214902294249E+00
Pb    7.4365823997282865E+00    8.7925197118193790E+00   -1.0580200091950907E+01
Pb   -9.5462226059045321E+00    1.0744502986790849E+00   -8.7429569441537645E+00
Pb   -3.5566925816107964E+00    1.0461015575739280E+01    7.8463546454064987E+00
Pb    7.5161661105018442E+00    9.6164619133014266E+00   -4.6647018914657705E+00
Pb    8.8678432146337585E+00    3.5455599843422090E+00   -3.8316380384244924E+00
Pb    9.3497360840409947E+00   -2.3103010281883400E+00    2.8283176718550127E+00
Pb    1.0041117932004763E+01   -8.1691088942529433E+00    3.5347075444048057E+00
Pb    8.1786473659146424E+00    2.8406905990281999E+00   -9.5778892702732978E+00
Pb   -2.8537367945921344E+00    4.0389920658029448E+00    8.4991896587340001E+00
Pb    8.1467638589385807E+00    9.8358238642604530E+00    1.3550586821667370E+00
Pb    8.7111194276211048E+00    3.6647897273611609E+00    2.0804251971914502E+00
Pb    9.5152087742504410E+00   -1.4781497311372511E+00    8.9997757254816495E+00
Pb    1.0131429332584789E+01   -7.8844972056894393E+00    9.4401939036813687E+00
Pb    8.7143878486413247E+00    1.0375786291353666E+01    7.2916050772710088E+00
Pb    9.0461832916252849E+00    4.3238328102038359E+00    8.2727714582617686E+00
Pb   -9.0977174253539381E+00    3.3186537248026622E+00    9.6298846758083183E+00
Pb   -2.3963457540602700E+00   -2.5072033748843832E+00    3.3162938915008158E+00
Pb   -1.0548395028295653E+01    8.3463801251153935E+00    3.1286936311661449E+00
Pb   -1.0337275973526820E+01    7.1548557917822304E+00   -3.2470203392043842E+00
Pb   -8.2056562184657622E+00   -1.1206312707572646E+01   -7.4585500465365380E+00
Pb   -4.7275447083482431E+00    7.8492773576257768E+00   -1.0091646631716500E+01
Pb   -9.1634925907057738E+00    2.4506662348458059E+00    3.4038723248064779E+00
Pb   -9.2390436998493151E+00    9.3281613019106278E+00    9.2519524090226266E+00
Pb   -2.3129756123769027E+00   -3.5175465861328892E+00   -2.5169593176595439E+00
Br    4.1855416898522790E-01   -2.5142851170341900E+00   -3.2358346592842375E+00
Br    2.6875851907688109E+00   -3.8364492769159382E+00   -6.2293066287967882E+00
Br    3.7487371223866655E+00    1.8157831242435962E-01   -3.5945277700953748E+00
Br    8.3332345363000737E-01   -8.9731530911811852E+00   -1.9962566882972277E+00
Br    4.0019220517891094E+00   -9.0318197934902322E+00   -5.8967539319343176E+00
Br    3.5840117833153902E+00   -5.7189319987471450E+00   -2.8310605357324388E+00
Br   -3.1001448449047309E+00   -4.2936187836743702E+00   -5.2258292176944003E+00
Br   -8.3989580295044313E+00   -3.0398670486790227E+00    6.7705901212420319E+00
Br   -2.9826888350421976E+00   -5.7919463406090343E-01   -2.8259730020428693E+00
Br    4.1522081316741062E+00   -1.1229012876987721E+01   -2.3988557686177678E+00
Br    1.1908227377601905E+01   -1.5888127898208315E+00    1.6561287677724981E+00
Br   -4.9949421145626918E+00   -1.0024656874673676E+01   -1.6518575153873150E+00
Br   -1.0844089549992951E+01   -4.7258212211703663E+00    4.1914813756494214E+00
Br   -8.7678490115798358E+00   -4.1681644451618967E+00    8.5037349138092144E-01
Br    1.2631246901244994E+01   -9.7944864295919398E+00    3.7622074464042270E+00
Br   -1.5499138792253824E+00    8.5039562216814417E+00   -3.6737315121853018E+00
Br    1.8186957005386317E+00    8.2744423521310093E+00   -7.4351137328381638E+00
Br    5.5414190300711397E-01    1.1692431602961809E+01   -4.1914447793103040E+00
Br   -3.1516554452739189E-02    2.6876301061664765E+00   -3.8632372328375273E+00
Br    3.6836381968985017E+00    2.7459765439366750E+00   -6.8639264745047219E+00
Br    1.8331659958664055E+00    5.9898535459682662E+00   -4.5684404614775875E+00
Br    5.3325985781507945E-01   -2.7625249794346685E+00    3.2985176407834982E+00
Br    3.7535516578016330E+00   -2.4381681361199519E+00   -1.0239296922060206E-02
Br    3.6457047868905081E+00    4.5149415599437809E-01    2.4742540135307167E+00
Br    9.2598450548357913E-01   -8.3014763273417991E+00    4.3389066301351393E+00
Br    4.0345018708545020E+00   -7.9058898016318127E+00    6.1917793500020835E-01
Br    3.6940200554142262E+00   -5.2171800444230749E+00    3.8199613484294042E+00
Br   -7.5014901437496793E+00    7.7983526116167896E+00   -9.3649316559480873E+00
Br   -4.4747875920741862E+00    8.3256342652410087E+00   -1.2974921889786650E+01
Br    3.9826504623539321E+00   -1.1025774745272280E+01    3.2855151001266432E+00
Br   -4.0070563009303770E+00    1.1166557645213073E+01   -9.6686031210759555E+00
Br   -4.1778712466308958E+00    4.6401592626584449E+00   -9.6382899493036831E+00
Br   -8.8652182338797658E+00   -7.3000680081062641E-01    3.7163514142195848E+00
Br   -1.8861887089632661E+00   -9.6253557347669538E+00   -4.7402762012159618E+00
Br   -6.9618334643991133E+00    8.6667960222687483E+00    2.5883983592127238E+00
Br   -5.1040712928169150E+00    7.9343537059214615E+00   -1.0689406843902611E+00
Br   -4.0194376266778686E+00    1.1712985150417484E+01    8.8487124805555251E-01
Br   -7.5398374818383485E-01    8.6945621699737039E+00    1.4085768454577654E+00
Br    2.1095025547362387E+00    8.7719846960961547E+00   -1.6528615654257734E+00
Br    7.7344401959597342E-01    1.2352119699776379E+01    1.4484408455746469E+00
Br    2.5019763475823742E-01    4.0755526822243651E+00    3.0170963091920124E+00
Br    2.9126963052307548E+00    3.3158012129969254E+00   -6.6320987305836177E-01
Br    2.8702065552015061E+00    7.1285201394400559E+00    1.9809668906521904E+00
Br    7.8139979847299001E-01   -2.1259409127791913E+00    9.0241630055863418E+00
Br    3.4650114786762649E+00   -2.1179837006822781E+00    6.3156116132854896E+00
Br    3.7181532177184953E+00    1.1570541438083888E+00    8.6902566458107824E+00
Br    1.1395707490640699E+00   -7.2593208490031955E+00    9.2471983039290571E+00
Br    3.8804164860695463E+00   -8.3794688218354096E+00    6.5718962797197600E+00
Br    4.0497940849323220E+00   -4.8423545380339128E+00    9.4623628688376265E+00
Br   -1.1765620824451187E+01    1.4264852654971376E+00    3.7169541597171634E+00
Br   -8.8908907892454412E+00    1.9995304972106285E+00    4.8536715196068897E-01
Br    4.6399358082585245E+00   -1.0646610233184147E+01    1.0367445642696447E+01
Br   -9.7389776963376153E+00    5.3173821126536875E+00    3.3526597443095789E+00
Br   -8.3407944847887148E+00    1.9962235401793138E-01    9.9131199181448668E+00
Br   -1.6885363873907946E+00   -6.2018129860888997E+00   -2.0005826486254632E+00
Br   -6.3081441661750457E+00    3.1784801171262145E+00    2.8487551448420216E+00
Br   -3.1487035871398579E+00    2.6787960676938667E+00   -3.0294754036821986E-01
Br   -3.9014369194297105E+00    6.2117207900799292E+00    2.2663036479050684E+00
Br   -6.8097398775750106E-01    1.0837857613180446E+01    7.4807855588208740E+00
Br    2.2865526963732568E+00    1.0296576512937600E+01    4.9461942682698705E+00
Br    2.1704022895097208E+00    1.3397078333885487E+01    7.0202267342491291E+00
Br    3.1667837095308277E-01    4.0830796322847700E+00    8.7547752652648612E+00
Br    3.4192459992547164E+00    3.7418425597065550E+00    5.3917532308726575E+00
Br    2.6465664431604736E+00    7.4515629907944438E+00    7.7177357901570689E+00
Br   -4.9449292460378027E+00   -2.6979487044101642E+00    9.4842823207970159E+00
Br    2.6961580090662092E+00   -7.8520265806185208E-01    1.1911685397519314E+01
Br   -2.7070029050698841E+00   -2.1864189087883492E+00    6.4749644761966305E+00
Br   -2.3353540729558309E+00    1.2795638908004050E+00    8.5098316540487868E+00
Br   -1.6337713877394526E+00   -1.1970279214049103E+01   -6.9405179605677247E-01
Br    4.0380369611318310E+00   -7.6011119374178637E+00    1.2828365917941255E+01
Br   -1.2354297123092783E+01    8.1226419816261752E-01   -1.5719131781164184E+00
Br   -1.0566739234363109E+00   -1.1197582014088683E+01    4.0832106104781625E+00
Br   -1.0830744797087993E+01   -5.4547265023901144E+00   -2.1976595864349466E+00
Br    2.3515675302329084E+00    1.0277880538700822E+01    1.0613256875356299E+01
Br   -8.4364353525395437E+00   -4.6931366789736328E+00   -5.2173096691521934E+00
Br   -8.9138607976413144E+00   -1.5928269705700899E+00   -2.4882712377709697E+00
Br    3.1372907945556880E+00    4.3866625493652895E+00    1.1163704232491149E+01
Br   -7.5386394521547784E+00    7.8436807522863701E+00   -4.0070420447420254E+00
Br   -4.2265336636761779E+00    7.9282743760807453E+00   -6.7355982433329551E+00
Br   -4.5619922147143193E+00    1.1121363697603782E+01   -3.7181042665687656E+00
Br   -6.3009104063575272E+00    1.7723630912111494E+00   -3.4230536235214628E+00
Br   -1.0982172506335541E+01   -9.0392720694363131E+00    4.2508332471593384E+00
Br   -2.6942037525210494E+00    1.8027740632964644E+00   -6.4595785907089560E+00
Br   -6.0332891664251314E+00   -4.4776694631514697E+00   -8.3608514900016164E+00
Br   -3.3552216301780540E+00   -5.2911039126172357E+00   -1.0979191984113479E+01
Br   -2.4687349688204083E+00   -1.2610483994359027E+00   -9.2375746496313518E+00
Br   -3.2830435799834414E+00    4.0654502110795629E+00    1.1774329296272942E+01
Br   -4.7988870128652108E+00   -7.8912302797100304E+00    1.0192100919280470E+01
Br   -2.1999632309943178E+00   -8.4189899761345099E+00    7.2437403821969806E+00
Br   -1.9178505853496104E+00   -4.8436689993505979E+00    9.5214214568233135E+00
Br   -7.8436590307207377E+00   -9.9849494430077108E+00    1.2515273566531588E+00
Br   -6.8184466831406709E+00   -6.3436808972451892E+00    4.9947318142804065E+00
Br   -8.0890584989055530E+00    9.2911595785998937E+00    1.1923846675649232E+01
Br    1.1097308267521578E+01    1.0133204946672175E+01    6.2450329496774148E-01
Br   -7.7570349353539489E+00   -8.6283043809377027E+00    1.3674458287770236E+01
Br    1.0405916152340714E+01    9.8977708954724619E+00   -5.2197159756001899E+00
Br    1.1467142845950486E+01    4.2372698947581915E+00    1.6704076690335872E+00
Br   -7.8997233966893701E+00    3.6002861234497057E+00    1.2147834670099316E+01
Br   -1.1772239724321945E+01   -4.6183254017319113E+00   -7.5346828547947178E+00
Br    1.2342278137482115E+01   -2.2641505206728683E+00    8.3253448775793029E+00
Br   -4.6488386449662729E+00   -1.0069030784869055E+01    4.4673543007222580E+00
Br    5.9160562204603737E+00   -3.4938226871466713E+00   -9.0035540404771979E+00
Br    8.8159545926280138E+00   -3.6401188473085053E+00   -1.1693187276109862E+01
Br    1.2784205588957924E+01   -7.1052156930710879E+00    8.6976804778103975E+00
Br    8.4345888093434969E+00   -1.3914862315804874E-01   -9.3177481760151224E+00
Br   -5.8785614401231960E+00   -1.1838661437138024E+01    1.1815608080493719E+01
Br   -2.4833357344124516E+00   -8.2374506208220772E+00    1.1319647722237394E+00
Br   -2.2202461201694392E+00   -5.5200372763979759E+00    3.7744104042831195E+00
Br    6.9225704320094303E+00   -1.0025085692353196E+01   -8.6725721327511476E+00
Br   -5.1135463883008727E+00   -1.0793917098295299E+01   -7.2718472824545426E+00
Br    9.7348204024584497E+00   -9.0473865434849241E+00   -1.1502451042502663E+01
Br    9.7003909015117280E+00   -6.0247721271615386E+00   -8.9878866395590187E+00
Br   -1.4588071310560802E+00   -1.0446536118557903E+01    1.0609883451113227E+01