 # Version information for this restart file 
 # current date 2021-06-17 12:34:06.868
 # current working dir /user/ub2042/exercises/2_fitting/MM_MD_workdir/md_settings
 # Program compiled at                              Thu Apr 22 21:44:59 EDT 2021
 # Program compiled on                cpn-k07-07-02.compute.cbls.ccr.buffalo.edu
 # Program compiled for                                                    local
 # Source code revision number                                       git:36754bb
 &GLOBAL
   PRINT_LEVEL  LOW
   PROJECT_NAME cp2k
   RUN_TYPE  MD
 &END GLOBAL
 &MOTION
   &MD
     ENSEMBLE  NVT
     STEPS  10000
     TIMESTEP     2.4999999999999996E+00
     STEP_START_VAL  7000
     TIME_START_VAL     1.7499999999998578E+04
     ECONS_START_VAL    -1.3925666412857368E+01
     TEMPERATURE     3.0000000000000000E+02
     &BAROSTAT
       PRESSURE     1.0100000000000000E+00
       TIMECON     9.9999999999999982E+03
     &END BAROSTAT
     &THERMOSTAT
       TYPE  CSVR
       &CSVR
         TIMECON     9.9999999999999982E+03
         &THERMOSTAT_ENERGY
              -2.4138734178521032E-01
         &END THERMOSTAT_ENERGY
         &RNG_INIT
Wiener process for Thermostat # 1        1 F T F  -9.6117049849395275E-01        4292059355.0        1034014718.0        2730869498.0        3644692507.0         585491445.0        2739155311.0             12345.0             12345.0             12345.0             12345.0             12345.0             12345.0             12345.0             12345.0             12345.0             12345.0             12345.0             12345.0
         &END RNG_INIT
       &END CSVR
     &END THERMOSTAT
     &AVERAGES  T
       &RESTART_AVERAGES
         ITIMES_START  1
         AVECPU     1.7858719967139343E-02
         AVEHUGONIOT     0.0000000000000000E+00
         AVETEMP_BARO     0.0000000000000000E+00
         AVEPOT    -1.4264254554538470E+01
         AVEKIN     4.6494306351583647E-01
         AVETEMP     2.3585097538414337E+02
         AVEKIN_QM     0.0000000000000000E+00
         AVETEMP_QM     0.0000000000000000E+00
         AVEVOL     6.7483345830910429E+06
         AVECELL_A     1.8897261328855717E+02
         AVECELL_B     1.8897261328855717E+02
         AVECELL_C     1.8897261328855717E+02
         AVEALPHA     9.0000000000000000E+01
         AVEBETA     9.0000000000000000E+01
         AVEGAMMA     9.0000000000000000E+01
         AVE_ECONS    -3.7531223219624810E+00
         AVE_PRESS     0.0000000000000000E+00
         AVE_PXX     0.0000000000000000E+00
       &END RESTART_AVERAGES
     &END AVERAGES
     &PRINT
       &ENERGY  SILENT
         &EACH
           MD  10
         &END EACH
       &END ENERGY
     &END PRINT
   &END MD
   &PRINT
     &TRAJECTORY  SILENT
       &EACH
         MD  10
       &END EACH
     &END TRAJECTORY
     &CELL  SILENT
       &EACH
         MD  10
       &END EACH
     &END CELL
     &VELOCITIES  SILENT
       &EACH
         MD  10
       &END EACH
     &END VELOCITIES
     &FORCES  SILENT
       &EACH
         MD  10
       &END EACH
     &END FORCES
     &RESTART  SILENT
       &EACH
         MD  10
       &END EACH
     &END RESTART
   &END PRINT
 &END MOTION
 &FORCE_EVAL
   METHOD  FIST
   &MM
     &FORCEFIELD
       VDW_SCALE14     1.0000000000000000E+00
       EI_SCALE14     1.0000000000000000E+00
       SHIFT_CUTOFF  T
       DO_NONBONDED  T
       IGNORE_MISSING_CRITICAL_PARAMS  T
       &SPLINE
         R0_NB     2.5000000000000000E-01
       &END SPLINE
       &NONBONDED
         &LENNARD-JONES
           ATOMS Br Br
           EPSILON     1.2630795322675199E+02
           SIGMA     3.6900000000000004E+00
         &END LENNARD-JONES
         &LENNARD-JONES
           ATOMS Cs Pb
           EPSILON     8.6920055954630968E+01
           SIGMA     3.6699999999999999E+00
         &END LENNARD-JONES
         &LENNARD-JONES
           ATOMS Cs Cs
           EPSILON     2.2644852172126850E+01
           SIGMA     4.5300000000000002E+00
         &END LENNARD-JONES
         &LENNARD-JONES
           ATOMS Pb Pb
           EPSILON     3.3363415533600227E+02
           SIGMA     6.1000000000000005E+00
         &END LENNARD-JONES
         &LENNARD-JONES
           ATOMS Br Cs
           EPSILON     5.3481070753900497E+01
           SIGMA     3.6300000000000003E+00
         &END LENNARD-JONES
         &LENNARD-JONES
           ATOMS Br Pb
           EPSILON     2.0528187276773045E+02
           SIGMA     2.9800000000000000E+00
         &END LENNARD-JONES
       &END NONBONDED
       &CHARGE
         ATOM Cs
         CHARGE     4.1739999999999999E-01
       &END CHARGE
       &CHARGE
         ATOM Pb
         CHARGE     8.3479999999999999E-01
       &END CHARGE
       &CHARGE
         ATOM Br
         CHARGE    -4.1739999999999999E-01
       &END CHARGE
     &END FORCEFIELD
     &POISSON
       PERIODIC  XYZ
       &EWALD
         EWALD_TYPE  SPME
         GMAX  62 62 62
         O_SPLINE  4
       &END EWALD
     &END POISSON
     &PRINT
       &FF_INFO  LOW
         SPLINE_INFO  F
         SPLINE_DATA  F
       &END FF_INFO
     &END PRINT
   &END MM
   &SUBSYS
     &CELL
       A     1.0000000000000001E+02    0.0000000000000000E+00    0.0000000000000000E+00
       B     0.0000000000000000E+00    1.0000000000000001E+02    0.0000000000000000E+00
       C     0.0000000000000000E+00    0.0000000000000000E+00    1.0000000000000001E+02
       PERIODIC  XYZ
       MULTIPLE_UNIT_CELL  1 1 1
     &END CELL
     &COORD
Cs    2.3685961770417215E-02   -3.1693500314446549E-01   -5.2601555517083440E+00
Cs    7.3380451740564911E-01   -6.4534500857839685E+00   -6.7283273882401318E+00
Cs    1.3788382352735058E+00   -1.1489164208140290E+01   -5.1678224630303555E+00
Cs   -4.6989873973437684E+00   -7.4971072329221746E+00   -5.4723947688692078E+00
Br   -7.5006838009917525E+00   -1.4305538678767288E+01   -7.3881028278246994E+00
Br    1.2311825053964977E+01   -3.7091739015547849E+00   -9.2880836223552379E+00
Br   -4.4081511042831982E+00    1.7261716305221650E+00   -1.1674172856093771E+01
Cs   -9.3177667864680846E-01    5.6463491933092653E+00   -6.8302584246720972E+00
Cs   -5.7948680087715809E-01   -4.8989250741815632E-01    6.9215651505473641E-01
Cs    1.0889423067500092E+00   -5.7846077079054279E+00    3.6184809527769213E-01
Br   -5.3337734842457296E+00   -3.6294690971383936E+00    3.2218596200683751E+00
Cs   -1.0161799038211699E+01   -5.8043997504245413E+00    1.2948233284685246E+01
Cs    1.2839248325590603E+01   -1.0827195261203356E+01    8.8919650860568378E-01
Cs   -6.3370686969472985E+00    5.7420599240483314E+00   -2.8143135546541981E-01
Cs   -2.1335481556735103E+00    1.2349645536925692E+01   -1.4968648133679665E+00
Cs   -1.2826327029349611E+00    6.5344176087031904E+00   -7.3852650606058412E-01
Cs    4.1318163102099881E-01    1.7537521587816456E+00    5.7373421833594493E+00
Cs    1.4644441762700500E+00   -4.3983080695539138E+00    6.2863813377131557E+00
Cs    1.3016876976567449E+00   -1.0658352686358418E+01    7.9711741662172795E+00
Cs   -5.1071535508724271E+00    7.9854782683225789E+00    1.1393748327609941E+01
Cs   -7.1980575237771935E+00   -1.9465888337175938E+00   -1.1007952711209040E+01
Cs   -2.4717807785350803E+00   -1.4297123814989265E+01   -4.9077248485421494E+00
Cs   -5.2544611446619038E+00    5.8066586667908515E-01    6.5505286098869755E+00
Br   -2.6906536462091144E+00   -3.3070234488130756E+00    1.5242178203700879E-01
Cs   -7.1352878596778946E-01    7.1311143051316872E+00    5.0439389766325871E+00
Br    1.2564414686099134E+01   -8.6129754738405637E+00   -8.0919886568692601E+00
Cs    1.8737709681219867E+00   -4.4470018390576156E+00    1.2328891604428875E+01
Br   -3.0251737606206714E+00    2.1407968516613951E-01    2.7466493068407907E+00
Br   -6.8616597124300132E+00   -3.1734052750021147E+00    1.3243631191109190E+01
Cs    9.6382941293452085E+00    1.1370391112093047E+01   -9.0321903078182846E+00
Cs   -1.1089407932466173E+01   -6.4691823189484916E+00    6.9937036005746140E+00
Cs   -4.8980449605422436E+00   -6.1565197914572689E+00    6.5708541554488420E+00
Cs   -7.6657552825408048E+00    9.8553989357749909E+00   -6.9085007351603176E+00
Br   -1.0596228682216640E+01   -1.0113324614982599E+01    1.1208938580205226E+01
Br   -8.4482849136539677E+00   -9.5875613691991539E+00    7.7961786767980659E+00
Cs   -1.0843375080169032E+01   -8.1951769803735246E+00   -4.8120999914408769E+00
Cs   -6.8326208248093883E+00    4.4624687077259937E+00   -6.4153939075149511E+00
Br   -9.3129314084009867E+00   -6.2456313270913650E+00    9.7603999980829013E+00
Cs    1.1441154637470484E+01    7.7443296788286524E+00    1.0344468521994742E+01
Br   -1.2398129765232982E+01    8.4764575765029431E+00    8.1456897596971896E+00
Br   -5.8981674459762630E+00   -4.2037556732011279E+00   -1.9647172901575753E+00
Cs    1.2856239423577889E+00    1.0303764452819806E+00    1.0843864800516338E+01
Cs    9.9714369964504908E+00    7.6641575648755902E+00   -2.2280833976861665E+00
Cs   -1.0805937175097466E+01   -9.2962611112800868E+00   -9.1739063355264729E+00
Cs    1.2084865566380252E+01    2.5979290156519972E+00    5.5048325301658698E+00
Cs   -1.3713368349204179E+01    9.7917912261940110E+00   -6.0993179344845503E+00
Cs    1.2224957880239241E+01   -1.0126915092934427E+01    6.6088110256867720E+00
Cs    6.7791426528026975E+00   -6.6938370707224388E+00   -1.0982491137564491E+01
Cs    6.8266271167121237E+00   -1.0325484467331309E+01    7.4940059239548162E+00
Cs   -4.4000690892431100E+00   -1.1573042989140928E+01    1.7970396532535999E+00
Cs    7.0646094551230414E+00   -1.1950788103737407E+01   -1.1221793179658286E+01
Cs    1.0144533496292743E+01    5.6052310766732827E+00   -7.4498266307954610E+00
Cs    1.0857073608549436E+01    1.2778946823789834E+01    3.7164034479242849E+00
Cs    1.0172462698796995E+01    5.5348921713883561E+00   -1.2645530489058586E+01
Cs   -9.4858105842647478E-02   -7.1960882754656472E+00   -1.1197183920598599E+01
Cs   -1.1676624526752693E+01   -1.7733641405781955E+00   -4.3145792988450884E+00
Cs    7.1845906264807473E+00   -3.3025328233830926E+00    1.2060686074623382E+01
Cs    1.4375543911424423E+01   -3.3926359856492985E+00    6.6836539747796246E+00
Cs   -9.6605910290390007E+00   -1.2138580188871190E+01    1.4279959436802816E+01
Cs   -5.6036342734656319E-01   -1.5965412146904234E+00   -1.1320892307973228E+01
Cs    2.9587098497805930E-01    1.2560768615357389E+01    3.9858916362942014E+00
Cs   -1.1006582005540764E+00    4.7208008875010403E+00   -1.1968020358220789E+01
Cs    5.3540397858677427E+00    3.1771534057745754E-01   -6.0701796345074648E+00
Cs    6.1029118379803817E+00   -6.9557041496772340E+00   -5.7514856132586862E+00
Cs   -4.3558670581831400E+00   -1.1131046744860338E+01    7.6729746310469036E+00
Cs   -1.0876019088095472E+01   -1.7485349210754469E-01    6.6373073920554884E+00
Cs    5.8105420676412756E+00   -5.4760551440696625E-01   -1.1739025464647124E+01
Cs    4.3185349470080752E+00    9.4049733603982766E+00   -1.3553831797733389E+01
Cs   -1.2332591386887794E-01    7.2395078482476922E+00    1.0627324418668339E+01
Cs   -6.6477424462429173E+00    1.2307292575011138E+01    4.6866535142875572E+00
Cs    3.9088444160221796E+00    1.0882257570537554E+01   -8.0576256383407650E+00
Cs    4.7524961101191003E+00    5.9012529190824807E+00   -6.5964896191185343E+00
Cs    5.3012189179794991E+00    8.6373691177483725E-01    8.3959626203444493E-02
Cs    7.3129147708359250E+00   -5.3264359604169513E+00    3.5022875943209736E-01
Cs    7.3330910504694593E+00   -1.0711542404702298E+01    8.5666117473179570E-01
Cs    4.3723479015323274E+00    5.2299226675172754E+00   -1.1920536683339662E+01
Cs   -6.0798422969233457E+00    6.3807303040303989E+00    5.0654710117346475E+00
Cs   -5.8011242297250218E+00   -7.5158637387191396E+00   -1.0296084777890835E+01
Cs    5.4649299509802711E+00    6.5701469159499943E+00   -7.4029549289480634E-01
Cs    6.0848055997320438E+00    1.6365121311154911E+00    5.3799303295042513E+00
Cs    7.6911297888460561E+00   -5.3524894747521996E+00    5.9747549533689313E+00
Cs   -7.5888407726571563E+00    1.0622795329133352E+01   -1.5139393644110646E+00
Cs    1.1581678865615574E+01    1.0168114691721435E+00   -1.3427892584714467E+00
Cs   -5.8565184513968580E+00   -7.0597993557719829E-01    5.8257253158340994E-01
Cs   -1.2133392752921592E+01    5.0454055640566180E+00    6.8580827261883810E+00
Cs   -4.9895989335831263E+00    8.9503340754390837E-01    1.1502140832750490E+01
Cs    6.3736956122886985E+00    1.3162194710483149E+01    4.5805465847524927E+00
Cs    5.8391756947952809E+00    6.5446438912138181E+00    4.9510521769806406E+00
Cs    7.0399719290449729E+00    1.4022062310125032E+00    1.0682388915870883E+01
Cs    4.5696141483491370E+00    1.2957305917258497E+01   -1.3730248347148084E+00
Cs    1.0987940256071719E+01    1.0041981671109219E+00   -6.5497736895208876E+00
Cs    1.2336523534219474E+01   -5.9671220550057074E+00   -5.5577568976842171E+00
Cs    7.3878416757678069E+00   -8.9949419367814656E+00    1.2063874411293689E+01
Cs    9.7925954634717254E+00    1.2350661413912716E+01   -1.8796797562980798E+00
Cs   -1.0927751028006920E+01    9.0554472304933964E-01    1.1718308622012540E+01
Cs   -6.4271240721431093E+00    4.5754210360633660E+00   -1.2019090338800225E+01
Cs   -1.2886709060183822E+01    1.0502599744205344E+01   -8.2674670750705659E-01
Cs   -3.5883474377113789E+00   -4.0230502989496815E+00    1.2316745491576453E+01
Cs   -4.7114275388589775E+00   -9.5919163168906234E+00    1.2835671685384829E+01
Cs    5.8571551647237534E+00    7.7354210034467963E+00    1.0398193874845372E+01
Cs    1.1875534767401078E+01   -5.2588588352782635E+00    3.4471461119790403E-01
Cs   -1.1884755317159588E+01   -1.2824463516764468E+00    3.6003775442219405E-01
Cs   -9.4899342990912654E+00    1.0222382075521603E+01   -1.2078320514082373E+01
Cs   -1.2362223244721857E+01    4.4077539479517283E+00    7.0899394683792383E-01
Cs   -8.7503286361677617E+00   -1.4320355601001959E+01   -4.4450888208417947E+00
Cs   -1.1108582802508327E+01   -5.8816593458233069E+00    1.8556997568234324E+00
Cs   -5.0079686012454561E+00   -6.8057754336286722E+00    5.1188916302752319E-01
Cs   -1.0963218834432723E+01   -1.2024596131420717E+01    8.1105793917367794E+00
Cs    1.3031687662235891E+01   -4.7548510051481916E+00    1.2154249039033894E+01
Cs    1.1058924775783227E+01    7.3083959693007907E+00    4.7243554429464796E+00
Cs   -1.2016667085526723E+01    3.0932704006172833E+00   -6.2474587545142128E+00
Cs   -6.2425235604414766E+00   -1.5401581494976873E+00   -6.0107123930268225E+00
Cs   -9.2012936889026840E+00   -1.3114392786252726E+01    1.6846845798987973E+00
Cs    1.2728252644354203E+01   -7.1016558005103922E+00   -1.1506502425583653E+01
Cs   -4.4877306395307928E+00   -1.2506675036666628E+01   -1.0286489149809569E+01
Cs   -3.2132709365990513E+00    1.0497301021543961E+01   -1.3013539467368792E+01
Cs    1.5688674462408796E+00   -1.3322922805838033E+01   -1.0463413254144255E+01
Cs   -2.4133385313364273E+00    1.0828521581468804E+01   -8.1696902032029328E+00
Cs   -6.9388942782265799E+00    1.2647704750197036E+01    9.5935654618541140E+00
Cs    2.0517314362933470E+00   -1.1771063897740907E+01    1.0553747629332029E+00
Cs   -1.2919131660255101E+01   -3.4756800193509689E+00   -1.0311692389266579E+01
Cs   -1.3420894927074933E+01    1.0493323569312698E+01    6.0060911725217450E+00
Cs    9.4279948247275840E+00   -1.2668198490722713E+01   -4.9377759642703527E+00
Cs    1.0722013117470155E+01   -7.6257409252846520E-01   -1.3055865065482788E+01
Cs    1.7408056154855606E-01    1.2695626600895466E+01    1.0596685836648742E+01
Pb    3.2076508111546511E+00   -2.9280710368311511E+00   -2.6847020308337206E+00
Pb    4.3548362270426164E+00   -8.7178320086042316E+00   -2.2583133342979465E+00
Pb   -8.3596052939742691E+00   -3.1913857137721733E+00    4.4317479186433637E+00
Pb   -1.7932918089675303E+00   -1.0089083684554256E+01   -2.0284363074289633E+00
Pb    1.2110282094755724E+00    9.1252695902421710E+00   -4.6644292624722148E+00
Pb    2.3229223740181153E+00    3.1920288502625978E+00   -3.2966934779453245E+00
Pb    3.8037557739195202E+00   -2.5042084760172001E+00    3.0520723847290574E+00
Pb    4.4441899510150282E+00   -8.1124809975187180E+00    3.7078414715397194E+00
Pb   -4.1943983880078708E+00    9.4265546324324934E+00    1.8908047133760320E+00
Pb    1.8041658396407243E+00    9.3321191504782544E+00    1.3098304660515983E+00
Pb    2.7035909651808585E+00    3.7183060626627658E+00    2.4851773001428792E+00
Pb    4.4201013685469999E+00   -1.5180474850706049E+00    8.8515849142402079E+00
Pb    4.3700205180701506E+00   -7.2390416069494847E+00    9.7508383215816856E+00
Pb   -3.2623514257426538E+00    3.1816315831547639E+00    2.7451487370329883E+00
Pb    2.7548608281507430E+00    1.0539427295928981E+01    7.2041756374769630E+00
Pb    3.3684357455486698E+00    4.3416205147784703E+00    8.3688497580648971E+00
Pb   -1.8696896226170470E+00   -1.8308006422159986E+00    9.1655061641160618E+00
Pb   -7.6520954037575688E+00   -9.0708875746494240E+00    4.7544397484601495E+00
Pb   -9.6028580582008942E+00    1.9221895646117453E+00   -2.7749808628074177E+00
Pb   -2.8780302258081667E+00   -4.0084223302591413E+00   -8.7062815302941825E+00
Pb   -1.2694894483548540E+00   -8.7247537450118227E+00    4.0294725265646534E+00
Pb   -4.6019609598662976E+00    7.5841850971970644E+00   -3.7549045442071414E+00
Pb   -2.1190345662085490E+00   -7.9962588174789522E+00    9.9931785498772303E+00
Pb   -8.9262948888106255E+00   -4.3800406186720844E+00   -1.8912479614068236E+00
Pb   -7.7727042701852236E+00   -1.0387812974886865E+01   -1.6879051734369832E+00
Pb   -3.7938709961998924E+00    2.0267889884411558E+00   -2.8919741234000833E+00
Pb   -7.9088157472580303E+00   -8.9927410627349147E+00    1.0597546318089544E+01
Pb   -9.3664410363086432E+00   -5.2582243211961979E+00   -7.8347047406962069E+00
Pb    9.4578664425099710E+00   -3.3711605656038364E+00   -9.1278458378925080E+00
Pb    9.9428853480363095E+00   -9.5677935738735478E+00   -8.6988267002145125E+00
Pb   -1.9363509575814188E+00   -1.0069590976962761E+01   -8.1464217551862195E+00
Pb   -1.1262532397866163E+01    6.8977020596678802E+00   -9.3812756134822237E+00
Pb    3.3774028952371999E+00   -3.6456880317201525E+00   -8.5065299531556526E+00
Pb    3.9852559825934248E+00   -9.8254972643885115E+00   -8.4542194019826464E+00
Pb   -4.0345558976945233E+00    1.5643807806425767E+00   -8.7592440079717875E+00
Pb    1.0485042644939242E+00    7.9996707329769343E+00   -1.0344498073419295E+01
Pb    1.9205629792757180E+00    2.3204117173181755E+00   -9.2176092776287906E+00
Pb    9.4064565750995950E+00   -2.5211169168891536E+00   -3.2539828265018369E+00
Pb    1.0503714106168294E+01   -8.2626592609443126E+00   -2.8362053157355520E+00
Pb   -7.8924149667731731E+00   -2.7397866972420593E+00    1.0664557532919924E+01
Pb    7.1122888869667316E+00    8.5527641535255796E+00   -1.0388976222082233E+01
Pb   -1.0138257760964656E+01    8.3109732453572627E-01   -8.5529241044672037E+00
Pb   -3.4536097264064547E+00    1.0354625726456302E+01    7.6993143394757295E+00
Pb    7.2544536152739107E+00    9.8025498421445274E+00   -4.4457567078875000E+00
Pb    8.0184308554107897E+00    3.7042216243728938E+00   -3.6579482789700180E+00
Pb    1.0023119487372851E+01   -1.9626440248590971E+00    2.8302799151497600E+00
Pb    1.0214468261348008E+01   -7.8438023847317364E+00    3.5252683443178272E+00
Pb    8.0489081379192005E+00    2.3664522789104958E+00   -9.7553253655283481E+00
Pb   -2.8112255670632242E+00    4.0077349226310224E+00    8.6489258326695406E+00
Pb    7.6005304692660749E+00    9.9788420038246244E+00    1.5016604803944003E+00
Pb    8.8954900754390565E+00    3.9361840945771225E+00    2.3237943627603963E+00
Pb    1.0440027612209096E+01   -1.3098679188296918E+00    9.1313797461191228E+00
Pb    1.0533380608124391E+01   -7.2020720075226174E+00    9.7135726048574718E+00
Pb    8.7353729970973557E+00    1.0732378751490049E+01    7.9336954373434168E+00
Pb    9.1560788217625273E+00    4.5064836947633120E+00    8.2224680213012924E+00
Pb   -8.5967341949527150E+00    3.2886927612416796E+00    9.3364627759935672E+00
Pb   -2.6138651438926148E+00   -3.0674708252258904E+00    3.1635818688483837E+00
Pb   -9.9576284166306301E+00    8.4065903371155404E+00    2.5856917348207094E+00
Pb   -1.0474279399504324E+01    7.7160674475718585E+00   -3.1754722048711339E+00
Pb   -7.8615681504440520E+00   -1.1287042782288927E+01   -7.3543044977902889E+00
Pb   -4.8408177522980198E+00    7.4145482141125454E+00   -9.9720894157618982E+00
Pb   -9.0415830029872186E+00    2.5843760702926941E+00    3.3840758704808986E+00
Pb   -9.6697388230982213E+00    9.1971075885231368E+00    8.7717445465019050E+00
Pb   -2.7978605032971537E+00   -3.9968779629139903E+00   -2.5485114039744503E+00
Br    1.7114204971494743E-02   -3.4339751683751012E+00   -2.5635122443143938E+00
Br    2.7299757844753048E+00   -3.0579846742239014E+00   -5.7578662067808857E+00
Br    2.1885128238417817E+00    2.8130622905837399E-02   -2.8957848855487072E+00
Br    1.2040240436967955E+00   -9.3253610510004261E+00   -2.5150707544910893E+00
Br    3.9678655072475988E+00   -9.2752925453338673E+00   -5.6456730706955680E+00
Br    4.0296204945366032E+00   -5.8730865395425900E+00   -3.4404022981140687E+00
Br   -2.9475110548528902E+00   -4.3974432025740420E+00   -5.7791408467427736E+00
Br   -8.5002437382166800E+00   -3.5001542903386196E+00    7.3641958952321946E+00
Br   -3.0093772344769252E+00   -7.9147435555928358E-01   -3.2284457064684680E+00
Br    4.5946606658017437E+00   -1.1316142641782426E+01   -1.3684923993184805E+00
Br    1.2705369877434977E+01   -3.0287168565799480E+00    3.6165539389448162E+00
Br   -5.0016641608783683E+00   -9.7109148520670843E+00   -1.6573570626313743E+00
Br   -1.1019516340212441E+01   -2.7495331749907894E+00    4.2137895213738563E+00
Br   -8.5161100593388408E+00   -4.0623999979590906E+00    1.2031185648236593E+00
Br    1.3346821699033645E+01   -8.0895224121422249E+00    3.6446846601286498E+00
Br   -1.7274254881383293E+00    8.4564019345549895E+00   -3.7364915091227444E+00
Br    1.2602409069711393E+00    8.6216314654874058E+00   -7.3689161118681206E+00
Br    3.6320800924182700E-01    1.1905191696908506E+01   -5.1979169668511140E+00
Br   -6.9224778484575966E-01    2.7321681601023440E+00   -3.1791383208551585E+00
Br    2.2396884434054907E+00    2.2787608859417370E+00   -6.3836052222236974E+00
Br    1.8102756414104355E+00    5.6296025546089377E+00   -4.5157822586241503E+00
Br    8.3498647867375242E-01   -2.9778033781182045E+00    2.9603298983924651E+00
Br    3.2355970052727163E+00   -1.9419763645213353E+00   -7.4811441380012462E-03
Br    2.9916803956475406E+00    9.1075441661411061E-01    2.7314569906235917E+00
Br    1.5492911256950384E+00   -7.9688405068268287E+00    4.0640285081102743E+00
Br    4.1799562269699626E+00   -8.1195606100545650E+00    6.1159432140811698E-01
Br    5.0168998885664537E+00   -5.0307246193670778E+00    3.7001399700414086E+00
Br   -7.7913704164630797E+00    7.6419902179673826E+00   -9.4177030185623281E+00
Br   -5.3132620163983839E+00    7.6998988183049848E+00   -1.2742456975004552E+01
Br    4.0750302470690585E+00   -1.0922539627133499E+01    3.6049744445348075E+00
Br   -5.0284236590148685E+00    1.0590682843528541E+01   -1.0240526441709273E+01
Br   -4.4919490398234574E+00    4.4037902629816008E+00   -9.2883594546001937E+00
Br   -7.7927648419609632E+00   -3.1599737140213630E-01    4.0071077486288145E+00
Br   -1.9984781135540632E+00   -1.0131819189333806E+01   -5.0584803895559416E+00
Br   -6.7863767030812747E+00    8.3086066999188901E+00    2.3958113593472099E+00
Br   -4.5587816815175675E+00    8.4248917546857758E+00   -1.0677930462313721E+00
Br   -4.8774269425469061E+00    1.1912899236092288E+01    9.3450292509829547E-01
Br   -1.2357139927886727E+00    1.0353796320574661E+01    1.6242223151196442E+00
Br    1.4431663446196619E+00    9.2983027777120881E+00   -1.6389240529507370E+00
Br    2.3161616281887478E+00    1.2072768500093934E+01    1.1693284193552198E+00
Br   -2.8354708214534852E-01    3.0097933305367013E+00    2.9360092211357052E+00
Br    3.0373098121890951E+00    3.1743360929817945E+00   -5.0432015564692412E-01
Br    1.3686788304315562E+00    6.5033241804047508E+00    1.8768194487892416E+00
Br    8.6521684774393093E-01   -1.5893434441652761E+00    8.7136409451368202E+00
Br    3.9905284145165285E+00   -1.7572811353983024E+00    5.9613504756762801E+00
Br    3.5588590444837278E+00    1.1274408225165711E+00    8.6483762779547320E+00
Br    1.3445021389642982E+00   -7.3023856523348885E+00    1.0068067755066357E+01
Br    4.3201830361558269E+00   -8.2128607142879897E+00    6.4346608491499486E+00
Br    3.8869470987968238E+00   -4.1730738312828848E+00    8.9330215687351497E+00
Br   -1.1597693208091329E+01    1.8442877797429800E+00    3.5513730332889080E+00
Br   -9.2636004125996880E+00    1.8613814255563170E+00    2.7641997560146014E-01
Br    4.9542448252614655E+00   -9.9538450998100210E+00    1.0360935405166590E+01
Br   -9.5154959130749894E+00    5.6012911078922496E+00    2.6265966644127894E+00
Br   -8.6370974905519589E+00    2.6582946265001234E-01    9.7608360518854820E+00
Br   -2.2834842800182522E+00   -6.9591064608978499E+00   -1.9042024489722602E+00
Br   -6.1100653672117486E+00    3.4900826195363073E+00    3.2127171235693903E+00
Br   -3.6403551329432440E+00    2.6899366759106007E+00   -1.6262524995259681E-01
Br   -2.8888629651228861E+00    6.1302019535237990E+00    2.1723365239580250E+00
Br   -6.0195872343460421E-01    1.0697572627197820E+01    7.5079933613668342E+00
Br    1.9314081207055460E+00    9.7227586181832919E+00    4.0067215587461540E+00
Br    2.4641896341931031E+00    1.3164411779593149E+01    6.5385445919221565E+00
Br    3.6799282718282714E-02    4.4403627547367366E+00    8.5337726488180934E+00
Br    3.0216027573425772E+00    4.1299010192102124E+00    5.3052338615288228E+00
Br    3.0765059206881724E+00    7.3442950642400744E+00    7.4269367021395070E+00
Br   -4.8951822282018203E+00   -2.1507168882329517E+00    9.6423167332337858E+00
Br    4.3316676095125608E+00   -1.2697738639054899E+00    1.1898876697679132E+01
Br   -2.0955945165277319E+00   -2.1172269752873834E+00    6.0796484209133759E+00
Br   -2.3317590000446788E+00    1.1921777553707740E+00    9.3474543600055053E+00
Br   -8.0239192795086689E-01   -1.2760236743165635E+01   -1.8925916253894077E+00
Br    4.9397217837972658E+00   -5.8392212185261858E+00    1.2289071896354537E+01
Br   -1.2236257233952591E+01    1.3569504529210779E+00   -2.5826546723033235E+00
Br   -2.0737882356320423E+00   -1.1461651259566837E+01    4.4702859901949825E+00
Br   -1.1860457290437322E+01   -4.0807719224446819E+00   -1.5403751982203797E+00
Br    2.6081321094551679E+00    1.0067651075181784E+01    1.0079598188826557E+01
Br   -9.0003537849744824E+00   -4.7033313889617254E+00   -5.1019064320121119E+00
Br   -8.9649629525461432E+00   -1.2261705219684218E+00   -2.3871502595062100E+00
Br    3.2537705242707218E+00    5.1902508418504407E+00    1.0996702459365972E+01
Br   -7.3863338659383242E+00    7.5770329932426232E+00   -3.5055968918940232E+00
Br   -4.5292396189497337E+00    7.7299768084780691E+00   -6.9719147553383021E+00
Br   -4.9309613951427353E+00    1.0617655046774724E+01   -4.4404009150718116E+00
Br   -6.7125868453445197E+00    2.4907820637001628E+00   -3.2194868387598756E+00
Br   -1.0449700624068736E+01   -9.5172232654261464E+00    4.2466860814844223E+00
Br   -3.4181881594710921E+00    1.6140301971430613E+00   -5.8026590595290299E+00
Br   -5.7432639578286668E+00   -4.4941707364262564E+00   -8.3402027229250120E+00
Br   -2.4763909398467754E+00   -4.3420915038967536E+00   -1.1662307566153782E+01
Br   -2.7862228793430281E+00   -9.7552622558375235E-01   -8.7247025225111710E+00
Br   -3.1457676835720552E+00    5.1687421412259820E+00    1.1294935716071917E+01
Br   -4.7881032684390847E+00   -8.0130404418377061E+00    9.4061386666745079E+00
Br   -1.6435832490372919E+00   -8.8955635738744707E+00    6.8866031096260780E+00
Br   -1.9541330598344728E+00   -4.9311416046642575E+00    9.1244621224428624E+00
Br   -7.4813033724630138E+00   -9.3515898146108754E+00    1.6203062575073350E+00
Br   -8.3525336205503695E+00   -6.1256435927040052E+00    4.5575669323652175E+00
Br   -8.3495460307375176E+00    1.0122232919863459E+01    1.1078776955315444E+01
Br    1.0229420244059508E+01    1.0404235710744491E+01    8.2882797437321332E-01
Br   -7.7163656461853147E+00   -7.8925525877604779E+00    1.3156093766515951E+01
Br    1.0051837958444342E+01    1.0148277751412541E+01   -4.5764308528613808E+00
Br    1.1706691087647060E+01    4.3274960425006990E+00    2.4482816932336187E+00
Br   -8.8176616531744738E+00    3.2736423051367218E+00    1.2217220560668697E+01
Br   -1.1760757266442683E+01   -6.5259272094692511E+00   -7.9545054377803677E+00
Br    1.3059520094399044E+01   -8.0380561135803441E-01    8.0566148247454130E+00
Br   -4.8170848938146182E+00   -8.3813111692630482E+00    3.8095121361780073E+00
Br    6.2418259860433221E+00   -3.0798358734621325E+00   -9.3647533284072857E+00
Br    9.3199411770627947E+00   -3.5209101005920149E+00   -1.1933500184100517E+01
Br    1.3374091278151418E+01   -8.5445640158896108E+00    9.8006890068984127E+00
Br    9.4791475591403618E+00   -3.5976687624592968E-01   -9.3830391445914429E+00
Br   -6.7489412511224316E+00   -1.1463264802546474E+01    1.1230087503849306E+01
Br   -1.6958249330064414E+00   -9.5378676571011880E+00    9.1069177221172415E-01
Br   -1.9581766128861089E+00   -5.6118398112796006E+00    4.1334882341268857E+00
Br    7.1098432571970775E+00   -9.2256647656659769E+00   -8.4688202870572979E+00
Br   -4.7442373032131560E+00   -9.7417258051423676E+00   -7.7098437004308780E+00
Br    1.0688135487461782E+01   -9.9336740919302500E+00   -1.2061140123025879E+01
Br    9.5054256456106945E+00   -6.3642548695656007E+00   -9.2500275978737818E+00
Br   -2.2127736618638933E+00   -1.0773941596474879E+01    1.0385035358937248E+01