 # Version information for this restart file 
 # current date 2021-06-17 12:32:28.832
 # current working dir /user/ub2042/exercises/2_fitting/MM_MD_workdir/md_settings
 # Program compiled at                              Thu Apr 22 21:44:59 EDT 2021
 # Program compiled on                cpn-k07-07-02.compute.cbls.ccr.buffalo.edu
 # Program compiled for                                                    local
 # Source code revision number                                       git:36754bb
 &GLOBAL
   PRINT_LEVEL  LOW
   PROJECT_NAME cp2k
   RUN_TYPE  MD
 &END GLOBAL
 &MOTION
   &MD
     ENSEMBLE  NVT
     STEPS  10000
     TIMESTEP     2.4999999999999996E+00
     STEP_START_VAL  1500
     TIME_START_VAL     3.7499999999999500E+03
     ECONS_START_VAL    -1.3925666412857368E+01
     TEMPERATURE     3.0000000000000000E+02
     &BAROSTAT
       PRESSURE     1.0100000000000000E+00
       TIMECON     9.9999999999999982E+03
     &END BAROSTAT
     &THERMOSTAT
       TYPE  CSVR
       &CSVR
         TIMECON     9.9999999999999982E+03
         &THERMOSTAT_ENERGY
              -5.9728612678722648E-02
         &END THERMOSTAT_ENERGY
         &RNG_INIT
Wiener process for Thermostat # 1        1 F T F   1.1382529309756741E+00        2887901994.0        1068922118.0        3409092692.0        1438995407.0        1790216091.0        3655652836.0             12345.0             12345.0             12345.0             12345.0             12345.0             12345.0             12345.0             12345.0             12345.0             12345.0             12345.0             12345.0
         &END RNG_INIT
       &END CSVR
     &END THERMOSTAT
     &AVERAGES  T
       &RESTART_AVERAGES
         ITIMES_START  1
         AVECPU     1.7984470800030964E-02
         AVEHUGONIOT     0.0000000000000000E+00
         AVETEMP_BARO     0.0000000000000000E+00
         AVEPOT    -1.4313964096541662E+01
         AVEKIN     4.1372241454883169E-01
         AVETEMP     2.0986835306620577E+02
         AVEKIN_QM     0.0000000000000000E+00
         AVETEMP_QM     0.0000000000000000E+00
         AVEVOL     6.7483345830898769E+06
         AVECELL_A     1.8897261328856047E+02
         AVECELL_B     1.8897261328856047E+02
         AVECELL_C     1.8897261328856047E+02
         AVEALPHA     9.0000000000000000E+01
         AVEBETA     9.0000000000000000E+01
         AVEGAMMA     9.0000000000000000E+01
         AVE_ECONS    -2.5025332518457786E+00
         AVE_PRESS     0.0000000000000000E+00
         AVE_PXX     0.0000000000000000E+00
       &END RESTART_AVERAGES
     &END AVERAGES
     &PRINT
       &ENERGY  SILENT
         &EACH
           MD  10
         &END EACH
       &END ENERGY
     &END PRINT
   &END MD
   &PRINT
     &TRAJECTORY  SILENT
       &EACH
         MD  10
       &END EACH
     &END TRAJECTORY
     &CELL  SILENT
       &EACH
         MD  10
       &END EACH
     &END CELL
     &VELOCITIES  SILENT
       &EACH
         MD  10
       &END EACH
     &END VELOCITIES
     &FORCES  SILENT
       &EACH
         MD  10
       &END EACH
     &END FORCES
     &RESTART  SILENT
       &EACH
         MD  10
       &END EACH
     &END RESTART
   &END PRINT
 &END MOTION
 &FORCE_EVAL
   METHOD  FIST
   &MM
     &FORCEFIELD
       VDW_SCALE14     1.0000000000000000E+00
       EI_SCALE14     1.0000000000000000E+00
       SHIFT_CUTOFF  T
       DO_NONBONDED  T
       IGNORE_MISSING_CRITICAL_PARAMS  T
       &SPLINE
         R0_NB     2.5000000000000000E-01
       &END SPLINE
       &NONBONDED
         &LENNARD-JONES
           ATOMS Br Br
           EPSILON     1.2630795322675199E+02
           SIGMA     3.6900000000000004E+00
         &END LENNARD-JONES
         &LENNARD-JONES
           ATOMS Cs Pb
           EPSILON     8.6920055954630968E+01
           SIGMA     3.6699999999999999E+00
         &END LENNARD-JONES
         &LENNARD-JONES
           ATOMS Cs Cs
           EPSILON     2.2644852172126850E+01
           SIGMA     4.5300000000000002E+00
         &END LENNARD-JONES
         &LENNARD-JONES
           ATOMS Pb Pb
           EPSILON     3.3363415533600227E+02
           SIGMA     6.1000000000000005E+00
         &END LENNARD-JONES
         &LENNARD-JONES
           ATOMS Br Cs
           EPSILON     5.3481070753900497E+01
           SIGMA     3.6300000000000003E+00
         &END LENNARD-JONES
         &LENNARD-JONES
           ATOMS Br Pb
           EPSILON     2.0528187276773045E+02
           SIGMA     2.9800000000000000E+00
         &END LENNARD-JONES
       &END NONBONDED
       &CHARGE
         ATOM Cs
         CHARGE     4.1739999999999999E-01
       &END CHARGE
       &CHARGE
         ATOM Pb
         CHARGE     8.3479999999999999E-01
       &END CHARGE
       &CHARGE
         ATOM Br
         CHARGE    -4.1739999999999999E-01
       &END CHARGE
     &END FORCEFIELD
     &POISSON
       PERIODIC  XYZ
       &EWALD
         EWALD_TYPE  SPME
         GMAX  62 62 62
         O_SPLINE  4
       &END EWALD
     &END POISSON
     &PRINT
       &FF_INFO  LOW
         SPLINE_INFO  F
         SPLINE_DATA  F
       &END FF_INFO
     &END PRINT
   &END MM
   &SUBSYS
     &CELL
       A     1.0000000000000001E+02    0.0000000000000000E+00    0.0000000000000000E+00
       B     0.0000000000000000E+00    1.0000000000000001E+02    0.0000000000000000E+00
       C     0.0000000000000000E+00    0.0000000000000000E+00    1.0000000000000001E+02
       PERIODIC  XYZ
       MULTIPLE_UNIT_CELL  1 1 1
     &END CELL
     &COORD
Cs   -7.3372475810932936E-01   -2.1239992662726853E-01   -6.5144981327697167E+00
Cs    3.6316521050244055E-01   -5.8326941519899060E+00   -7.0194430694633150E+00
Cs    1.6471209967833098E-01   -1.1111981040566171E+01   -6.2366860761538181E+00
Cs   -5.5418329239848534E+00   -6.1655433601237419E+00   -4.9337382739197269E+00
Br   -9.1383001917947144E+00   -1.2355518138615095E+01   -7.6930141990242786E+00
Br    1.2143066690237948E+01   -2.5836231548109763E+00   -9.2020099570929581E+00
Br   -3.4485399605721416E+00    3.5978864121799496E+00   -1.2024410229331171E+01
Cs   -3.4039922145373608E-01    5.8107920636390347E+00   -5.7030206441519384E+00
Cs   -6.2746712221844372E-02    6.1864201853782053E-01   -2.7247463237632026E-03
Cs    4.7426264917351063E-01   -5.9796381214530925E+00    4.6567445378019046E-01
Br   -5.5752209377009319E+00   -2.2236229081250536E+00    3.1502611553310884E+00
Cs   -1.1330584156315759E+01   -5.3951392987028060E+00    1.1918306793459534E+01
Cs    1.1995941530217673E+01   -1.1105619024956662E+01   -4.4643087633208478E-01
Cs   -5.8319666072954179E+00    5.1808836960393441E+00    8.7243834965907996E-01
Cs   -7.3814088472310024E-01    1.1712476264265099E+01   -8.7795657989975143E-02
Cs    5.7461465046565330E-01    6.6887163870375330E+00   -5.1680647709356575E-01
Cs   -2.2553098961396859E-01    3.4608473883323515E-01    5.6570208923895482E+00
Cs    8.7362797943801795E-01   -5.7316970227269985E+00    6.5898283398529989E+00
Cs   -5.3337211366789761E-02   -1.1113059057259040E+01    5.5368167683428542E+00
Cs   -4.6741900291978213E+00    6.8206013324286605E+00    1.2802886307139335E+01
Cs   -6.6357498164510371E+00   -8.6734030335718815E-01   -1.2529110893507152E+01
Cs   -5.6055527921294912E+00   -1.2023904091983578E+01   -5.5013140500403130E+00
Cs   -6.1032376571118432E+00    5.3663406689488302E-01    6.4642175333817438E+00
Br   -3.3281838893052162E+00   -3.1722154577993571E+00   -3.6205748460762170E-03
Cs   -9.5274243226802641E-02    5.5917589629106228E+00    6.3729365135251790E+00
Br    1.1658879240632805E+01   -9.4939236956272186E+00   -8.7802886625281076E+00
Cs    7.2798438562203382E-01   -5.3829070220935895E+00    1.2137076755826408E+01
Br   -2.2286752851686904E+00   -9.4117614402894709E-03    2.8570019592845757E+00
Br   -8.3959846146895352E+00   -3.2573700654462314E+00    1.1847012942287536E+01
Cs    1.1942447575303008E+01    1.1481260831332849E+01   -6.6410312491823600E+00
Cs   -1.1411597175809650E+01   -5.3028207497876094E+00    5.5256881525107948E+00
Cs   -5.5360999729653351E+00   -5.3241888963617914E+00    5.6435978200853780E+00
Cs   -6.0858013474346597E+00    1.0972372393828687E+01   -5.8695944676396206E+00
Br   -1.1855274835463947E+01   -9.9970046249042177E+00    9.6793591809073263E+00
Br   -9.0625938922795051E+00   -9.8659274558109917E+00    6.0872166382236639E+00
Cs   -1.1517409825963647E+01   -6.3400353358791062E+00   -6.3215502486042983E+00
Cs   -5.6606483868573410E+00    5.7673472480699797E+00   -6.1247956023907495E+00
Br   -9.0722178306942229E+00   -5.9638370547287973E+00    8.7486561314775848E+00
Cs    1.1538536800104477E+01    6.2456753111604781E+00    1.0794241745487874E+01
Br   -1.2123354904977873E+01    8.7581292849735188E+00    9.5164376763775369E+00
Br   -5.8295574567166382E+00   -3.2800129696992739E+00   -3.1354633890528758E+00
Cs    1.8662462784476308E-01    9.5800409331499969E-02    1.1153564853192135E+01
Cs    1.0888712560702315E+01    5.7416767593262739E+00    2.1976762574240244E-01
Cs   -1.1047170699245918E+01   -7.3775016702915721E+00   -1.1213879755990851E+01
Cs    1.1415532307322822E+01   -5.9788976350752165E-01    6.0022889535700950E+00
Cs   -1.1423444409770074E+01    1.1585925633536933E+01   -6.5992111839066423E+00
Cs    1.1665002172663106E+01   -1.0956025796593153E+01    6.0426971789538308E+00
Cs    5.7421430039749790E+00   -5.9957350627103478E+00   -1.0851551646707723E+01
Cs    6.7652997718851990E+00   -1.0478698952178531E+01    6.4741804688229889E+00
Cs   -5.3094888862732148E+00   -1.1560312867817311E+01    2.0934331598234601E-01
Cs    5.7436448285421307E+00   -1.0743306343466520E+01   -1.2344895768005530E+01
Cs    1.1327575593274442E+01    5.9918859913076199E+00   -6.1672379505623587E+00
Cs    1.1976088886903007E+01    1.1735864050062666E+01    6.6176409938531080E+00
Cs    1.1582246246020931E+01    5.0644992448061972E+00   -1.1184253659772192E+01
Cs   -4.2463294774515992E-01   -6.4379998824127771E+00   -1.1712631742610117E+01
Cs   -1.1236741175851744E+01   -7.9656170172707286E-01   -5.1671533717307350E+00
Cs    6.0139213930372053E+00   -5.5191572658613390E+00    1.1099484505282177E+01
Cs    1.1953429650231296E+01   -5.5321542874090976E+00    6.4818006119157516E+00
Cs   -1.1350232204091336E+01   -1.1544127751731894E+01    1.2576370101711431E+01
Cs   -1.2734107182994094E-02   -2.9301099530248303E-01   -1.1989963602503771E+01
Cs   -1.2736239414001010E-02    1.1524756030883903E+01    5.7222438517355956E+00
Cs   -4.3433351760813543E-01    5.3775454165309586E+00   -1.1953958912783381E+01
Cs    6.1401398068931003E+00    2.0036657621602028E-01   -5.8364066460345549E+00
Cs    6.7965070422091598E+00   -5.2961506896768755E+00   -6.5132738029312698E+00
Cs   -5.9529779891954551E+00   -1.0302495823277159E+01    6.2840363046394003E+00
Cs   -1.1827685544908839E+01    2.1746481941686910E-01    5.9856713700945505E+00
Cs    5.6705683367337221E+00   -4.8020128771467739E-02   -1.1860648882585259E+01
Cs    6.0032785015862888E+00    1.2349344142133539E+01   -1.2952685960123416E+01
Cs    4.1277009339032794E-01    5.9627582079736294E+00    1.1571650659358705E+01
Cs   -5.5171685248913365E+00    1.1555716786668487E+01    5.3438685979163170E+00
Cs    5.5904650841297183E+00    1.1327005286461594E+01   -6.0941467499574768E+00
Cs    5.3188068843938421E+00    6.0738736647128064E+00   -5.2814809770714746E+00
Cs    5.7580023268263094E+00    1.3005596979140141E-01    1.5916555327270038E-01
Cs    6.1287661023620856E+00   -5.6549476179485989E+00   -7.8793292732362630E-01
Cs    6.4783123897771739E+00   -1.1269581378740837E+01    7.4182129924695406E-01
Cs    5.7421817044796493E+00    5.7807405195919870E+00   -1.1561947353313819E+01
Cs   -6.0703953244513640E+00    6.5818444028824352E+00    6.2788552990686615E+00
Cs   -6.4348722465742432E+00   -6.4216911152640765E+00   -1.0956267786004444E+01
Cs    6.7182362295943179E+00    5.7492722249701487E+00   -1.4887125081793895E-01
Cs    5.5492390128126567E+00    6.3352472049700259E-01    5.9984262044533194E+00
Cs    6.4137278575608372E+00   -5.6448143205280905E+00    6.6990947004105887E+00
Cs   -5.6756203561984711E+00    1.1213598745553568E+01   -1.7564786808234978E-01
Cs    1.2022038719016967E+01    1.1548214322724139E-01   -6.7982379655804270E-01
Cs   -5.5974708293851885E+00   -4.1217649011579988E-01   -7.2951673368209902E-01
Cs   -1.1819712320782617E+01    6.1181388508759609E+00    6.7731054598974803E+00
Cs   -5.9585958222883280E+00   -1.6307187982813443E-01    1.2123624647734735E+01
Cs    5.7885611810045665E+00    1.2393084336554377E+01    6.2628223042522464E+00
Cs    6.3919613075297423E+00    6.3242532181290736E+00    6.1191172351191669E+00
Cs    6.9252224414895318E+00    6.3759291656055184E-01    1.1593852138455594E+01
Cs    4.2594806928190474E+00    1.2770925241732076E+01    5.4806776003173754E-02
Cs    1.1506071835052783E+01   -2.0929213398224256E-01   -6.3547414209755972E+00
Cs    1.1341651611547416E+01   -6.4681684523238374E+00   -6.0323292066358709E+00
Cs    6.7946830401911296E+00   -1.0809894224368049E+01    1.1824250071911967E+01
Cs    1.1485681891947793E+01    1.0672705232296710E+01   -8.3759436001426835E-01
Cs   -1.1203892092300865E+01   -3.4039576473937999E-01    1.1516266108288569E+01
Cs   -6.9111710446155206E+00    5.2772289170153197E+00   -1.1488431034002186E+01
Cs   -1.0684441097897123E+01    1.1813981084079670E+01    3.0893254859505193E-01
Cs   -5.0123081132335452E+00   -5.4418351238479383E+00    1.1385702639558898E+01
Cs   -5.5496191013322429E+00   -1.1559296282276399E+01    1.0950780808571313E+01
Cs    6.4734800822651453E+00    6.1494031835054814E+00    1.0802832361061279E+01
Cs    1.2114158299040986E+01   -5.5385052006695794E+00    8.3512484112036356E-01
Cs   -1.1073825609987040E+01    1.6877547924574668E-01    7.0907631716999731E-01
Cs   -6.4158576017355067E+00    1.0212188235161351E+01   -1.2057759025338509E+01
Cs   -1.1275637464460884E+01    5.6918031630741588E+00   -1.3620328610972571E-01
Cs   -1.2112690799061827E+01   -1.2253955367529965E+01   -6.1097989500912631E+00
Cs   -1.1406259226229730E+01   -6.4121764089991284E+00    1.1491659147962110E+00
Cs   -5.1790728027287338E+00   -6.1439993217239772E+00   -2.5611739675826403E-02
Cs   -1.0228456199507498E+01   -1.3265463623662129E+01    6.7136187442969568E+00
Cs    1.1169173537026756E+01   -5.0382604851858535E+00    1.1936813168770398E+01
Cs    1.1582522133431198E+01    6.2282899038342947E+00    6.0271229082938413E+00
Cs   -1.1436322788591772E+01    5.7133569527351495E+00   -6.0328930435176522E+00
Cs   -5.2982328337928610E+00   -2.4075598955738203E-01   -5.9151072612393376E+00
Cs   -9.6344280562571729E+00   -1.2815965947694636E+01    1.6016653867715813E-01
Cs    1.1735539556568671E+01   -1.1874874138745223E+01   -1.1002382349642458E+01
Cs   -7.5749166462506379E+00   -1.3307826585703321E+01   -1.1817010375658002E+01
Cs   -6.5587571158254023E-03    1.0677044412171815E+01   -1.2033243906435493E+01
Cs    9.5354563526711109E-02   -1.1797746637121790E+01   -1.1546825117589501E+01
Cs   -1.3394037288886890E-01    1.1538013293025962E+01   -5.9307622236195101E+00
Cs   -1.1688833646937374E+01    1.1342398061899608E+01    1.1851195788870967E+01
Cs    1.0683116148316285E+00   -1.1893280996665501E+01    8.6094555012893384E-02
Cs   -1.1813091478775014E+01    5.3899955442523861E-01   -1.1195140915443012E+01
Cs   -1.0801720496909505E+01    1.1345385510559977E+01    5.2904212133149731E+00
Cs    6.5315070773928010E+00   -1.1642158660623739E+01   -5.4130685285449154E+00
Cs    1.1834076146674947E+01    5.8635234954601385E-02   -1.1411445645215418E+01
Cs   -4.5384507011321823E-02    1.2251182269557562E+01    1.0465080904093934E+01
Pb    2.9607705760689509E+00   -2.8973172189401204E+00   -3.5581629549682021E+00
Pb    3.2966287090634365E+00   -9.0014008116453255E+00   -3.0860297226262818E+00
Pb   -8.8947424143822023E+00   -2.9523961723028802E+00    2.7997374771409587E+00
Pb   -2.7091755211384587E+00   -9.4443796424433497E+00   -2.8221792361102085E+00
Pb    2.5554318280877562E+00    9.1988689769854144E+00   -3.2738412217935866E+00
Pb    3.1508217761945918E+00    2.9757622052624697E+00   -3.2242929317748987E+00
Pb    3.1728958243568037E+00   -2.5992884749059160E+00    2.9370848279610011E+00
Pb    3.1665595764964309E+00   -8.6452439591648798E+00    3.0081737908342934E+00
Pb   -2.8330579050055689E+00    8.7258528209655974E+00    2.9553540364357636E+00
Pb    3.0614070225712107E+00    9.1587950163125367E+00    2.7943027452928386E+00
Pb    3.0359537875269655E+00    3.3235918253320356E+00    2.9154171525140113E+00
Pb    3.2882864785524686E+00   -2.6296009347278080E+00    9.1043392092096429E+00
Pb    3.4257416512853061E+00   -8.8987510638480387E+00    9.1411123016535960E+00
Pb   -2.9860870786113831E+00    2.8839738384327847E+00    3.2522012220491336E+00
Pb    2.9119322183500254E+00    9.4210633276647702E+00    8.7796144500872906E+00
Pb    3.0937292911376311E+00    3.3547899152927814E+00    8.8244633080019881E+00
Pb   -2.5729905292466402E+00   -2.7911914033175664E+00    8.9000051025556211E+00
Pb   -9.0530962160407213E+00   -9.0547664786411044E+00    3.4142400786117850E+00
Pb   -8.8663858305506587E+00    2.2998667090761042E+00   -2.6316252464547421E+00
Pb   -3.1819249795247471E+00   -3.1394115756824128E+00   -9.0793650518155715E+00
Pb   -2.9972964063550047E+00   -8.5936079715271330E+00    3.1286505398185667E+00
Pb   -3.2383387998498496E+00    8.8803508894735241E+00   -2.8871702177567364E+00
Pb   -2.6997075239699657E+00   -8.8278328175898615E+00    9.0945157616892907E+00
Pb   -8.7993331502615160E+00   -3.6598679395620297E+00   -3.0342095563217533E+00
Pb   -8.6988015931422105E+00   -9.8511593847585051E+00   -2.5024951155278150E+00
Pb   -2.8944893515489039E+00    2.9169295799083450E+00   -2.7735828275377297E+00
Pb   -9.1369143744474730E+00   -9.1705219990277893E+00    9.2349624776230232E+00
Pb   -9.1258273350146020E+00   -3.4075193597084024E+00   -9.0968514468974906E+00
Pb    9.3605908402258855E+00   -3.1438055734605856E+00   -9.7387910139912570E+00
Pb    8.9983672809774014E+00   -9.3109915643760406E+00   -8.6162370231294219E+00
Pb   -3.1853676540484925E+00   -9.5036237424100829E+00   -8.8430038176011099E+00
Pb   -9.9359454393615518E+00    8.5738823440711975E+00   -9.5554432195136378E+00
Pb    3.0105799194522302E+00   -3.1146596832160385E+00   -9.6281001807261664E+00
Pb    2.8804548959173779E+00   -9.2684430640803583E+00   -8.9586258990227829E+00
Pb   -3.4139395715691667E+00    2.9926485708232700E+00   -9.3134258542977495E+00
Pb    2.9072337294608444E+00    9.2859137533498686E+00   -9.1508796554575618E+00
Pb    2.7487412247438479E+00    2.7997579915392041E+00   -9.2680805246989539E+00
Pb    9.2246957556403366E+00   -2.9614315620733001E+00   -3.3708215344446675E+00
Pb    9.3133851416960844E+00   -8.9635826119348216E+00   -2.8987221535021566E+00
Pb   -8.3374063983166700E+00   -3.0837460759182966E+00    8.9252312504619908E+00
Pb    8.8639593787907014E+00    8.9664356310513451E+00   -9.7755213699864143E+00
Pb   -9.4005753644825187E+00    2.4826176775385380E+00   -8.8336590692958339E+00
Pb   -3.2743331764477448E+00    9.0011200033925594E+00    8.8684943080947232E+00
Pb    8.7729755528627411E+00    9.0426809458010204E+00   -3.6396378781890011E+00
Pb    8.9987326123030371E+00    2.9753869627934821E+00   -2.9972503089886895E+00
Pb    9.3643655077301258E+00   -2.7564719034190945E+00    2.6965319659646609E+00
Pb    9.2888242173263738E+00   -8.8785326095974515E+00    3.2635856117391704E+00
Pb    8.9246224141021813E+00    2.7573479397641560E+00   -8.9980656348590724E+00
Pb   -2.8538175414377553E+00    3.2276997889346175E+00    9.2402884226858522E+00
Pb    9.0659086335138390E+00    9.0950744908738645E+00    3.0719440549614383E+00
Pb    9.1360171373524057E+00    3.2009301183905126E+00    2.9386282599994340E+00
Pb    9.2987030218602023E+00   -2.5202046888541583E+00    8.7879503133821952E+00
Pb    9.2597098865677037E+00   -8.2644439335253495E+00    9.2635734097273783E+00
Pb    8.9849970801742494E+00    9.7056470655656231E+00    9.0162932700698164E+00
Pb    9.1921437600657843E+00    3.4500261529125127E+00    8.8075194660561547E+00
Pb   -8.8816860644047786E+00    3.0612680615408223E+00    9.4370248380485648E+00
Pb   -2.8002236638738558E+00   -2.7393657396002413E+00    2.9377760964772719E+00
Pb   -9.1791106161282574E+00    8.8738172390166170E+00    2.8456494425936247E+00
Pb   -9.2612794470297253E+00    8.7567540818026046E+00   -3.3795779995462074E+00
Pb   -9.0610727985983051E+00   -9.7121309311438129E+00   -8.2591936318797536E+00
Pb   -3.3384731562248167E+00    8.9728078742506607E+00   -9.0093906210575820E+00
Pb   -9.0271631324034942E+00    2.9516667984604661E+00    3.2229073610372194E+00
Pb   -9.1378337069082125E+00    8.9456175245426799E+00    9.0108369238603032E+00
Pb   -2.8692148199056633E+00   -3.3779311012502617E+00   -2.9092876889253678E+00
Br    2.3651816814134982E-01   -2.9677615046489003E+00   -3.5974534447934325E+00
Br    3.1717442726624241E+00   -2.5807067053084385E+00   -6.5202902261708067E+00
Br    3.1469940168788955E+00   -5.3299336066285036E-02   -3.1135082113049433E+00
Br    3.2259033867442188E-01   -8.8871467363195951E+00   -3.0171631089685587E+00
Br    3.6352018156433128E+00   -8.8537109487408898E+00   -6.1994782654086924E+00
Br    3.7151514911735370E+00   -5.6754660048639805E+00   -3.9748668831602205E+00
Br   -2.9324485158360107E+00   -3.0672372454942041E+00   -6.0020289590308691E+00
Br   -9.0241370488247110E+00   -3.0293657930420714E+00    5.7583165231316595E+00
Br   -3.0262020268167196E+00   -2.8149012481678254E-01   -3.0002721721316798E+00
Br    3.0773890194790301E+00   -1.1957325709132466E+01   -2.7489807892934679E+00
Br    1.2438902744935890E+01   -2.7598642318117768E+00    3.3078809448108180E+00
Br   -5.4969711350248689E+00   -9.9488932117749584E+00   -2.8085105900178537E+00
Br   -1.1721761583233286E+01   -3.1665988963268381E+00    2.6486817351045331E+00
Br   -8.5391087528460794E+00   -3.2170386708163177E+00    5.5180934997865312E-02
Br    1.2289608861253978E+01   -9.6839482386035112E+00    2.7767402765856479E+00
Br   -3.9303818390276335E-01    8.9035010756189141E+00   -2.7291187842705442E+00
Br    2.5049923276471429E+00    8.8955756285117236E+00   -6.0438698081515758E+00
Br    2.4570667021477473E+00    1.2046111922090438E+01   -3.6168685528499318E+00
Br    1.9750462550827966E-01    3.1559345784919910E+00   -2.6361584884984461E+00
Br    3.3517415489431968E+00    2.7652949280514085E+00   -6.5086298597691696E+00
Br    2.7083713694772720E+00    6.1033825123947736E+00   -3.4550929179400849E+00
Br    3.8190924496783368E-01   -2.6805976601907684E+00    2.6949297662360436E+00
Br    3.0251546026907610E+00   -3.2095709090569704E+00   -3.4511196970431125E-02
Br    2.6223991008681398E+00    5.0184030143165725E-01    3.3670540102709947E+00
Br   -3.1120977063261741E-02   -8.5206457102863133E+00    2.7301248646536633E+00
Br    2.9389613877418124E+00   -8.5296743515292999E+00    1.1105473398651308E-01
Br    2.9717588924232183E+00   -5.6303051548679077E+00    3.0588912459569131E+00
Br   -6.1392190464276251E+00    8.1118730807326322E+00   -8.7164929312885118E+00
Br   -3.1456162251711901E+00    9.3600721225464252E+00   -1.1900414969452742E+01
Br    3.5800130268687194E+00   -1.1434266779467450E+01    2.2393433542436596E+00
Br   -3.8802050125164906E+00    1.1666354453123175E+01   -8.2150891328086342E+00
Br   -3.1247543149419514E+00    5.9624388799663723E+00   -8.7301630127430716E+00
Br   -8.8573647399910627E+00   -7.1420760689798829E-02    3.3542776434386576E+00
Br   -3.1436995702715351E+00   -9.2961123166124615E+00   -5.8094323700877606E+00
Br   -6.1103149246279491E+00    8.4774537019018013E+00    3.0392982037375744E+00
Br   -3.1471803032284478E+00    8.4535746024965590E+00    9.1062854430789694E-02
Br   -3.1075775560825041E+00    1.1635739285262053E+01    1.9499525714689958E+00
Br    1.9034939995879951E-01    8.3930678607737583E+00    2.7621871145181967E+00
Br    2.4416727629616504E+00    9.4370359877967864E+00   -3.5256159472228243E-01
Br    2.4396538225530677E+00    1.2150386971133653E+01    2.5659821814892108E+00
Br    2.9927721744207070E-01    3.3011741192934090E+00    3.0749262332679770E+00
Br    3.5733795153980403E+00    2.9882097198201305E+00   -6.6932637694862060E-02
Br    3.6516676653159501E+00    6.2778173841817502E+00    2.5610932064902907E+00
Br    4.2770490116258242E-01   -2.9650941341274444E+00    8.8572103335595287E+00
Br    3.4280785886622454E+00   -2.5148324061044538E+00    5.7898960066148195E+00
Br    3.2413702910353854E+00    4.0361077349529650E-01    8.8351459846146252E+00
Br    3.4316528858528889E-01   -8.4790066009056755E+00    9.4931119928555727E+00
Br    2.6187262335929073E+00   -9.0045038834529993E+00    6.0341418644271334E+00
Br    3.3443824222834304E+00   -5.5871722632790100E+00    8.6335978670112592E+00
Br   -1.1736634635931640E+01    2.5899010869447632E+00    2.9017878736803464E+00
Br   -8.8113416054174198E+00    2.5669050112525440E+00    2.4727062246542186E-01
Br    4.5422809572644880E+00   -1.1327093471305865E+01    9.5419605112393011E+00
Br   -9.3894282417062431E+00    6.0198945423006549E+00    2.6389988813000618E+00
Br   -8.6325343795013350E+00   -1.2905530932569785E-02    8.7086960233351149E+00
Br   -2.7577584345272514E+00   -6.2116810162913163E+00   -3.0304612426900248E+00
Br   -5.8236424295321134E+00    2.4593831215596049E+00    3.3876843965712569E+00
Br   -3.2837743954102372E+00    2.9671852032790307E+00    1.2497825996185721E-01
Br   -2.9459499824416180E+00    5.8689914881230010E+00    3.2193812398177601E+00
Br   -1.5997139441525937E-01    8.9317701775165936E+00    8.6594133950915460E+00
Br    3.0004382927090978E+00    9.7182227628788613E+00    5.7897872967106068E+00
Br    2.5761522852258878E+00    1.2368085218932016E+01    8.2661859289928401E+00
Br    1.7736554925097522E-01    3.0883400345805092E+00    8.5920948009643059E+00
Br    3.1276480672406985E+00    4.2156844358868115E+00    5.9129798835671012E+00
Br    2.9644541387856744E+00    6.1620710558256411E+00    9.4512404471243858E+00
Br   -5.3169503442960790E+00   -3.1483212277371462E+00    8.6925230935187727E+00
Br    2.9895121388914800E+00   -2.9636639330834815E+00    1.1931969863681209E+01
Br   -2.4986777715563688E+00   -2.6799313389182395E+00    5.9828526233052077E+00
Br   -3.2878436385295955E+00    2.4252782392347519E-01    9.2328901342157970E+00
Br   -2.5921729615642808E+00   -1.2192562886626639E+01   -2.2355004591042147E+00
Br    3.9580328732909553E+00   -8.2929472140217726E+00    1.2014780468661444E+01
Br   -1.1809744100233605E+01    2.2984628516465548E+00   -2.2304431354858565E+00
Br   -3.1496666128999564E+00   -1.1663363506945624E+01    3.5206888746421847E+00
Br   -1.1680981745182514E+01   -3.4730871405276353E+00   -3.0988768882329829E+00
Br    2.5080936394173792E+00    9.8690222660511306E+00    1.1384882246934456E+01
Br   -8.6266877674034124E+00   -3.3737568726405600E+00   -6.1280561391610346E+00
Br   -9.0684262769761812E+00   -6.8865151851886108E-01   -2.8725908623593632E+00
Br    2.5652525308456107E+00    3.1181802139608252E+00    1.1667854499698137E+01
Br   -6.0292947618147625E+00    8.8457512710968214E+00   -3.4731692385688313E+00
Br   -2.5689821107621347E+00    8.5600275632100740E+00   -5.9968185104443492E+00
Br   -3.2381628703346688E+00    1.1728305803943854E+01   -3.3890230059597197E+00
Br   -5.9147130788524755E+00    2.8930051058005137E+00   -2.6577331169332670E+00
Br   -1.1710324989009923E+01   -8.3885858831247671E+00    3.6959804142265882E+00
Br   -2.5029995758841195E+00    2.8337588642749738E+00   -5.4948552972024514E+00
Br   -6.2181879438598076E+00   -3.1511053083621245E+00   -8.8635235698602806E+00
Br   -3.6875286862139367E+00   -2.6668168812555670E+00   -1.2039496098492672E+01
Br   -3.2388416572926881E+00   -1.0296579844540060E-01   -8.6858087508804953E+00
Br   -2.4393502478914106E+00    3.7179461729563976E+00    1.2126023623600178E+01
Br   -5.9520465004050731E+00   -8.2950467708356417E+00    8.8775308840822227E+00
Br   -3.0277984153220636E+00   -8.4528604710875275E+00    6.0429317257901172E+00
Br   -2.4735026369836293E+00   -5.8098198427828205E+00    9.1628312328827892E+00
Br   -9.4383752068713669E+00   -9.1525210231665177E+00    3.8756613710113796E-01
Br   -8.8353111233968047E+00   -5.9582783141035041E+00    3.1590774552438114E+00
Br   -8.6867395518367960E+00    9.6497583985825823E+00    1.1682944762154085E+01
Br    1.1720258773922811E+01    8.6104341695852202E+00    1.8000382419060683E+00
Br   -9.0545291569746968E+00   -8.5773572930701505E+00    1.2264231137215170E+01
Br    1.1627430275869955E+01    9.1585236702203794E+00   -3.8408622341871452E+00
Br    1.1987602511033666E+01    3.9034409149811125E+00    2.9976823779080752E+00
Br   -8.7079260000050080E+00    1.7429028333204839E+00    1.2014991406112843E+01
Br   -1.1934523534587470E+01   -4.0854407083391653E+00   -9.1893984211169428E+00
Br    1.2099679340659000E+01   -2.9206725140271343E+00    8.5274219436625192E+00
Br   -6.1035673151257281E+00   -8.2915533671389170E+00    2.9275311100470987E+00
Br    5.9516966499967188E+00   -3.0878673931505949E+00   -9.5933013843063684E+00
Br    9.2141283304573438E+00   -2.1945227949958515E+00   -1.2659523455558725E+01
Br    1.2020975476166862E+01   -7.5349824734221524E+00    9.2971432609790128E+00
Br    8.9992331929840415E+00   -2.1513718583076680E-01   -8.9006105944109386E+00
Br   -8.0136732791357606E+00   -1.2031799676939352E+01    8.8373869625393180E+00
Br   -3.2723034862835223E+00   -8.8490572228571622E+00   -5.5820601311275635E-02
Br   -3.2451504429985696E+00   -5.7886650307599732E+00    2.7461291185252290E+00
Br    6.1148873835367787E+00   -8.8473727413341372E+00   -9.0283719792052590E+00
Br   -5.9762172688642119E+00   -8.8435889068825588E+00   -8.1337657263896688E+00
Br    8.7907607202974525E+00   -9.9101522573562359E+00   -1.1321389029544138E+01
Br    8.7666763440243010E+00   -6.3826458431570385E+00   -8.5669296691430787E+00
Br   -3.1473423232961841E+00   -1.1440165329813411E+01    8.4590201559943416E+00