 # Version information for this restart file 
 # current date 2021-06-17 12:33:40.206
 # current working dir /user/ub2042/exercises/2_fitting/MM_MD_workdir/md_settings
 # Program compiled at                              Thu Apr 22 21:44:59 EDT 2021
 # Program compiled on                cpn-k07-07-02.compute.cbls.ccr.buffalo.edu
 # Program compiled for                                                    local
 # Source code revision number                                       git:36754bb
 &GLOBAL
   PRINT_LEVEL  LOW
   PROJECT_NAME cp2k
   RUN_TYPE  MD
 &END GLOBAL
 &MOTION
   &MD
     ENSEMBLE  NVT
     STEPS  10000
     TIMESTEP     2.4999999999999996E+00
     STEP_START_VAL  5500
     TIME_START_VAL     1.3750000000000124E+04
     ECONS_START_VAL    -1.3925666412857368E+01
     TEMPERATURE     3.0000000000000000E+02
     &BAROSTAT
       PRESSURE     1.0100000000000000E+00
       TIMECON     9.9999999999999982E+03
     &END BAROSTAT
     &THERMOSTAT
       TYPE  CSVR
       &CSVR
         TIMECON     9.9999999999999982E+03
         &THERMOSTAT_ENERGY
              -2.0926251306353905E-01
         &END THERMOSTAT_ENERGY
         &RNG_INIT
Wiener process for Thermostat # 1        1 F T F   3.9545893096156498E-01         256144355.0        3009584448.0         998109704.0        3723005416.0        4037023628.0        4248548337.0             12345.0             12345.0             12345.0             12345.0             12345.0             12345.0             12345.0             12345.0             12345.0             12345.0             12345.0             12345.0
         &END RNG_INIT
       &END CSVR
     &END THERMOSTAT
     &AVERAGES  T
       &RESTART_AVERAGES
         ITIMES_START  1
         AVECPU     1.7881734924179167E-02
         AVEHUGONIOT     0.0000000000000000E+00
         AVETEMP_BARO     0.0000000000000000E+00
         AVEPOT    -1.4277010522061985E+01
         AVEKIN     4.5274599953546624E-01
         AVETEMP     2.2966378890406065E+02
         AVEKIN_QM     0.0000000000000000E+00
         AVETEMP_QM     0.0000000000000000E+00
         AVEVOL     6.7483345830908539E+06
         AVECELL_A     1.8897261328855762E+02
         AVECELL_B     1.8897261328855762E+02
         AVECELL_C     1.8897261328855762E+02
         AVEALPHA     9.0000000000000000E+01
         AVEBETA     9.0000000000000000E+01
         AVEGAMMA     9.0000000000000000E+01
         AVE_ECONS    -3.6543967892380236E+00
         AVE_PRESS     0.0000000000000000E+00
         AVE_PXX     0.0000000000000000E+00
       &END RESTART_AVERAGES
     &END AVERAGES
     &PRINT
       &ENERGY  SILENT
         &EACH
           MD  10
         &END EACH
       &END ENERGY
     &END PRINT
   &END MD
   &PRINT
     &TRAJECTORY  SILENT
       &EACH
         MD  10
       &END EACH
     &END TRAJECTORY
     &CELL  SILENT
       &EACH
         MD  10
       &END EACH
     &END CELL
     &VELOCITIES  SILENT
       &EACH
         MD  10
       &END EACH
     &END VELOCITIES
     &FORCES  SILENT
       &EACH
         MD  10
       &END EACH
     &END FORCES
     &RESTART  SILENT
       &EACH
         MD  10
       &END EACH
     &END RESTART
   &END PRINT
 &END MOTION
 &FORCE_EVAL
   METHOD  FIST
   &MM
     &FORCEFIELD
       VDW_SCALE14     1.0000000000000000E+00
       EI_SCALE14     1.0000000000000000E+00
       SHIFT_CUTOFF  T
       DO_NONBONDED  T
       IGNORE_MISSING_CRITICAL_PARAMS  T
       &SPLINE
         R0_NB     2.5000000000000000E-01
       &END SPLINE
       &NONBONDED
         &LENNARD-JONES
           ATOMS Br Br
           EPSILON     1.2630795322675199E+02
           SIGMA     3.6900000000000004E+00
         &END LENNARD-JONES
         &LENNARD-JONES
           ATOMS Cs Pb
           EPSILON     8.6920055954630968E+01
           SIGMA     3.6699999999999999E+00
         &END LENNARD-JONES
         &LENNARD-JONES
           ATOMS Cs Cs
           EPSILON     2.2644852172126850E+01
           SIGMA     4.5300000000000002E+00
         &END LENNARD-JONES
         &LENNARD-JONES
           ATOMS Pb Pb
           EPSILON     3.3363415533600227E+02
           SIGMA     6.1000000000000005E+00
         &END LENNARD-JONES
         &LENNARD-JONES
           ATOMS Br Cs
           EPSILON     5.3481070753900497E+01
           SIGMA     3.6300000000000003E+00
         &END LENNARD-JONES
         &LENNARD-JONES
           ATOMS Br Pb
           EPSILON     2.0528187276773045E+02
           SIGMA     2.9800000000000000E+00
         &END LENNARD-JONES
       &END NONBONDED
       &CHARGE
         ATOM Cs
         CHARGE     4.1739999999999999E-01
       &END CHARGE
       &CHARGE
         ATOM Pb
         CHARGE     8.3479999999999999E-01
       &END CHARGE
       &CHARGE
         ATOM Br
         CHARGE    -4.1739999999999999E-01
       &END CHARGE
     &END FORCEFIELD
     &POISSON
       PERIODIC  XYZ
       &EWALD
         EWALD_TYPE  SPME
         GMAX  62 62 62
         O_SPLINE  4
       &END EWALD
     &END POISSON
     &PRINT
       &FF_INFO  LOW
         SPLINE_INFO  F
         SPLINE_DATA  F
       &END FF_INFO
     &END PRINT
   &END MM
   &SUBSYS
     &CELL
       A     1.0000000000000001E+02    0.0000000000000000E+00    0.0000000000000000E+00
       B     0.0000000000000000E+00    1.0000000000000001E+02    0.0000000000000000E+00
       C     0.0000000000000000E+00    0.0000000000000000E+00    1.0000000000000001E+02
       PERIODIC  XYZ
       MULTIPLE_UNIT_CELL  1 1 1
     &END CELL
     &COORD
Cs   -3.1653794625741211E-01   -5.4702264634495223E-01   -6.7519981955928783E+00
Cs    2.8610750580196948E-01   -6.0942104541133615E+00   -4.9590462779135267E+00
Cs    7.4522229288678388E-01   -1.2201142597959347E+01   -4.6725172961737842E+00
Cs   -5.6015838785761289E+00   -6.2416700951407762E+00   -5.7280871142621539E+00
Br   -8.1267130749901479E+00   -1.3428444361976259E+01   -6.8527529512019898E+00
Br    1.1632875752525305E+01   -2.1306786168921823E+00   -1.0375993929897144E+01
Br   -3.5077025232660413E+00    1.1643178184311793E+00   -1.2028184615028112E+01
Cs   -1.3169398026270251E+00    6.3011834430299718E+00   -6.6088354680833490E+00
Cs   -3.2215176536461399E-03   -6.6563936494513953E-01    2.8168429287985230E-01
Cs    3.7238198614517365E-01   -6.5859382567506692E+00    7.7583401788985074E-01
Br   -5.7418184330536111E+00   -3.4055259714763237E+00    3.5324109587098880E+00
Cs   -1.1652673253003234E+01   -5.4323648109694496E+00    1.1738815459459012E+01
Cs    1.3493102102891685E+01   -9.9377540582957131E+00    1.7465147707984252E+00
Cs   -6.3989734116233867E+00    5.6837774385914770E+00    6.1481636217525648E-01
Cs   -5.4791966714646434E-01    1.0499503141036328E+01   -8.8868498456125711E-01
Cs    3.3061148662301165E-01    5.7672995937397298E+00   -6.0557613255148501E-01
Cs    1.1441229894333682E+00    3.8167385506789088E-02    6.6071923230634582E+00
Cs    6.9318790455337853E-01   -5.2017746427503671E+00    6.7698113607827963E+00
Cs    7.2484391780144097E-01   -1.1103382645248150E+01    6.6942123254845241E+00
Cs   -5.0798689573789835E+00    6.3541032089397778E+00    1.1478298164191038E+01
Cs   -5.9703275120799359E+00   -1.5930613701340646E+00   -1.1105326175477000E+01
Cs   -4.6589581403451179E+00   -1.1961753100874020E+01   -4.7296952424856586E+00
Cs   -5.0588579300362619E+00    3.0115939172356088E-01    6.0811543916786954E+00
Br   -3.3945062104060910E+00   -3.2195872829246790E+00    4.7110764591882359E-01
Cs   -4.9808676652157752E-01    6.0761655553868392E+00    6.3384580320043167E+00
Br    1.2816949674823700E+01   -8.4323262438269637E+00   -8.6861630293543488E+00
Cs    8.8139172610491801E-01   -7.2162163490026572E+00    1.2626884787488489E+01
Br   -2.6734648649663759E+00   -3.5244383238518312E-01    3.6837809899678646E+00
Br   -9.2857762058349032E+00   -2.3171732539999819E+00    1.2346406953156006E+01
Cs    9.8632030374550617E+00    1.1752327592647068E+01   -7.9184127208559714E+00
Cs   -1.1389000068106530E+01   -6.0232120216856346E+00    5.4670828524893054E+00
Cs   -5.5249554197082356E+00   -5.7423897937486998E+00    6.5145330485909838E+00
Cs   -5.2358053646144551E+00    1.1569588562679423E+01   -6.5506281156617705E+00
Br   -1.0674120833112752E+01   -8.3877227558614429E+00    1.0382934936488351E+01
Br   -7.9191901013098853E+00   -9.0069457434957432E+00    7.0250660681043735E+00
Cs   -1.1740993953934058E+01   -8.1323561115580993E+00   -5.2478919570673019E+00
Cs   -6.5404231639855821E+00    4.9940974068550643E+00   -5.6968224706796269E+00
Br   -7.6490625121158056E+00   -6.2680663452736018E+00    9.5253430975991371E+00
Cs    1.1508621554872420E+01    7.9215615249829767E+00    1.0096773109536345E+01
Br   -1.2275748133193119E+01    8.3869656411563174E+00    8.2903628358845385E+00
Br   -5.8852611529755725E+00   -3.0740931787672947E+00   -2.5602093668364234E+00
Cs   -1.3182044305247062E-01    9.9370743403086959E-01    1.1312192446959681E+01
Cs    1.1498243215972893E+01    7.0013580228330765E+00   -1.1094824669122418E+00
Cs   -1.0786746649380133E+01   -8.5150233413134000E+00   -1.0491216178781571E+01
Cs    1.2114985224033047E+01    1.9416874362244705E+00    5.1780650021923824E+00
Cs   -1.1259676419309775E+01    1.1077964245857975E+01   -5.9988351768539099E+00
Cs    1.2609503650432442E+01   -1.0479310187898475E+01    7.2579401837474027E+00
Cs    7.3473182655813263E+00   -6.6561298345973228E+00   -1.1795657177630549E+01
Cs    7.4015179862734373E+00   -1.0148686743183154E+01    8.2408723466730684E+00
Cs   -3.6193263192707574E+00   -1.2642173488434215E+01    6.7594907131185822E-01
Cs    6.4505379772122975E+00   -1.1398422791502995E+01   -1.0992605982747465E+01
Cs    1.0420806169324997E+01    6.9219601547811616E+00   -7.2292051597770888E+00
Cs    1.0558891655732618E+01    1.3192809965574805E+01    4.0770493142886854E+00
Cs    1.0122702925869033E+01    7.1012959153570741E+00   -1.2964471946887821E+01
Cs    9.0109823598654082E-01   -7.0184740364204341E+00   -1.0247014862741320E+01
Cs   -1.1776704717946249E+01   -1.5073933744354187E+00   -5.7981890933076157E+00
Cs    7.3069259440020904E+00   -3.7761981290430295E+00    1.2183518184157002E+01
Cs    1.2057739110861059E+01   -4.4042592018743862E+00    5.8870928902185957E+00
Cs   -1.0014325319901184E+01   -1.0763502341316025E+01    1.4571043542798378E+01
Cs   -1.1019802209934619E-01   -8.0616145330469691E-01   -1.1856735035278774E+01
Cs   -1.6794594132430383E+00    1.1912360036126790E+01    4.9980235283552670E+00
Cs   -1.0935085496933306E+00    4.4878069397663420E+00   -1.1365102202489332E+01
Cs    5.4000680353488839E+00    3.6435755003873904E-01   -6.4237139973529400E+00
Cs    6.5179208543560057E+00   -6.3669129434468053E+00   -6.0044397420484570E+00
Cs   -4.2138435397961223E+00   -1.1233355810743991E+01    6.5833213624930060E+00
Cs   -1.0746498498937655E+01   -1.2660835636433390E-01    6.4192190778103120E+00
Cs    5.6999144156236010E+00   -1.3346998648871005E+00   -1.1775395719803935E+01
Cs    4.1938055739258235E+00    1.0760392638280701E+01   -1.3769862870924158E+01
Cs    2.6151284252907220E-01    6.2968373353260452E+00    1.1068329035651637E+01
Cs   -6.9025106486644097E+00    1.1160479485063101E+01    5.4913326643021882E+00
Cs    5.0606194981006301E+00    1.2031918471007964E+01   -6.4711582105956715E+00
Cs    4.7484421176270866E+00    5.5579411461784645E+00   -7.1652969958652566E+00
Cs    5.8372307630110560E+00   -2.1474931551688253E-02    2.7013176256203465E-02
Cs    5.8795404957887918E+00   -5.3188714582232919E+00    7.9844986043789479E-01
Cs    7.0580270160198397E+00   -1.0996249776062413E+01    6.7604769707761847E-01
Cs    4.1208509114753813E+00    5.0848961830120896E+00   -1.2950685625590276E+01
Cs   -5.8370293948810437E+00    5.5698413103927793E+00    5.6579022109981603E+00
Cs   -5.7535056878210149E+00   -7.3989781857940597E+00   -1.0819221711920568E+01
Cs    5.1306637187332571E+00    5.4277205503376118E+00   -1.0115860873242690E+00
Cs    7.1167119664893113E+00    1.9863835963424605E+00    5.0277844417906197E+00
Cs    6.7172327275628732E+00   -4.2034150153775425E+00    5.7879222241706723E+00
Cs   -5.8034283366331438E+00    1.1132214834426760E+01   -8.0099275724048802E-01
Cs    1.2229245678554909E+01    3.9207183263652157E-01   -6.3822300525503972E-01
Cs   -5.4894692590107015E+00   -5.1975999789048377E-01   -3.3163649808730405E-01
Cs   -1.1166362257939838E+01    5.6724893827688261E+00    6.4047270096668489E+00
Cs   -6.1781001905624153E+00   -1.8729595038381588E-02    1.1497119241364370E+01
Cs    4.7920770240365016E+00    1.2082008501180487E+01    4.1427402554214536E+00
Cs    5.4296740237599241E+00    7.0205119398580171E+00    5.2514960566681230E+00
Cs    5.9626064769260507E+00    1.0379941332341296E+00    1.1282567223748394E+01
Cs    5.6204225525515934E+00    1.1883795541313649E+01   -1.6468748034421610E+00
Cs    1.0919055576445883E+01    3.8189597834750638E-01   -5.9729930744039681E+00
Cs    1.1708634115157260E+01   -6.3239523545667859E+00   -5.9871362708676488E+00
Cs    7.6105667355116582E+00   -8.9046950857634126E+00    1.3632817511431885E+01
Cs    1.1094845177127862E+01    1.1775469553715807E+01   -1.8273263169504679E+00
Cs   -1.1065119658817673E+01    9.9432225902455218E-01    1.2202330176363777E+01
Cs   -7.5595864233170831E+00    3.5156517870026707E+00   -1.1991487164912551E+01
Cs   -1.2504335407875855E+01    1.1048142242938942E+01    1.5909450555887616E-01
Cs   -5.1075145311179950E+00   -6.3016602694188943E+00    1.2355660887042776E+01
Cs   -4.9868398814798409E+00   -1.1441231745396378E+01    1.2651591680462227E+01
Cs    6.4267639142571173E+00    7.9872523490337981E+00    9.9468911396200230E+00
Cs    1.2028689015691580E+01   -4.5691895104334268E+00    1.0980511356957115E-01
Cs   -1.1686475390391568E+01    4.2965695920057634E-01    7.6785208634055990E-01
Cs   -8.1769923641232953E+00    9.2330993378138793E+00   -1.2053820914739559E+01
Cs   -1.2257992535297838E+01    5.5846025698164024E+00    1.3819280324871444E+00
Cs   -1.0115361180143223E+01   -1.3657723243982394E+01   -4.5040576660996958E+00
Cs   -1.1127423623112442E+01   -6.4830016361265246E+00   -1.5712579098101975E-01
Cs   -5.6106651583751752E+00   -6.2080840496046035E+00    1.4943960960799108E+00
Cs   -1.0769743859580418E+01   -1.2326509154900494E+01    7.4356506930173465E+00
Cs    1.3347953600714554E+01   -3.6843335811204025E+00    1.0335095134731139E+01
Cs    1.0536068228255061E+01    7.7374706045899675E+00    4.9126847668125730E+00
Cs   -1.2972590468652868E+01    5.9535489502383472E+00   -4.9409112610546657E+00
Cs   -6.2643344076279028E+00   -6.6124165604542529E-01   -5.3679137591325050E+00
Cs   -1.1055505314951285E+01   -1.1529151882177390E+01    1.3615588259673062E+00
Cs    1.2725915520853627E+01   -5.8250128896976543E+00   -1.1677060353125832E+01
Cs   -4.9001187398913189E+00   -1.3277806891740187E+01   -1.1232416581686758E+01
Cs   -1.8244108257647833E+00    9.6028837511949412E+00   -1.2753367422819959E+01
Cs    1.1555317911820955E+00   -1.1810748446259055E+01   -1.0938354166234157E+01
Cs   -9.8260040038017005E-01    1.1377271392583708E+01   -7.3713543926006588E+00
Cs   -6.2865881045517220E+00    1.2082649422270451E+01    1.0437128671370969E+01
Cs    1.2165482183911212E+00   -1.1374062684712436E+01    1.3022408353219797E+00
Cs   -1.0971372269025114E+01   -1.8410302126426572E+00   -1.1906368220251910E+01
Cs   -1.2027847317553400E+01    1.0873384920772194E+01    6.2630753212336900E+00
Cs    8.5846099325901815E+00   -1.2267415764456503E+01   -5.4218369641579480E+00
Cs    1.0416155761595927E+01    1.0031277177895128E+00   -1.2489427825225748E+01
Cs    1.8268006332945570E+00    1.2751601420446482E+01    1.1092042798737696E+01
Pb    2.8041803435061747E+00   -3.0342415158554834E+00   -2.8678509374040897E+00
Pb    3.7731677096559446E+00   -8.9447467627705457E+00   -1.8410652546339941E+00
Pb   -8.7331578208724352E+00   -3.0554956104365543E+00    3.5063324600358841E+00
Pb   -1.9542170809896375E+00   -9.6739786559349614E+00   -2.3093828978078705E+00
Pb    2.3447141270889178E+00    9.2728680054976937E+00   -4.2235582509175504E+00
Pb    2.6935267193012189E+00    2.9972337529877646E+00   -3.5182778457382646E+00
Pb    3.2838721872904095E+00   -2.6838045753108970E+00    3.2075107616685989E+00
Pb    3.9990070938936024E+00   -8.3607900309637380E+00    4.1467387607408464E+00
Pb   -3.1140584940341300E+00    8.7617752854138384E+00    2.5675821157305978E+00
Pb    2.6219060422820291E+00    9.1048767596244264E+00    1.5747874714296795E+00
Pb    3.2370150189645619E+00    3.3531759600421189E+00    2.3935034564294599E+00
Pb    3.3927018285969783E+00   -2.3052981846078779E+00    9.5985667552841285E+00
Pb    4.1633834690693510E+00   -8.0120691625725318E+00    1.0411233675589949E+01
Pb   -2.7399354136707124E+00    2.8174268949269714E+00    2.7997627261667000E+00
Pb    2.7530319276162398E+00    9.9947358619054203E+00    7.7736502261540332E+00
Pb    3.0753896028053509E+00    3.7399790191779489E+00    8.5565492137121737E+00
Pb   -3.0508030778201571E+00   -2.9187213389215030E+00    9.5767748775624142E+00
Pb   -8.3473896850410725E+00   -9.2189788724423067E+00    4.3062695701809783E+00
Pb   -9.7636674669139740E+00    2.2292344464704477E+00   -3.0272982138372857E+00
Pb   -2.7862645321808190E+00   -4.2996882757263810E+00   -8.3568880702814248E+00
Pb   -1.9493800993711439E+00   -9.2187457952043239E+00    3.8359463840212737E+00
Pb   -3.7313247820867725E+00    8.3917547820945781E+00   -3.8359655301994486E+00
Pb   -1.9883553174271302E+00   -9.2684660522488684E+00    1.0313028988423516E+01
Pb   -8.9688784233012537E+00   -3.8321048134504170E+00   -2.6690402210984012E+00
Pb   -8.1730705886745785E+00   -9.8602332448414032E+00   -1.5791669310134131E+00
Pb   -3.6817698058097434E+00    2.4729014792208130E+00   -2.9221173087244483E+00
Pb   -7.9622788095809884E+00   -9.1460603793089277E+00    1.0088918937417823E+01
Pb   -8.6231519485550656E+00   -5.0668631750380673E+00   -8.5685759712342673E+00
Pb    9.1572318974718492E+00   -3.0753205111745197E+00   -9.2969738884045334E+00
Pb    1.0104809342547068E+01   -9.1914257026468462E+00   -8.5343978056076963E+00
Pb   -2.2815862609955557E+00   -1.0189398599270639E+01   -8.2574498777699930E+00
Pb   -1.0547356891479060E+01    7.0095132649749177E+00   -9.0740691621216847E+00
Pb    3.0108091911683124E+00   -3.5466769935910332E+00   -8.6855262869942695E+00
Pb    3.8282800093584006E+00   -9.4879217681313506E+00   -7.8775799374948852E+00
Pb   -3.6539538127839553E+00    1.7908525277036940E+00   -8.7023489486148762E+00
Pb    1.5351581933384268E+00    8.7910739009395584E+00   -1.0118917406671173E+01
Pb    2.1009548812344705E+00    2.5931100540500167E+00   -9.4779641418186387E+00
Pb    8.6502452532751910E+00   -3.0196292110383665E+00   -3.1837863821888059E+00
Pb    9.8878066697965892E+00   -8.7351669254212538E+00   -2.2579406372460915E+00
Pb   -9.0121534495974061E+00   -3.0001438221585435E+00    9.5878357909860590E+00
Pb    7.5142571091523438E+00    9.3091287011156680E+00   -1.0686285209410148E+01
Pb   -9.5335326433490266E+00    1.0530819725681662E+00   -8.8464378808322000E+00
Pb   -3.0355758905185639E+00    9.1133866530760841E+00    8.4285612714496079E+00
Pb    8.1543872603614442E+00    9.5073365049141039E+00   -4.8527181383413511E+00
Pb    8.6786169589093287E+00    3.4239473528897850E+00   -3.9887986513590508E+00
Pb    8.8452846845418929E+00   -2.0052458297429099E+00    2.6355336835025240E+00
Pb    9.8794103713456671E+00   -8.0112457278344387E+00    3.8473689552153449E+00
Pb    7.8657064362222595E+00    3.4191706818581853E+00   -9.9077919785985014E+00
Pb   -3.1112311735022575E+00    2.8608039240101233E+00    8.8945799546290356E+00
Pb    8.6584115346098915E+00    9.9358710092709721E+00    1.0307165654270485E+00
Pb    9.3041031966295886E+00    3.9931536901005131E+00    1.8271947037121130E+00
Pb    9.4134826591455560E+00   -1.4399052048276457E+00    8.2848713396952434E+00
Pb    1.0041824249645376E+01   -7.1341023510389832E+00    9.9659323652542682E+00
Pb    8.5386942579330860E+00    1.1023056433518901E+01    6.8408378958344702E+00
Pb    8.9903835244602561E+00    4.7712428250073220E+00    7.7049572314368602E+00
Pb   -9.0289831479043752E+00    3.1648085939111881E+00    9.4071877851997385E+00
Pb   -2.5401046616835803E+00   -3.2334517222360861E+00    3.5153459791743931E+00
Pb   -9.2383480852902533E+00    8.8921580828203410E+00    3.1999064099855397E+00
Pb   -9.6385777146864342E+00    8.4051476016448987E+00   -3.3451039024522329E+00
Pb   -8.3087088980619566E+00   -1.0803142262730605E+01   -8.1066033175050425E+00
Pb   -4.4598502811728507E+00    7.8572535758911819E+00   -9.9030283687910785E+00
Pb   -8.8554970408380882E+00    2.8081816955269967E+00    3.2942120171621072E+00
Pb   -9.4526344061750756E+00    9.1361293139825062E+00    9.3406901000001561E+00
Pb   -3.0303239747042339E+00   -3.6300188447074451E+00   -2.4369943752067220E+00
Br   -1.1536726222299699E-01   -3.0205469902761042E+00   -2.8456799180602763E+00
Br    2.6651783506941573E+00   -2.5493119046991777E+00   -5.9275728691274114E+00
Br    3.1890601478091156E+00   -1.5034283117427222E-01   -2.6689370124484517E+00
Br    9.1702064524583793E-01   -9.7205881529401843E+00   -1.9126273519903794E+00
Br    3.1233309484724674E+00   -9.5492173502780666E+00   -4.9661005177406823E+00
Br    2.9684190746912500E+00   -5.9437462269447785E+00   -2.6505089847148353E+00
Br   -3.0816070494365513E+00   -4.1560112320143663E+00   -5.4165985427046808E+00
Br   -8.8767949347137716E+00   -3.2277274809325607E+00    6.3533915264064031E+00
Br   -2.7922117559462580E+00   -4.8441647041429642E-01   -2.3236347801324424E+00
Br    4.2561218070089852E+00   -1.1351361827969667E+01   -7.1005255930157429E-01
Br    1.1888394898482012E+01   -1.6901088931599491E+00    2.3293650273553288E+00
Br   -5.0754988501576213E+00   -1.0219689784825945E+01   -1.9079029983263038E+00
Br   -1.1417891203515829E+01   -3.3129411183881268E+00    3.2387924616800210E+00
Br   -8.6795119567187395E+00   -2.6276220409812123E+00    3.8501319100345011E-01
Br    1.2605088512687688E+01   -6.5303228901545083E+00    3.2091813743404725E+00
Br   -6.7607725219968240E-01    8.7515407613351268E+00   -3.9836335236030105E+00
Br    2.5319970859766716E+00    8.8846411473649898E+00   -7.3936200882148349E+00
Br    1.6173113882510763E+00    1.2004200815410680E+01   -4.4691517499372226E+00
Br   -7.5357178909961697E-01    3.2049401682454906E+00   -3.3719320101242451E+00
Br    2.6014889838963482E+00    2.9856866993123208E+00   -6.5019563375702045E+00
Br    2.9668287519458660E+00    6.0358142724001711E+00   -3.9810976949464965E+00
Br    1.9238912777578870E-01   -2.7053381670174010E+00    2.9365199761345324E+00
Br    2.9240018542128046E+00   -3.3730060120725969E+00    5.8000009087014304E-01
Br    3.6636767287201968E+00    4.5997327949880190E-01    2.8785569541004294E+00
Br    8.1262955701935591E-01   -8.7243405636451534E+00    3.3393224369497578E+00
Br    3.9008964829026342E+00   -8.2875990250234537E+00    1.1534819509577339E+00
Br    3.7123796473130386E+00   -5.6693171942529066E+00    3.9498933077985066E+00
Br   -6.9626656335861776E+00    7.2611709044387549E+00   -8.8040193191497629E+00
Br   -4.2230859809454460E+00    7.5651198754346662E+00   -1.2641526159095017E+01
Br    3.7020698786291404E+00   -1.1241414897631618E+01    4.2064107875623353E+00
Br   -4.7335838899321834E+00    1.0855376668985464E+01   -9.7545141344918314E+00
Br   -3.5446807438153058E+00    4.9554869478648680E+00   -9.0494760388303650E+00
Br   -8.6024613119069180E+00   -9.2152334519237239E-02    3.7670865473664028E+00
Br   -2.2863394085188520E+00   -9.8023738665554738E+00   -5.1049032757562536E+00
Br   -6.3348414950828627E+00    8.3792770832441867E+00    2.5252901993799544E+00
Br   -2.8595130861334899E+00    8.4015617242603238E+00   -7.8696739483796230E-01
Br   -2.5127479998854390E+00    1.1554697336578812E+01    1.8150103784909679E+00
Br   -9.9886960003743419E-02    8.3752005380105317E+00    1.9495370408298749E+00
Br    2.2369244024171211E+00    8.9085683676376899E+00   -1.3586138702266006E+00
Br    2.2481425115641280E+00    1.2015770976037656E+01    1.4508348736366008E+00
Br    4.3522484968423980E-02    3.0586310582337726E+00    2.5843644724412655E+00
Br    2.7158884204532496E+00    3.2331098138806094E+00   -3.9114882963532888E-01
Br    3.5328306145351158E+00    6.1356470124767961E+00    1.8419035152688616E+00
Br    2.5548289276946362E-01   -2.5494079342840492E+00    9.5570528127010341E+00
Br    3.0751943823557899E+00   -2.5461411036561952E+00    6.3575363710616335E+00
Br    3.4451395273469578E+00    7.9073943299432581E-01    9.3110654343193087E+00
Br    9.9117498352979894E-01   -9.3660836634514268E+00    1.0283289465215999E+01
Br    3.9829768681522788E+00   -8.4861797149596114E+00    7.6851969625640750E+00
Br    2.9030311565321991E+00   -5.1827729854835649E+00    9.8608480230031574E+00
Br   -1.2088667435989365E+01    1.8517123460130167E+00    3.5585220278000427E+00
Br   -9.4017216833044710E+00    3.1845124368426529E+00    2.4048095529925673E-01
Br    5.1078664534333553E+00   -1.0920164998498953E+01    1.0317836872228710E+01
Br   -9.0064476433860658E+00    5.6618074693331142E+00    2.9645458088132437E+00
Br   -9.4515756046318611E+00    1.4743745055189933E-01    9.3047508438991908E+00
Br   -2.0570360313537988E+00   -6.6350734652163617E+00   -2.4967657046293104E+00
Br   -5.7400353911692878E+00    2.6366590699144390E+00    3.0203276726704096E+00
Br   -2.9966467127512768E+00    2.3971889543238820E+00   -4.4194716489637340E-02
Br   -3.6515044829034333E+00    5.8414049506441925E+00    2.8950189953061307E+00
Br   -1.0734581751686061E-01    9.4303875842522551E+00    7.5223546242681820E+00
Br    2.8600494588958010E+00    9.3127804857241756E+00    4.5948329333070967E+00
Br    2.1909604715358713E+00    1.2946919651773966E+01    7.8306266778168094E+00
Br    5.4448510960230845E-02    3.0169977979976093E+00    8.2858130765876279E+00
Br    2.8993266080185145E+00    2.7847224436086639E+00    5.5756944909680906E+00
Br    2.8977023198031620E+00    6.5019169385294253E+00    7.6245149266847267E+00
Br   -6.0393641078472928E+00   -2.1566689458684896E+00    9.1097792281194270E+00
Br    3.9321552983753971E+00   -1.7712615371664369E+00    1.2365693016945468E+01
Br   -2.5928883732066024E+00   -3.3423445118956119E+00    6.6278515862138443E+00
Br   -2.7262678948923975E+00    7.1803298167824603E-02    9.3240788524976725E+00
Br   -1.9524977400076422E+00   -1.2762160982352635E+01   -2.7233922232722985E+00
Br    4.2768171277335449E+00   -7.6982349472439635E+00    1.3118532584189806E+01
Br   -1.2587130068373661E+01    2.8033332178292043E+00   -2.8322030247597985E+00
Br   -1.6804441260566012E+00   -1.1984109846219916E+01    4.0229185606408508E+00
Br   -1.1652545672231991E+01   -4.6860462792922490E+00   -3.7295311221559553E+00
Br    2.9028966560022682E+00    9.2829963052954074E+00    1.0610164694206272E+01
Br   -8.1670716503112590E+00   -4.2880776262243119E+00   -5.6538423817129111E+00
Br   -1.0142211652894867E+01   -9.4957840778315128E-01   -2.8568902415292787E+00
Br    3.0992467990444590E+00    4.6566475090050119E+00    1.1221752495844870E+01
Br   -6.5083639855511599E+00    7.9608633808201859E+00   -3.6480808686890276E+00
Br   -4.0658093505109711E+00    8.6111491025600468E+00   -6.6993422564443383E+00
Br   -3.5248227198746132E+00    1.1293713222738811E+01   -3.5461412291846703E+00
Br   -6.5186686842677339E+00    1.7465174391851812E+00   -2.9469525640297727E+00
Br   -1.1516427817697368E+01   -9.2350038607316414E+00    4.7132598185988899E+00
Br   -3.4933721093511614E+00    1.9555257797682370E+00   -5.8769824779557975E+00
Br   -5.6969301259008072E+00   -4.8973951704900180E+00   -8.5876169466727550E+00
Br   -2.2845845316047764E+00   -4.9735167957641764E+00   -1.1136737942886215E+01
Br   -3.2376204554302825E+00   -1.4400448048709302E+00   -8.6355496732865511E+00
Br   -3.0755338907637149E+00    3.1272740878449348E+00    1.1765502006175401E+01
Br   -5.0525005936006488E+00   -9.3635147904365361E+00    9.6995608106055755E+00
Br   -1.4642840711690928E+00   -8.6705778099918529E+00    6.9442360517041015E+00
Br   -2.2098045960782451E+00   -6.0037491131866902E+00    9.7209846209608415E+00
Br   -8.1604523035167187E+00   -9.2268525290261980E+00    1.2705107563488407E+00
Br   -8.2281756319703536E+00   -6.1383738152852789E+00    3.8349118411518708E+00
Br   -8.3038918975124059E+00    9.5697852079149115E+00    1.1945988359788219E+01
Br    1.1500597170862328E+01    9.9296892631710225E+00    1.0719994574564407E+00
Br   -7.2747450667272133E+00   -9.3015164716582639E+00    1.3144098317309208E+01
Br    1.1066336157475341E+01    9.7595549363920604E+00   -5.1786838051491948E+00
Br    1.1980233591998358E+01    3.6486575761173090E+00    6.7834073811542739E-01
Br   -8.5551438778929416E+00    2.8601270657669655E+00    1.2083930111666255E+01
Br   -1.1243725978739095E+01   -6.0233306389417356E+00   -8.2894980090666159E+00
Br    1.2406110065509171E+01   -1.0345889620217685E+00    8.2013633405225157E+00
Br   -4.8849971513830557E+00   -9.2786835521040167E+00    4.0891297826619732E+00
Br    6.2320879213778868E+00   -3.3838684016240665E+00   -8.4893331877376408E+00
Br    8.5345630173456932E+00   -3.5655969404082044E+00   -1.2108148382249427E+01
Br    1.2874714353554127E+01   -7.0601754580490805E+00    9.4911906710226361E+00
Br    8.2592089245919560E+00    2.2458082136081961E-01   -9.5560639599693395E+00
Br   -9.2021721198196396E+00   -1.1858369352854778E+01    1.0984970708154124E+01
Br   -2.3511521133156936E+00   -9.5854834762463330E+00    8.7093480757618258E-01
Br   -2.5942337928516808E+00   -6.1170612959306370E+00    3.7184784621067437E+00
Br    6.5802827282535574E+00   -9.0890768310917665E+00   -8.2752410161287866E+00
Br   -5.2468050377773574E+00   -1.0993381591832781E+01   -8.4522539183537759E+00
Br    9.5544801415745617E+00   -9.4732856923428201E+00   -1.1704101632464209E+01
Br    9.8401496118561482E+00   -6.4520569388579645E+00   -9.2613592147141190E+00
Br   -2.3757405507169951E+00   -1.1944753320369120E+01    9.5542295952124849E+00