 # Version information for this restart file 
 # current date 2021-06-17 12:33:04.632
 # current working dir /user/ub2042/exercises/2_fitting/MM_MD_workdir/md_settings
 # Program compiled at                              Thu Apr 22 21:44:59 EDT 2021
 # Program compiled on                cpn-k07-07-02.compute.cbls.ccr.buffalo.edu
 # Program compiled for                                                    local
 # Source code revision number                                       git:36754bb
 &GLOBAL
   PRINT_LEVEL  LOW
   PROJECT_NAME cp2k
   RUN_TYPE  MD
 &END GLOBAL
 &MOTION
   &MD
     ENSEMBLE  NVT
     STEPS  10000
     TIMESTEP     2.4999999999999996E+00
     STEP_START_VAL  3500
     TIME_START_VAL     8.7499999999999727E+03
     ECONS_START_VAL    -1.3925666412857368E+01
     TEMPERATURE     3.0000000000000000E+02
     &BAROSTAT
       PRESSURE     1.0100000000000000E+00
       TIMECON     9.9999999999999982E+03
     &END BAROSTAT
     &THERMOSTAT
       TYPE  CSVR
       &CSVR
         TIMECON     9.9999999999999982E+03
         &THERMOSTAT_ENERGY
              -1.2535552377498133E-01
         &END THERMOSTAT_ENERGY
         &RNG_INIT
Wiener process for Thermostat # 1        1 F T F  -2.0184626487796824E+00        1270000953.0         926334897.0        3528524991.0        1371575034.0        3658295165.0        4103480558.0             12345.0             12345.0             12345.0             12345.0             12345.0             12345.0             12345.0             12345.0             12345.0             12345.0             12345.0             12345.0
         &END RNG_INIT
       &END CSVR
     &END THERMOSTAT
     &AVERAGES  T
       &RESTART_AVERAGES
         ITIMES_START  1
         AVECPU     1.7936154929721421E-02
         AVEHUGONIOT     0.0000000000000000E+00
         AVETEMP_BARO     0.0000000000000000E+00
         AVEPOT    -1.4296601568669724E+01
         AVEKIN     4.3360223635247785E-01
         AVETEMP     2.1995276066527379E+02
         AVEKIN_QM     0.0000000000000000E+00
         AVETEMP_QM     0.0000000000000000E+00
         AVEVOL     6.7483345830903742E+06
         AVECELL_A     1.8897261328855802E+02
         AVECELL_B     1.8897261328855802E+02
         AVECELL_C     1.8897261328855802E+02
         AVEALPHA     9.0000000000000000E+01
         AVEBETA     9.0000000000000000E+01
         AVEGAMMA     9.0000000000000000E+01
         AVE_ECONS    -3.1653884058875024E+00
         AVE_PRESS     0.0000000000000000E+00
         AVE_PXX     0.0000000000000000E+00
       &END RESTART_AVERAGES
     &END AVERAGES
     &PRINT
       &ENERGY  SILENT
         &EACH
           MD  10
         &END EACH
       &END ENERGY
     &END PRINT
   &END MD
   &PRINT
     &TRAJECTORY  SILENT
       &EACH
         MD  10
       &END EACH
     &END TRAJECTORY
     &CELL  SILENT
       &EACH
         MD  10
       &END EACH
     &END CELL
     &VELOCITIES  SILENT
       &EACH
         MD  10
       &END EACH
     &END VELOCITIES
     &FORCES  SILENT
       &EACH
         MD  10
       &END EACH
     &END FORCES
     &RESTART  SILENT
       &EACH
         MD  10
       &END EACH
     &END RESTART
   &END PRINT
 &END MOTION
 &FORCE_EVAL
   METHOD  FIST
   &MM
     &FORCEFIELD
       VDW_SCALE14     1.0000000000000000E+00
       EI_SCALE14     1.0000000000000000E+00
       SHIFT_CUTOFF  T
       DO_NONBONDED  T
       IGNORE_MISSING_CRITICAL_PARAMS  T
       &SPLINE
         R0_NB     2.5000000000000000E-01
       &END SPLINE
       &NONBONDED
         &LENNARD-JONES
           ATOMS Br Br
           EPSILON     1.2630795322675199E+02
           SIGMA     3.6900000000000004E+00
         &END LENNARD-JONES
         &LENNARD-JONES
           ATOMS Cs Pb
           EPSILON     8.6920055954630968E+01
           SIGMA     3.6699999999999999E+00
         &END LENNARD-JONES
         &LENNARD-JONES
           ATOMS Cs Cs
           EPSILON     2.2644852172126850E+01
           SIGMA     4.5300000000000002E+00
         &END LENNARD-JONES
         &LENNARD-JONES
           ATOMS Pb Pb
           EPSILON     3.3363415533600227E+02
           SIGMA     6.1000000000000005E+00
         &END LENNARD-JONES
         &LENNARD-JONES
           ATOMS Br Cs
           EPSILON     5.3481070753900497E+01
           SIGMA     3.6300000000000003E+00
         &END LENNARD-JONES
         &LENNARD-JONES
           ATOMS Br Pb
           EPSILON     2.0528187276773045E+02
           SIGMA     2.9800000000000000E+00
         &END LENNARD-JONES
       &END NONBONDED
       &CHARGE
         ATOM Cs
         CHARGE     4.1739999999999999E-01
       &END CHARGE
       &CHARGE
         ATOM Pb
         CHARGE     8.3479999999999999E-01
       &END CHARGE
       &CHARGE
         ATOM Br
         CHARGE    -4.1739999999999999E-01
       &END CHARGE
     &END FORCEFIELD
     &POISSON
       PERIODIC  XYZ
       &EWALD
         EWALD_TYPE  SPME
         GMAX  62 62 62
         O_SPLINE  4
       &END EWALD
     &END POISSON
     &PRINT
       &FF_INFO  LOW
         SPLINE_INFO  F
         SPLINE_DATA  F
       &END FF_INFO
     &END PRINT
   &END MM
   &SUBSYS
     &CELL
       A     1.0000000000000001E+02    0.0000000000000000E+00    0.0000000000000000E+00
       B     0.0000000000000000E+00    1.0000000000000001E+02    0.0000000000000000E+00
       C     0.0000000000000000E+00    0.0000000000000000E+00    1.0000000000000001E+02
       PERIODIC  XYZ
       MULTIPLE_UNIT_CELL  1 1 1
     &END CELL
     &COORD
Cs   -3.1689991582985760E-01    6.0965837721201330E-02   -5.5264528066668515E+00
Cs    3.4369524560891346E-01   -6.4990850915924243E+00   -5.4102695190840215E+00
Cs    9.4468804280433236E-02   -1.1893354485063391E+01   -5.4102073364418857E+00
Cs   -5.6568611270764393E+00   -6.1611879118730037E+00   -5.5478838261551200E+00
Br   -8.4448449535515255E+00   -1.2571696504101114E+01   -8.0391519353811045E+00
Br    1.1538813959812508E+01   -3.5021849951123274E+00   -1.0051956887259042E+01
Br   -2.8141966751911500E+00    1.9598440113855058E+00   -1.2192235446347011E+01
Cs   -3.2335211754793702E-01    6.0183768978401035E+00   -6.4235105719685173E+00
Cs   -2.4832979972854191E-01   -3.5075700323287434E-01    6.1927414352932275E-01
Cs    4.3621225968444105E-01   -5.9167370581581062E+00    1.0754635895255853E+00
Br   -5.3312232428374626E+00   -3.1358963656181618E+00    3.2800023205101492E+00
Cs   -1.1484294342991921E+01   -5.2997837694251935E+00    1.1754804435243878E+01
Cs    1.1642279685653389E+01   -1.1301443535196812E+01    2.1424840581948423E-01
Cs   -6.8726391384503929E+00    4.9116272895704807E+00   -1.3406483233021707E-01
Cs   -9.2516827271399737E-01    1.0770493315779184E+01   -1.1328743035603555E+00
Cs    3.1253821769956541E-01    5.5456906449089240E+00   -4.5569680003983096E-03
Cs    1.1913113502035835E-01    1.2164658252341090E+00    5.6401306357880960E+00
Cs    7.6897875090314438E-01   -5.8649240330214250E+00    6.2059266909870656E+00
Cs    9.7349958012286353E-01   -1.0916855483938985E+01    6.3492288139291260E+00
Cs   -5.9327603814192154E+00    6.7490596310658439E+00    1.1187672552733590E+01
Cs   -5.3263006438806730E+00   -9.6303454978844594E-01   -1.1504345410683211E+01
Cs   -5.8241139500453860E+00   -1.2087714297969695E+01   -4.8344703071194042E+00
Cs   -5.0007780811234417E+00    2.8235028265667239E-01    6.3103578662184860E+00
Br   -2.4499397444532485E+00   -3.6435149680117624E+00    3.4357322923935224E-01
Cs   -1.6294527823464497E-01    7.0761742197485828E+00    5.2543265146654798E+00
Br    1.1928312100629432E+01   -8.4781885667840182E+00   -9.7814403976738102E+00
Cs    1.6891810432037890E+00   -5.3794443390345865E+00    1.0538271438523385E+01
Br   -2.6358189297409131E+00   -5.5221023717695793E-02    3.5319232377767387E+00
Br   -8.3013956958153763E+00   -2.6838436850761038E+00    1.2155832011573020E+01
Cs    1.1211260297004598E+01    1.1613583070455554E+01   -7.7186472702644959E+00
Cs   -1.0992183460460049E+01   -7.3374972239616074E+00    5.5571211504769842E+00
Cs   -5.2250535988583016E+00   -6.2087492010200487E+00    6.4737641598882725E+00
Cs   -6.1266184464636302E+00    1.0655573359398797E+01   -6.4924861499377213E+00
Br   -1.0975055492008529E+01   -1.0152887029286738E+01    9.0036161727555566E+00
Br   -8.1793725275706066E+00   -9.3947658257540869E+00    6.0692801074113358E+00
Cs   -1.1535644033944099E+01   -6.5781721619929732E+00   -5.6693008986302109E+00
Cs   -6.1420421958515519E+00    5.3110995156385989E+00   -5.4532059931601600E+00
Br   -9.2197975305513111E+00   -6.2064992594564456E+00    9.6491364972464790E+00
Cs    1.1876948089621560E+01    7.1227117619225311E+00    1.0604830529259850E+01
Br   -1.2192048624953641E+01    8.5625213009752237E+00    8.2593932479319747E+00
Br   -5.5463955676669174E+00   -3.2054030447271780E+00   -2.0344373037557766E+00
Cs   -2.3680979540188651E-01    6.8820068463904360E-01    1.1516794025728796E+01
Cs    1.0573106595841761E+01    6.4526247940693411E+00   -7.5658486263805536E-01
Cs   -1.1730987226615735E+01   -6.2024760380743569E+00   -1.0734899745102954E+01
Cs    1.2302962793357123E+01    3.0514762279987168E-01    5.1613641825659036E+00
Cs   -1.1009288936576732E+01    1.1912286083517825E+01   -6.5632771001102146E+00
Cs    1.1457754994547075E+01   -1.1052250984005326E+01    6.4755717016812424E+00
Cs    5.4385119827697235E+00   -7.1479517800731616E+00   -1.1373756135367515E+01
Cs    6.4770432511604668E+00   -1.0001957137043231E+01    6.2681665374731361E+00
Cs   -5.3154994570992873E+00   -1.1466480480904941E+01    6.1510819872847247E-02
Cs    5.4633049470605872E+00   -1.3278582564316411E+01   -1.0371683697205700E+01
Cs    1.0939328305351376E+01    6.4999445528874773E+00   -5.9662561174897863E+00
Cs    1.1414920811598122E+01    1.1775313622430584E+01    4.8634308364887504E+00
Cs    1.1241940861978872E+01    6.2578300233069717E+00   -1.1547651085057590E+01
Cs   -2.2598164204773824E-01   -5.6608713389013152E+00   -1.1600273501746367E+01
Cs   -1.1378865821996618E+01   -1.5570004044824353E+00   -4.8630166591530539E+00
Cs    7.4099539796083995E+00   -4.8412265670744450E+00    1.2262824644992206E+01
Cs    1.3039461413321657E+01   -5.2587979486699172E+00    6.0892334750228558E+00
Cs   -1.2001592353891363E+01   -1.0936888439618590E+01    1.2109999551929317E+01
Cs   -3.5011636680598013E-01   -1.0287417093665909E+00   -1.1519353133062504E+01
Cs   -7.8075122876867886E-01    1.2298353792405054E+01    4.0203163999538818E+00
Cs   -7.8885238276720548E-01    5.4533759586826811E+00   -1.1602380722707403E+01
Cs    5.9646301850899128E+00   -3.4262994861091478E-01   -4.9339037999647797E+00
Cs    5.5038257114810154E+00   -6.3800707238906815E+00   -5.7076797150329881E+00
Cs   -4.4346755704626046E+00   -1.1979191071509767E+01    6.0846475824910140E+00
Cs   -1.1337562716606413E+01   -7.7787059193648853E-02    5.9804089577073691E+00
Cs    5.6423114780924069E+00   -7.1020367377872706E-01   -1.1516399201946477E+01
Cs    4.8814896024618939E+00    1.0614506005105273E+01   -1.2410418801202621E+01
Cs   -2.2226421019337797E-01    7.1977704721566118E+00    1.0744490590964377E+01
Cs   -7.1675250227234013E+00    1.1410794678299903E+01    4.3317781677316587E+00
Cs    4.7590943329299149E+00    1.1957809046031407E+01   -7.3566591551686651E+00
Cs    5.8566922384180016E+00    5.6143630861553460E+00   -6.5880251611404166E+00
Cs    6.4455988426098720E+00   -9.9216233048105770E-02    1.6361466901581120E-02
Cs    6.7495982519914310E+00   -5.2564574354184916E+00    4.5996425773083760E-01
Cs    6.3096192389296801E+00   -1.2120699900073946E+01    3.2845582475232710E-01
Cs    6.3659094304625290E+00    5.1924609077989041E+00   -1.2257160413567323E+01
Cs   -6.3038400691132592E+00    6.3200069123474973E+00    5.4530623921920442E+00
Cs   -6.5257441089456902E+00   -6.8445256319593559E+00   -1.1370957172357588E+01
Cs    5.6302476450886907E+00    6.1419037750508165E+00   -6.4457635200572283E-01
Cs    5.9748228707469613E+00    1.2705336625023200E+00    6.4967540290992165E+00
Cs    7.2905397196553938E+00   -4.4134957740131746E+00    6.2967739671798890E+00
Cs   -7.2031626001560056E+00    1.1337843114199545E+01   -2.1717305778354257E-01
Cs    1.1958713564657447E+01    1.5581992885830112E-01    1.3181594542902773E-02
Cs   -5.8305524379632647E+00   -3.6452011721171401E-01    8.2451735961751149E-01
Cs   -1.1819721814108927E+01    5.5902419827914756E+00    6.7118104222806885E+00
Cs   -5.2665807680825951E+00    9.8220986636365937E-01    1.1978235381931874E+01
Cs    6.2422100129477061E+00    1.2718822548769953E+01    6.8328550793775698E+00
Cs    6.1315201097948142E+00    7.1779448505283128E+00    6.1494352305468487E+00
Cs    7.1706089206109533E+00    8.1782837403191266E-01    1.1268807406022937E+01
Cs    5.2647371833380490E+00    1.1411258541025248E+01   -1.0833907140909849E+00
Cs    1.1781254637281078E+01    8.2635268291428843E-01   -5.2668462839301444E+00
Cs    1.1988622160323203E+01   -6.1283746961855403E+00   -6.1453494147932970E+00
Cs    7.6284001998136475E+00   -1.0157160235576775E+01    1.2126835312589881E+01
Cs    1.1084274183520142E+01    1.1869655934485372E+01   -6.1912026445261925E-01
Cs   -1.1140087829105605E+01   -5.9839421310933960E-01    1.1647173200158313E+01
Cs   -7.0756975781118303E+00    5.2307529349406510E+00   -1.1535987052442849E+01
Cs   -1.2340173824007843E+01    1.0540935885409642E+01    1.4078306017518741E-01
Cs   -4.6640741977990610E+00   -5.4916836008965495E+00    1.1745115861996551E+01
Cs   -4.9272757549519834E+00   -1.1022796119542184E+01    1.2584755092850013E+01
Cs    6.0847707538362998E+00    7.5886454488102890E+00    1.0794283136320516E+01
Cs    1.1448586860994567E+01   -6.0034264643506052E+00    3.0613394124556337E-01
Cs   -1.1752221022833375E+01   -8.8630371381398310E-01   -2.6102437251880620E-02
Cs   -6.9658833793632171E+00    1.1092952285231624E+01   -1.1893725557464474E+01
Cs   -1.2223812379420277E+01    4.5327317438705421E+00   -2.6344925636452249E-01
Cs   -1.1112218358051862E+01   -1.2049174703506939E+01   -4.8735334371994679E+00
Cs   -1.1834738169762037E+01   -6.0454817739778255E+00    3.5887857894596803E-01
Cs   -5.2403329452562133E+00   -5.2149925388775689E+00    8.5684221931666149E-01
Cs   -9.5060260094769724E+00   -1.2539086389942701E+01    5.7575699232473259E+00
Cs    1.2746468188609770E+01   -5.4712716052761765E+00    1.0613257871601148E+01
Cs    1.1551955832918239E+01    6.4261765793106091E+00    5.5323502303105574E+00
Cs   -1.2114289177398321E+01    5.2952831096916020E+00   -6.3739887997050397E+00
Cs   -6.1404513466464214E+00   -5.2148009978601258E-02   -5.6911200405572879E+00
Cs   -1.0640643363017833E+01   -1.2113396084635147E+01    5.4548233115035794E-01
Cs    1.1505711094022011E+01   -6.2168495991311268E+00   -1.2167978764008751E+01
Cs   -6.7885491264304401E+00   -1.1449531228436221E+01   -1.1213930890737974E+01
Cs   -6.1375541424670044E-01    1.0034951276655990E+01   -1.2657855130090400E+01
Cs   -4.4241985722060417E-01   -1.2921453833502413E+01   -1.0027957718912100E+01
Cs   -7.2140583372682521E-01    1.0410756213963655E+01   -6.8062803382239210E+00
Cs   -6.8034545199574037E+00    1.2117230627543421E+01    1.0689349471923487E+01
Cs    2.5160547727561255E-01   -1.1495702530918555E+01    1.4058419992766797E+00
Cs   -1.2020417395388897E+01   -1.0886820425490769E+00   -1.0255919346712847E+01
Cs   -1.2288002222627910E+01    1.1898695262015469E+01    6.2573584867178784E+00
Cs    6.4165685384374358E+00   -1.1555672928530520E+01   -5.2621077841066377E+00
Cs    1.1203098729867214E+01   -4.6460089896074885E-01   -1.2171687599633840E+01
Cs   -2.9404479355515445E-01    1.3164115667625541E+01    9.7418698321499129E+00
Pb    3.4162156009634659E+00   -3.0075841942602684E+00   -2.5474022158060254E+00
Pb    3.4173730320944280E+00   -9.1618162603254181E+00   -2.6298256387092613E+00
Pb   -8.5508102064225220E+00   -3.5911472603186105E+00    3.6550239051424325E+00
Pb   -2.4803977099520473E+00   -9.3118780969133201E+00   -2.4898439386088387E+00
Pb    2.2526069828809834E+00    8.6579286952019494E+00   -3.6948539787608912E+00
Pb    2.9853822373114420E+00    2.7853612818885201E+00   -2.9187628116711295E+00
Pb    3.7363997062093262E+00   -2.3859057349946138E+00    3.3349655500438873E+00
Pb    3.7749807124175550E+00   -8.5316655866899982E+00    3.3654491258656343E+00
Pb   -3.8880086344755451E+00    9.2203509639270926E+00    2.2835462878590609E+00
Pb    2.2789915669639162E+00    9.4618355356754638E+00    2.2746175652452578E+00
Pb    3.1419205327195225E+00    3.5842265991860627E+00    3.1738309931214834E+00
Pb    4.0965900608702821E+00   -1.9986061480264510E+00    9.4632952493464586E+00
Pb    4.0392818249298852E+00   -8.2821166304056391E+00    9.5339808347731054E+00
Pb   -2.9370900130248985E+00    3.2805273061361913E+00    2.7248360160385885E+00
Pb    2.6279201435648130E+00    9.8805882135359351E+00    8.0727051636806859E+00
Pb    2.8463719513144663E+00    3.9494387911502495E+00    9.1243001332532714E+00
Pb   -2.3228676682213982E+00   -2.6022924221260930E+00    9.2585558517057098E+00
Pb   -7.9599648105990797E+00   -9.7980893453854936E+00    3.1639961299647927E+00
Pb   -9.0294418813420414E+00    2.4738904890435953E+00   -2.8790942325626330E+00
Pb   -3.2740505116227099E+00   -3.9668519706248091E+00   -8.6685467284524176E+00
Pb   -2.2981871765228910E+00   -9.0323490869242278E+00    3.6437531592114754E+00
Pb   -3.9403528395258922E+00    8.7238842065428663E+00   -3.4296703875142791E+00
Pb   -2.4232194187865463E+00   -8.6516884423136702E+00    9.6768277519946420E+00
Pb   -8.6552624136296146E+00   -3.6798873847671176E+00   -2.5461367382219784E+00
Pb   -8.3459014199186097E+00   -9.7432294632304881E+00   -2.6634542244475385E+00
Pb   -3.0557631780237049E+00    2.7242996852308776E+00   -2.9628513190125201E+00
Pb   -8.3061887903000748E+00   -9.0426663243347249E+00    9.0521100312673735E+00
Pb   -8.8093932682622427E+00   -3.7994002486831699E+00   -8.5034186745508933E+00
Pb    8.9812661484020673E+00   -3.1439226417115695E+00   -9.2030275383276425E+00
Pb    9.1762027627691580E+00   -9.1767855572159984E+00   -9.2892487338178302E+00
Pb   -3.0806536119499204E+00   -9.8921492288004611E+00   -8.8356098552115245E+00
Pb   -9.8355498759840501E+00    8.2577451553550087E+00   -8.9112008168493642E+00
Pb    2.8898057377189654E+00   -3.4574039441126758E+00   -8.4583239588001327E+00
Pb    2.8845924362175630E+00   -9.3835820899142597E+00   -8.9642501852562617E+00
Pb   -3.2523955959795878E+00    2.2598442977420836E+00   -9.3930126061922987E+00
Pb    2.3267983041610059E+00    8.0633166375171221E+00   -9.7603922061404873E+00
Pb    2.7438316450759594E+00    2.4730565156898887E+00   -8.7185037337493050E+00
Pb    9.2719338023268456E+00   -2.7319646048178661E+00   -3.0855117329698980E+00
Pb    9.4861396111556857E+00   -9.2698404894488391E+00   -3.0821589221101151E+00
Pb   -8.4136620346733721E+00   -2.9809519234029085E+00    9.3978815809208456E+00
Pb    8.3835332156404121E+00    8.9506700112135604E+00   -9.5024396057684246E+00
Pb   -9.1239659736227825E+00    2.0441450200814080E+00   -9.1298078366337165E+00
Pb   -3.5761134416548894E+00    9.3613605391409003E+00    8.6319339585441135E+00
Pb    8.3087270626161089E+00    9.5093876737900036E+00   -3.4447531483276732E+00
Pb    8.8766188275202946E+00    3.4992499834103872E+00   -3.4246063334099972E+00
Pb    9.6273399877361427E+00   -2.6328464691152682E+00    2.8488924272568532E+00
Pb    9.5327776020782693E+00   -8.6688658471224755E+00    2.8334671999401198E+00
Pb    9.2559083155042714E+00    3.0525523464489703E+00   -9.1869213308570412E+00
Pb   -3.0182382494415347E+00    3.3453855166609876E+00    9.0757475351482011E+00
Pb    8.3013021307732195E+00    9.4277193531804340E+00    2.5877871538569659E+00
Pb    9.1235472404487759E+00    3.8048780385610725E+00    2.5785490010819885E+00
Pb    1.0262747059711852E+01   -1.8269858053762051E+00    9.0365047425552252E+00
Pb    9.7804784788732366E+00   -8.1626236806023034E+00    8.9054535747832926E+00
Pb    9.6221582584326733E+00    1.0240149581106502E+01    8.4786552465441432E+00
Pb    9.0789324069946158E+00    4.1043364647947156E+00    8.5349569383899784E+00
Pb   -8.8365194555604401E+00    3.2305385355246976E+00    9.0527483847960202E+00
Pb   -2.3580327090170576E+00   -3.2196736956613448E+00    3.2467617604612018E+00
Pb   -9.9785840540694188E+00    8.2733031557033669E+00    2.7858560001328323E+00
Pb   -9.7174602917679245E+00    8.3159826880776997E+00   -3.1876183493778050E+00
Pb   -9.3620885960962532E+00   -9.6591019978555046E+00   -8.7293529260138403E+00
Pb   -4.0344836209718826E+00    8.1747056953318680E+00   -9.4464209037891553E+00
Pb   -9.3204250418886829E+00    2.4629550199048014E+00    3.2651829776007979E+00
Pb   -9.4265666583751653E+00    9.0239285889419705E+00    8.4451706719354505E+00
Pb   -2.6636776875999582E+00   -3.2929058810625969E+00   -2.6918068173263623E+00
Br    5.6982093959614488E-01   -2.9962923736814187E+00   -2.9469485423516981E+00
Br    3.7635184236631463E+00   -3.3899109053172807E+00   -5.4157110061454761E+00
Br    3.3563888059322609E+00    8.6506100177984074E-02   -2.6520723274622111E+00
Br    4.9560872934688821E-01   -9.4116458192492960E+00   -1.9242620011182388E+00
Br    2.7181762813088963E+00   -9.1998605427822859E+00   -5.5882070659595025E+00
Br    2.9757967272308359E+00   -6.1953410266601363E+00   -2.5724685299421517E+00
Br   -3.2702708346347107E+00   -3.1213202939991573E+00   -5.7302822475869437E+00
Br   -8.3296338372712402E+00   -4.4737085356564590E+00    6.3430893062039022E+00
Br   -2.7025240031932940E+00   -2.7229567941735544E-01   -2.9751537265093342E+00
Br    4.3512033991214638E+00   -1.1968160591247413E+01   -2.3914598660183848E+00
Br    1.2723946066357790E+01   -3.4845172513755989E+00    2.0994261603113094E+00
Br   -5.5107574993307633E+00   -9.4130682265505392E+00   -2.7961423986632226E+00
Br   -1.1630636785392742E+01   -4.4915366388094000E+00    3.3861006147128068E+00
Br   -8.5043081401051186E+00   -3.5701630335686185E+00    3.7948662950326878E-01
Br    1.2280961741322502E+01   -9.3530652841218522E+00    3.2481494165414579E+00
Br   -7.7783491722706344E-01    8.4759947490758716E+00   -3.2820337713893064E+00
Br    2.1929748189790037E+00    8.5809948988421283E+00   -6.7699174467853309E+00
Br    1.7559484455918155E+00    1.1670735879166195E+01   -3.5451826802212225E+00
Br    1.7808260984060223E-01    2.8234894555569467E+00   -3.0310402002902697E+00
Br    2.6144919444001000E+00    2.2197726779988058E+00   -5.8952613409428221E+00
Br    2.5328932971596227E+00    5.6594534914115613E+00   -3.4285468871538192E+00
Br    5.0813191730770513E-01   -3.1060776223163251E+00    3.2673264922739360E+00
Br    3.4217875874442591E+00   -2.1458000701140558E+00    2.8242173265796139E-01
Br    2.3757283873778841E+00    2.0566812584048855E-01    3.1148058374456862E+00
Br    7.1300262478319776E-01   -8.5216286138905293E+00    3.3504628120935762E+00
Br    3.4570388132879564E+00   -9.1571655775415852E+00    2.3024348353096374E-01
Br    3.8443784212629111E+00   -5.5492098196773014E+00    3.0652209324457154E+00
Br   -6.7430768660028093E+00    7.8111618758351984E+00   -8.7340766081316463E+00
Br   -3.3146300012822549E+00    7.9521476165786193E+00   -1.2549578012057754E+01
Br    3.9179956944476784E+00   -1.1349671496806614E+01    4.1073490591665625E+00
Br   -3.9164849754066351E+00    1.1082072066853341E+01   -9.4103957079527518E+00
Br   -3.3706666218049337E+00    5.5106445155585826E+00   -9.6786904908844118E+00
Br   -8.9119972697879923E+00   -6.8567971982705600E-01    4.0375768896998698E+00
Br   -2.0571702658438671E+00   -9.2704734097178925E+00   -5.1825937681239669E+00
Br   -6.6973712599753101E+00    8.6293490629387062E+00    2.4894916095268123E+00
Br   -4.0824696255160919E+00    8.7427016064767553E+00   -5.9137817476351073E-01
Br   -4.2935841162254818E+00    1.2113763713139926E+01    2.5977731283960916E+00
Br   -9.6714420637906029E-01    9.3890368170392922E+00    2.1886548217249708E+00
Br    2.1003501198257291E+00    8.4476626990658890E+00   -4.5357243616114051E-01
Br    2.1857565421401293E+00    1.2099919674935681E+01    8.7763063105292272E-01
Br    4.6506738518272667E-02    3.5988751354472495E+00    2.7555301630256430E+00
Br    3.2539511793564913E+00    3.3241195053688619E+00    4.1620450327614483E-01
Br    2.5419034693389646E+00    6.4891037638970364E+00    3.1440167423693901E+00
Br    5.8361482567846890E-01   -2.2743142134136951E+00    9.7635441428759666E+00
Br    4.1461837097383221E+00   -1.7674126650608666E+00    6.1766149365005898E+00
Br    3.6038465101954946E+00    7.6755206435731338E-01    9.3486900219061653E+00
Br    6.7474801298882436E-01   -8.6036175661805601E+00    9.6947423352316111E+00
Br    3.5616633415292895E+00   -8.0698232955267759E+00    6.4277026292544548E+00
Br    4.1578562942092532E+00   -4.7466241300040695E+00    8.6849166806585067E+00
Br   -1.2167766231026118E+01    2.4904604113276649E+00    2.8163778914890814E+00
Br   -8.7735765559932855E+00    2.0608017783039205E+00    2.2581804031057678E-01
Br    4.2673895780662319E+00   -1.1064688200144223E+01    1.0473142417826477E+01
Br   -9.3782860487667747E+00    5.4462165018782622E+00    2.4013428829200363E+00
Br   -8.2655786605943415E+00    9.4039068481967650E-02    9.1010045478429973E+00
Br   -2.6597749415577296E+00   -6.4217124811865505E+00   -3.1496806573175893E+00
Br   -5.9962852686203538E+00    2.8006280252710805E+00    2.6701617176279511E+00
Br   -3.0875180285305706E+00    2.1443226318509643E+00   -6.2332664929490113E-02
Br   -3.3688496244671291E+00    6.1705995613799800E+00    2.0941646886905749E+00
Br   -7.2747428067207820E-01    9.8088167190489095E+00    8.2200260859998551E+00
Br    1.8416356292365479E+00    9.8980187538518969E+00    5.0146219592138275E+00
Br    2.6685183081906128E+00    1.2729976488248251E+01    7.9518194686682095E+00
Br   -1.7918540860994034E-01    3.6198567674054933E+00    8.8394122599071618E+00
Br    2.6224660395673896E+00    3.4740967455996570E+00    5.9656842277763866E+00
Br    2.6558921592780069E+00    6.6666252480425960E+00    8.3536995486007370E+00
Br   -5.5296664469607748E+00   -2.6965143030307051E+00    8.6496697681875148E+00
Br    4.8162180147990448E+00   -2.5244807097349646E+00    1.2209671197088186E+01
Br   -2.1113142541970951E+00   -2.3743559065384026E+00    6.1336557416041559E+00
Br   -2.1550480572024791E+00    6.2889270165092215E-01    8.6495651389536174E+00
Br   -3.2706355120443837E+00   -1.2096156353503181E+01   -2.5167077315630446E+00
Br    4.3473125860200703E+00   -6.7649410208895127E+00    1.1886340138392537E+01
Br   -1.1773543999684760E+01    1.5254413223099859E+00   -2.3198444085989647E+00
Br   -1.9615980603969916E+00   -1.1880191158601669E+01    3.6376283800342053E+00
Br   -1.1363961349173685E+01   -3.6865839268581251E+00   -2.0072111231085499E+00
Br    2.6787700983808986E+00    9.7715405746074246E+00    1.0712290513831226E+01
Br   -8.8408635965407587E+00   -3.6005163713047517E+00   -5.5240401769304892E+00
Br   -8.5991925321476170E+00   -7.1103668079418469E-01   -3.0298662107931462E+00
Br    3.1215204888985273E+00    3.8437252216608955E+00    1.2185307572936280E+01
Br   -6.7814331458105581E+00    8.1865582338514553E+00   -3.4430793681050726E+00
Br   -3.2625616144724652E+00    8.4486356707330845E+00   -6.4788848976427493E+00
Br   -3.8065884317295087E+00    1.1382549246587411E+01   -3.9610780193513500E+00
Br   -6.0424881167102793E+00    2.6870995909038649E+00   -2.9559048621036954E+00
Br   -1.1240184175987139E+01   -1.0621288577236452E+01    3.6416634961534666E+00
Br   -3.8302386283480900E+00    2.9091576139831177E+00   -6.3805658315013440E+00
Br   -6.0637536768687799E+00   -4.0902613095902396E+00   -8.9451781549941725E+00
Br   -3.3086336326333114E+00   -3.6961152010901461E+00   -1.1577692353670681E+01
Br   -3.0274149817748848E+00   -5.6897389370275220E-01   -8.8991912873977856E+00
Br   -3.4509679905638504E+00    4.1093754463168057E+00    1.1992226404978091E+01
Br   -5.4421752068252962E+00   -8.2331847769238884E+00    9.3386969775608453E+00
Br   -1.9123394144907646E+00   -8.8992392106822340E+00    6.4873279794613055E+00
Br   -2.5785358745680993E+00   -5.6331242545558284E+00    8.6761958270148920E+00
Br   -8.7380739468184796E+00   -9.3492893840431659E+00    3.8262587821616090E-01
Br   -7.6015852849140471E+00   -6.3904261163651972E+00    3.4374124396267765E+00
Br   -8.5767492252134225E+00    9.4820669708850662E+00    1.1258120108556572E+01
Br    1.1096493851314259E+01    9.8318937485446920E+00    1.8046743745444844E+00
Br   -9.2884587028775361E+00   -8.9328070939991306E+00    1.2116433894248100E+01
Br    1.1314524613122932E+01    9.1675703797119112E+00   -3.0205066083562047E+00
Br    1.1854733454917376E+01    3.7300721725056802E+00    2.3121405391477432E+00
Br   -8.3260841787350621E+00    2.4017056273035085E+00    1.1776117374953731E+01
Br   -1.1892369243752213E+01   -3.7005773726173219E+00   -8.0334364422382514E+00
Br    1.3169074874932349E+01   -2.9158902592531253E+00    8.3439740960740370E+00
Br   -5.1135990427186178E+00   -9.6660990535104148E+00    3.6702531954634594E+00
Br    5.7377082183449204E+00   -2.8015464982860538E+00   -9.0258676010860324E+00
Br    8.4847832831329910E+00   -2.7629741700048376E+00   -1.2168083726970300E+01
Br    1.2672257623986452E+01   -7.6276615664688689E+00    8.0741466437736502E+00
Br    9.4591650217188690E+00   -2.1601232477015597E-01   -9.1372617299234733E+00
Br   -7.2774755670349833E+00   -1.1916345104182762E+01    9.7027310959087689E+00
Br   -2.5883294019020369E+00   -9.6106457297410266E+00    6.7779919650687748E-01
Br   -2.4228658932469691E+00   -6.2334740966598190E+00    3.4789796627381881E+00
Br    5.7062579419447426E+00   -9.1335073871695709E+00   -8.7856455077030233E+00
Br   -6.0059582553944963E+00   -9.6836215788443969E+00   -8.3248219956099678E+00
Br    8.7517355082737325E+00   -9.2471350021299656E+00   -1.2116939681937525E+01
Br    8.7865352086492603E+00   -6.2303682930942621E+00   -9.4238912545612710E+00
Br   -2.8176343299451236E+00   -1.1382496923354317E+01    9.5872761326684692E+00