 # Version information for this restart file 
 # current date 2021-06-17 12:33:13.531
 # current working dir /user/ub2042/exercises/2_fitting/MM_MD_workdir/md_settings
 # Program compiled at                              Thu Apr 22 21:44:59 EDT 2021
 # Program compiled on                cpn-k07-07-02.compute.cbls.ccr.buffalo.edu
 # Program compiled for                                                    local
 # Source code revision number                                       git:36754bb
 &GLOBAL
   PRINT_LEVEL  LOW
   PROJECT_NAME cp2k
   RUN_TYPE  MD
 &END GLOBAL
 &MOTION
   &MD
     ENSEMBLE  NVT
     STEPS  10000
     TIMESTEP     2.4999999999999996E+00
     STEP_START_VAL  4000
     TIME_START_VAL     1.0000000000000160E+04
     ECONS_START_VAL    -1.3925666412857368E+01
     TEMPERATURE     3.0000000000000000E+02
     &BAROSTAT
       PRESSURE     1.0100000000000000E+00
       TIMECON     9.9999999999999982E+03
     &END BAROSTAT
     &THERMOSTAT
       TYPE  CSVR
       &CSVR
         TIMECON     9.9999999999999982E+03
         &THERMOSTAT_ENERGY
              -1.4509878471722232E-01
         &END THERMOSTAT_ENERGY
         &RNG_INIT
Wiener process for Thermostat # 1        1 F T F  -1.2979613312884362E+00        1825527127.0        2808732464.0        4063912891.0        4257845861.0        1604363975.0        1268783381.0             12345.0             12345.0             12345.0             12345.0             12345.0             12345.0             12345.0             12345.0             12345.0             12345.0             12345.0             12345.0
         &END RNG_INIT
       &END CSVR
     &END THERMOSTAT
     &AVERAGES  T
       &RESTART_AVERAGES
         ITIMES_START  1
         AVECPU     1.7915331163268967E-02
         AVEHUGONIOT     0.0000000000000000E+00
         AVETEMP_BARO     0.0000000000000000E+00
         AVEPOT    -1.4292425249175931E+01
         AVEKIN     4.3748849381907567E-01
         AVETEMP     2.2192413670250261E+02
         AVEKIN_QM     0.0000000000000000E+00
         AVETEMP_QM     0.0000000000000000E+00
         AVEVOL     6.7483345830905447E+06
         AVECELL_A     1.8897261328855768E+02
         AVECELL_B     1.8897261328855768E+02
         AVECELL_C     1.8897261328855768E+02
         AVEALPHA     9.0000000000000000E+01
         AVEBETA     9.0000000000000000E+01
         AVEGAMMA     9.0000000000000000E+01
         AVE_ECONS    -3.3593314636535889E+00
         AVE_PRESS     0.0000000000000000E+00
         AVE_PXX     0.0000000000000000E+00
       &END RESTART_AVERAGES
     &END AVERAGES
     &PRINT
       &ENERGY  SILENT
         &EACH
           MD  10
         &END EACH
       &END ENERGY
     &END PRINT
   &END MD
   &PRINT
     &TRAJECTORY  SILENT
       &EACH
         MD  10
       &END EACH
     &END TRAJECTORY
     &CELL  SILENT
       &EACH
         MD  10
       &END EACH
     &END CELL
     &VELOCITIES  SILENT
       &EACH
         MD  10
       &END EACH
     &END VELOCITIES
     &FORCES  SILENT
       &EACH
         MD  10
       &END EACH
     &END FORCES
     &RESTART  SILENT
       &EACH
         MD  10
       &END EACH
     &END RESTART
   &END PRINT
 &END MOTION
 &FORCE_EVAL
   METHOD  FIST
   &MM
     &FORCEFIELD
       VDW_SCALE14     1.0000000000000000E+00
       EI_SCALE14     1.0000000000000000E+00
       SHIFT_CUTOFF  T
       DO_NONBONDED  T
       IGNORE_MISSING_CRITICAL_PARAMS  T
       &SPLINE
         R0_NB     2.5000000000000000E-01
       &END SPLINE
       &NONBONDED
         &LENNARD-JONES
           ATOMS Br Br
           EPSILON     1.2630795322675199E+02
           SIGMA     3.6900000000000004E+00
         &END LENNARD-JONES
         &LENNARD-JONES
           ATOMS Cs Pb
           EPSILON     8.6920055954630968E+01
           SIGMA     3.6699999999999999E+00
         &END LENNARD-JONES
         &LENNARD-JONES
           ATOMS Cs Cs
           EPSILON     2.2644852172126850E+01
           SIGMA     4.5300000000000002E+00
         &END LENNARD-JONES
         &LENNARD-JONES
           ATOMS Pb Pb
           EPSILON     3.3363415533600227E+02
           SIGMA     6.1000000000000005E+00
         &END LENNARD-JONES
         &LENNARD-JONES
           ATOMS Br Cs
           EPSILON     5.3481070753900497E+01
           SIGMA     3.6300000000000003E+00
         &END LENNARD-JONES
         &LENNARD-JONES
           ATOMS Br Pb
           EPSILON     2.0528187276773045E+02
           SIGMA     2.9800000000000000E+00
         &END LENNARD-JONES
       &END NONBONDED
       &CHARGE
         ATOM Cs
         CHARGE     4.1739999999999999E-01
       &END CHARGE
       &CHARGE
         ATOM Pb
         CHARGE     8.3479999999999999E-01
       &END CHARGE
       &CHARGE
         ATOM Br
         CHARGE    -4.1739999999999999E-01
       &END CHARGE
     &END FORCEFIELD
     &POISSON
       PERIODIC  XYZ
       &EWALD
         EWALD_TYPE  SPME
         GMAX  62 62 62
         O_SPLINE  4
       &END EWALD
     &END POISSON
     &PRINT
       &FF_INFO  LOW
         SPLINE_INFO  F
         SPLINE_DATA  F
       &END FF_INFO
     &END PRINT
   &END MM
   &SUBSYS
     &CELL
       A     1.0000000000000001E+02    0.0000000000000000E+00    0.0000000000000000E+00
       B     0.0000000000000000E+00    1.0000000000000001E+02    0.0000000000000000E+00
       C     0.0000000000000000E+00    0.0000000000000000E+00    1.0000000000000001E+02
       PERIODIC  XYZ
       MULTIPLE_UNIT_CELL  1 1 1
     &END CELL
     &COORD
Cs    5.2878228049929743E-01   -8.8496339278022573E-01   -6.2564980043935403E+00
Cs   -1.2481720231858795E-01   -5.8687815837312804E+00   -6.3039577135757039E+00
Cs    7.7813201211014793E-01   -1.1665284268080965E+01   -5.0104392007650995E+00
Cs   -5.4908910629314960E+00   -7.5467126758531853E+00   -4.7403735235952187E+00
Br   -9.4831101039092047E+00   -1.3494632259045989E+01   -8.0620568170369413E+00
Br    1.1580627249698781E+01   -2.9055678616263076E+00   -9.3237307242492271E+00
Br   -3.4276415856144111E+00    2.5656370123524521E+00   -1.1906067141845364E+01
Cs   -6.6678412777434826E-01    4.9814468873832034E+00   -6.6762599939828657E+00
Cs    3.6401209993426686E-01    3.1587694938454158E-01   -1.1724846309950179E+00
Cs    1.1811749683827166E+00   -5.1749428782083484E+00    1.6180394017336239E-01
Br   -5.5877888851752688E+00   -2.8687905216097715E+00    3.6537446878027380E+00
Cs   -1.0125734539468858E+01   -5.4558718080381476E+00    1.2125855041943510E+01
Cs    1.2091678607800661E+01   -1.1923466443840365E+01   -7.4782454363388942E-02
Cs   -6.1820574079905892E+00    5.0660891438912037E+00   -5.7411634853115255E-02
Cs   -7.1742999973616783E-01    1.2005549608303683E+01   -5.2557620953659534E-01
Cs    2.4976121488119279E-01    6.6949558885934275E+00   -5.4763776149132504E-01
Cs   -1.1519830526774054E-01   -1.2277562658342035E-01    5.3824124433601810E+00
Cs    7.9404502467801652E-01   -4.6341167020728165E+00    6.9842093277027226E+00
Cs    9.1732801399260844E-01   -1.0651477870311517E+01    6.4422172152128807E+00
Cs   -6.6514576599007684E+00    6.1745219738688801E+00    1.1490896063454226E+01
Cs   -7.7166735839915397E+00   -1.0057572046440821E+00   -1.1604650380338761E+01
Cs   -4.7393007324556509E+00   -1.2852302802678294E+01   -6.2168631668056493E+00
Cs   -6.3308143472786602E+00   -8.5774617551103924E-02    5.9478793220652353E+00
Br   -3.3386752246886466E+00   -3.3000314912563860E+00    5.6924979013728380E-02
Cs    9.1335038057579768E-02    5.8232646491322910E+00    6.1402302162818971E+00
Br    1.1929230714707735E+01   -8.5228454653780528E+00   -8.9446428702859198E+00
Cs    1.4292106155717654E+00   -4.9098477370558369E+00    1.2952601692131761E+01
Br   -3.0204038407220359E+00    9.5795340202446747E-02    3.1781142985153248E+00
Br   -8.1877121110718161E+00   -3.0147624833668489E+00    1.2435890656660979E+01
Cs    1.1608571239559691E+01    1.0882830557666544E+01   -6.1792992070351538E+00
Cs   -1.0741731329382358E+01   -5.7990042211810566E+00    6.4921399681828014E+00
Cs   -4.7463112201787840E+00   -5.5026556195263892E+00    6.5516262440934732E+00
Cs   -6.9829140125498261E+00    1.0298711602902607E+01   -6.4288211781681603E+00
Br   -1.0975085762867478E+01   -8.5673859538118364E+00    1.0164951491069502E+01
Br   -9.0088681058911320E+00   -9.3350121497045553E+00    6.4775195772136085E+00
Cs   -1.1007327561384727E+01   -6.7701229812115109E+00   -4.6640125704058972E+00
Cs   -6.8957884636626501E+00    5.1713023691995943E+00   -6.6295904380534489E+00
Br   -8.3194303497354536E+00   -5.7454507169461992E+00    9.3940859936788481E+00
Cs    1.1920108230519357E+01    7.2343600055076092E+00    9.9796419551994298E+00
Br   -1.2440620247973618E+01    8.7720631876242319E+00    8.2228514323353998E+00
Br   -5.7454653996653686E+00   -3.9377477696239316E+00   -3.0808405117780495E+00
Cs    2.0447012054842259E-01    1.4049831290926038E+00    1.1594363610581825E+01
Cs    1.1357684226867248E+01    7.3061927608801156E+00   -4.0036110290402999E-01
Cs   -1.1747181618892412E+01   -8.0419936883038758E+00   -1.1091264668654917E+01
Cs    1.2067696587994668E+01    8.6092432110054729E-01    6.6595819117455592E+00
Cs   -1.3264041817740758E+01    9.9148130051809140E+00   -7.1666338547969630E+00
Cs    1.2249055523213753E+01   -1.0197126204004421E+01    6.1551506471765638E+00
Cs    5.6821335233038903E+00   -5.6569007107430007E+00   -1.1413168276199020E+01
Cs    6.5849244116112882E+00   -1.1403011718070005E+01    6.7344277789332097E+00
Cs   -4.5648388493394432E+00   -1.2014989257149528E+01    1.4946287844149946E+00
Cs    5.9835859684406625E+00   -1.3229797141176435E+01   -9.3535598999400769E+00
Cs    1.0865516005366329E+01    5.6153590411680581E+00   -6.1051662298616050E+00
Cs    1.0951873195237509E+01    1.2566734443121931E+01    4.6718355337315707E+00
Cs    1.1692409958897395E+01    4.9577725776248416E+00   -1.1107918851022134E+01
Cs   -2.2905170789298662E-01   -7.0409992955946246E+00   -1.1535875171894819E+01
Cs   -1.1653305826184656E+01   -7.4387405642465287E-01   -5.0959123472751866E+00
Cs    6.3703404108789092E+00   -4.8156437338711111E+00    1.2102833984449708E+01
Cs    1.1450802437150584E+01   -4.4109451733609637E+00    6.2881436597990366E+00
Cs   -1.0498651001359024E+01   -1.0935779702427611E+01    1.2181717092581797E+01
Cs   -6.0733806685899161E-01   -1.2252001045014660E+00   -1.1752112872761126E+01
Cs   -3.4583833184955487E-01    1.2576205264180285E+01    5.0946492835099644E+00
Cs   -6.4817021553804655E-01    4.7665188683790181E+00   -1.2032730865640019E+01
Cs    5.3138993088980238E+00   -6.6641188282182728E-01   -7.1256341024939385E+00
Cs    6.7064351312520554E+00   -6.3352333466000612E+00   -5.5877811511291009E+00
Cs   -4.5035396439101820E+00   -1.0254365282721643E+01    6.2380023123231156E+00
Cs   -1.1278195384178765E+01   -6.7311779478017963E-01    6.6639014888919146E+00
Cs    5.8045619281199325E+00   -1.8805916753578186E-01   -1.1716112498475011E+01
Cs    5.0771567772095985E+00    1.0435664380991513E+01   -1.2921669563610870E+01
Cs    1.4023247815651591E-01    7.2760660451851749E+00    1.1432466048688422E+01
Cs   -6.3590312515903245E+00    1.1137878732481585E+01    5.7225346369034389E+00
Cs    5.4297784488370873E+00    1.0707900232073161E+01   -6.8039533364272700E+00
Cs    4.9330523239814283E+00    6.5433719860187400E+00   -6.2926180759883525E+00
Cs    6.3031487506948318E+00    6.6669198988290235E-01    3.7670797741144929E-01
Cs    6.4593891346826950E+00   -6.1576956929086526E+00    1.0153303447507724E-01
Cs    6.4552900712899755E+00   -1.0668114215199173E+01    8.2156787799666384E-02
Cs    5.2353684675193648E+00    5.1280327778727282E+00   -1.1785886571492282E+01
Cs   -6.1071395353393436E+00    5.8158458395420727E+00    6.1929504828485165E+00
Cs   -6.7045710009408408E+00   -7.1867696649474793E+00   -1.1209314434683488E+01
Cs    6.0351340920622683E+00    6.2365182906836703E+00   -9.7102893824235939E-02
Cs    6.4032687004343574E+00    2.2996445734401927E-01    5.2137717390199647E+00
Cs    6.3095171689211025E+00   -5.6151770300922417E+00    6.7168387194468409E+00
Cs   -6.9651423033191788E+00    1.0627234702335626E+01   -9.0890086242738227E-02
Cs    1.1393335612478689E+01    8.4588917612939107E-01   -1.4014068162305868E-01
Cs   -5.1905414841174204E+00   -3.1407823305243288E-01   -7.6240355124153780E-01
Cs   -1.1347662351354442E+01    5.7523703854740385E+00    6.2288105077936047E+00
Cs   -4.5904504253528096E+00    1.2207940610078964E+00    1.2037697544253909E+01
Cs    5.5285354109674518E+00    1.1796657997108937E+01    4.9522354357570473E+00
Cs    6.0517639119456028E+00    6.2173778548495315E+00    5.8202145357497344E+00
Cs    6.4478761094383987E+00    1.7601889960071801E-01    1.1450704634591377E+01
Cs    4.4450540203377082E+00    1.3015894798571749E+01   -4.6818842618689638E-01
Cs    1.0884155627470484E+01   -1.3605624640821143E-01   -6.0921646653659511E+00
Cs    1.2300722673549366E+01   -6.0183623695295783E+00   -6.0603278318821978E+00
Cs    6.6699254091026914E+00   -9.9477937993521479E+00    1.2140958789497148E+01
Cs    9.7980566548693666E+00    1.2972002874288039E+01   -4.4903837440809907E-01
Cs   -9.8091717902924689E+00   -5.8316354785471081E-03    1.3028348943547361E+01
Cs   -6.6411240484343406E+00    5.2049205117338220E+00   -1.1686716489013486E+01
Cs   -1.2895111416402637E+01    9.1043021900355683E+00   -3.7507036008389193E-02
Cs   -4.8447155769887216E+00   -4.7157140187107567E+00    1.2607232287704356E+01
Cs   -4.6943687020990010E+00   -1.1630313894756151E+01    1.1856850033993128E+01
Cs    6.9635495668314586E+00    7.4314189532883645E+00    1.0837261565437696E+01
Cs    1.1779385952676650E+01   -5.9112976137527751E+00   -2.6059001256963882E-01
Cs   -1.0721303723153556E+01   -4.9250476978981783E-01    6.0557498442550428E-01
Cs   -6.9934818830625129E+00    1.1523694486332383E+01   -1.2284571991759561E+01
Cs   -1.0873733557823618E+01    5.0923541552991312E+00   -9.1283206319717633E-02
Cs   -1.1831584430286167E+01   -1.2007491591369311E+01   -5.5089726962342036E+00
Cs   -1.0872969933963168E+01   -6.8294052274443713E+00    1.2049438299202222E+00
Cs   -5.0752934256018962E+00   -6.6282229346647670E+00    5.8420690609389668E-02
Cs   -9.6182137287271701E+00   -1.3011824419472344E+01    6.5220607312252037E+00
Cs    1.2016287796350557E+01   -4.6015575739866836E+00    1.0752387528692431E+01
Cs    1.0812493496094149E+01    6.7020055921160102E+00    5.5681070188857724E+00
Cs   -1.2031244286659307E+01    4.5186237032157068E+00   -5.3920331097476897E+00
Cs   -6.0421645516344498E+00   -6.0054260706189477E-01   -5.7929727365985793E+00
Cs   -1.0800901961011302E+01   -1.2595339135934966E+01    1.8014515833704778E-01
Cs    1.1208142566423735E+01   -5.9857495845243287E+00   -1.1353614016884856E+01
Cs   -6.0238350055177028E+00   -1.2214487197478828E+01   -1.1663594788719919E+01
Cs   -1.0617478729098739E+00    1.1448900825588630E+01   -1.1962321609680652E+01
Cs   -2.0891213015675225E-03   -1.2336661929667347E+01   -1.0806865996005698E+01
Cs   -1.3760559392250031E+00    1.1761358617606220E+01   -6.3289024303093360E+00
Cs   -6.0137340803231591E+00    1.1121391052996549E+01    1.2400485933015101E+01
Cs    1.1528785154100565E+00   -1.1295333104542989E+01    3.4352756764740872E-01
Cs   -1.2437153990026223E+01   -5.2838653744934294E-01   -1.0453094735264974E+01
Cs   -1.1915342900748836E+01    1.0602045991070018E+01    5.1157892300765422E+00
Cs    6.3738645912798431E+00   -1.1142174507687317E+01   -4.6724781549202579E+00
Cs    1.1078505716848239E+01   -1.2855954855052357E-01   -1.1198684894883645E+01
Cs    6.5229826854056172E-01    1.2597718880680938E+01    1.0450170384568535E+01
Pb    3.5322424458337012E+00   -2.5808537998168837E+00   -2.9699819716494718E+00
Pb    3.7973742116797706E+00   -8.7215820307494223E+00   -2.4280594229004113E+00
Pb   -8.4963422699674620E+00   -3.7187518011435912E+00    3.3533373204791173E+00
Pb   -2.1439336558773476E+00   -9.3374013982809263E+00   -2.2417379092507055E+00
Pb    2.2017903718309060E+00    9.3759219618116898E+00   -3.6987215349040299E+00
Pb    2.8807640045664806E+00    3.3157046050601995E+00   -3.8023805509637914E+00
Pb    3.5049965762826729E+00   -2.5751311922953906E+00    3.0894190872284617E+00
Pb    3.9956671022521264E+00   -8.3414745628500828E+00    3.5411561968742711E+00
Pb   -3.6527585135442595E+00    9.1734097361013145E+00    2.7480320436411008E+00
Pb    2.5065458572606691E+00    9.4646430518184594E+00    2.3330794295817538E+00
Pb    2.8288832142915119E+00    3.3573311103165464E+00    2.4682320582247255E+00
Pb    3.1816054301136258E+00   -1.8136104219144049E+00    9.0146848712516228E+00
Pb    3.9028127178796046E+00   -7.6734026510072617E+00    9.4438527297515389E+00
Pb   -3.0947525904537581E+00    3.1928316750069157E+00    2.7970859845761291E+00
Pb    3.0087574069232481E+00    1.0107109304416227E+01    8.5935307860890600E+00
Pb    3.2649390511661096E+00    3.9348087579668882E+00    8.6993793620687523E+00
Pb   -2.5353611680278965E+00   -2.2426626004821379E+00    8.8422950239050415E+00
Pb   -8.0293966591978201E+00   -9.6491184525448830E+00    3.5293129157484073E+00
Pb   -8.7268507098803418E+00    2.1754880390878402E+00   -2.7045887894859062E+00
Pb   -3.2917871709261024E+00   -3.6411115030336481E+00   -9.2142056097556218E+00
Pb   -2.0304450560085456E+00   -8.6534505816248810E+00    3.5550065149319021E+00
Pb   -3.7314983797496439E+00    8.7901110024582980E+00   -3.3854423150968853E+00
Pb   -2.1157597631832021E+00   -8.4396828727941635E+00    9.7993914930828669E+00
Pb   -8.7462209140404550E+00   -4.2061469234173767E+00   -2.5031042079495682E+00
Pb   -8.1639541722231588E+00   -1.0244890410765313E+01   -2.5035612743057687E+00
Pb   -3.0018909392947193E+00    2.6101038057257546E+00   -3.2334793549768475E+00
Pb   -8.4055261212909365E+00   -8.7864743902731437E+00    9.2136424732921167E+00
Pb   -9.4991937547654235E+00   -4.0367195479754443E+00   -8.6728411741285445E+00
Pb    8.5809113917448929E+00   -3.4677254367915307E+00   -9.2294985168889951E+00
Pb    9.2530372517558011E+00   -9.1857014641098473E+00   -8.7781554309286278E+00
Pb   -2.9121415843081664E+00   -9.4747722994618648E+00   -8.6666733071123865E+00
Pb   -9.5652326754674064E+00    8.1352255421225710E+00   -9.5926298549862317E+00
Pb    2.6080377872993386E+00   -3.6657726753907123E+00   -9.2152543623180883E+00
Pb    3.1619798176145752E+00   -9.7824694238459937E+00   -8.5219847581147938E+00
Pb   -3.6267234927229643E+00    2.5340601082957201E+00   -9.1430307685990222E+00
Pb    2.4339910277640171E+00    8.3262821152596285E+00   -1.0111313959883139E+01
Pb    2.4486348644007290E+00    2.3173020938962074E+00   -9.4329541484866901E+00
Pb    9.5959251108575856E+00   -3.0139262584928392E+00   -3.1832677967809562E+00
Pb    9.7076858219737812E+00   -8.8055741725638708E+00   -2.5671612015907739E+00
Pb   -8.3980933947373479E+00   -2.8795573047342655E+00    9.3670785216813801E+00
Pb    8.6653707108651190E+00    8.7318801889956461E+00   -9.6557832042113994E+00
Pb   -9.5351451865728851E+00    2.0521479691407629E+00   -8.8067520448157826E+00
Pb   -2.9757441194502783E+00    9.5248556580891552E+00    8.5536032531429633E+00
Pb    8.1203957582715791E+00    9.0318405445902137E+00   -3.8477308651058566E+00
Pb    8.8255112772070063E+00    3.0072887784353326E+00   -3.2911499527284107E+00
Pb    9.4717361040801329E+00   -2.4144420834735421E+00    2.9163467383388695E+00
Pb    9.7581251332100258E+00   -8.3355165515882241E+00    3.2656333769609054E+00
Pb    8.3959247233761261E+00    2.7452890154373288E+00   -8.9309444540121188E+00
Pb   -2.5896490828070138E+00    3.6965116566536800E+00    8.9047518660877945E+00
Pb    8.5553193364056508E+00    9.6234578790650396E+00    2.2234310148003833E+00
Pb    9.0469888956581848E+00    3.4802162008429405E+00    2.8975849038892822E+00
Pb    8.8215330162723049E+00   -1.8210416419995947E+00    9.1429142079812209E+00
Pb    9.7779388207444242E+00   -7.9246562057543066E+00    9.0916450653914715E+00
Pb    9.1194384666698269E+00    1.0224424605932569E+01    8.1279058833170144E+00
Pb    9.2097918132293426E+00    3.8667750552623890E+00    8.9492059126869670E+00
Pb   -8.7882980167168476E+00    3.2322717662699891E+00    9.3320269054427367E+00
Pb   -2.5806121043975736E+00   -2.7406186450533050E+00    2.8453924310973120E+00
Pb   -9.6565422279296609E+00    8.2554095517835950E+00    2.8984926273019425E+00
Pb   -9.7895439590004774E+00    8.3027105539859729E+00   -3.2193113436907175E+00
Pb   -9.0124869085800263E+00   -1.0397874938080450E+01   -8.6467556364351577E+00
Pb   -3.6598455845495672E+00    8.6373914503764961E+00   -9.7843887042673838E+00
Pb   -8.9188249996779980E+00    2.4425721135883074E+00    3.2575089527510821E+00
Pb   -9.5519379410354475E+00    9.2589901205201759E+00    8.7940513421560276E+00
Pb   -2.6892142575835138E+00   -3.4967136043401448E+00   -3.1219212028431484E+00
Br    4.7159089655058073E-01   -3.0037880415740563E+00   -2.7311294237701729E+00
Br    2.8520105295612175E+00   -3.7908875395435997E+00   -6.1197982856752837E+00
Br    3.0791673103051531E+00   -8.6083049590541624E-02   -3.9196565729353603E+00
Br    9.2635890320922520E-01   -8.9511989315568332E+00   -2.2657120451532986E+00
Br    3.0650682551733510E+00   -9.0809690945775614E+00   -5.3494048360847222E+00
Br    3.5738073023231811E+00   -5.6651989965138583E+00   -2.2697312783980443E+00
Br   -2.4243449682873814E+00   -3.5590382295582961E+00   -5.8497384949071263E+00
Br   -8.7130594289562708E+00   -3.1126904522899430E+00    6.2926268705290083E+00
Br   -2.7417796703468156E+00   -4.5206063065783320E-01   -3.3441037602173562E+00
Br    3.4697585120596104E+00   -1.1549737533012394E+01   -2.7152056147883177E+00
Br    1.2259339034387011E+01   -1.4175977163983602E+00    3.2140913498436592E+00
Br   -5.0839236850619507E+00   -9.6766234356374774E+00   -2.0985212465446450E+00
Br   -1.1598549621566168E+01   -4.6314648745848084E+00    3.5974773232103616E+00
Br   -8.3453301422982484E+00   -4.0066853730339806E+00    5.4669240553674803E-01
Br    1.2534886589817459E+01   -8.9328751153458317E+00    3.0250190811047628E+00
Br   -7.1077086580893512E-01    9.0711927472914713E+00   -3.2875728092231973E+00
Br    2.3778668361204924E+00    8.5872361421480381E+00   -7.0380161578587481E+00
Br    2.5500935293638394E+00    1.2424369633185057E+01   -4.3394775873998377E+00
Br   -1.8523982018425383E-01    3.1836095482614977E+00   -3.0605119667625509E+00
Br    1.9659255882486897E+00    2.9489381678670665E+00   -6.5452219373634870E+00
Br    2.0129636080689211E+00    6.0895010404407204E+00   -3.6840545862040273E+00
Br    2.8288089400365851E-01   -2.9058423285652766E+00    2.9888959337040348E+00
Br    3.2807299500149969E+00   -2.1705386054963713E+00    4.5123933842150923E-02
Br    3.2140962883045923E+00    3.2697377726501226E-01    3.2101847249914361E+00
Br    1.0230687173166670E+00   -8.4899355609186795E+00    3.7480722049330537E+00
Br    3.7231158081156575E+00   -8.4723886128046360E+00    4.6772184661456589E-01
Br    3.2276873952758165E+00   -5.3091088133021351E+00    2.5865104568980395E+00
Br   -6.5571529459141304E+00    7.6775288073127417E+00   -8.8174277032110666E+00
Br   -4.1040763773063524E+00    9.9265398673858609E+00   -1.2498214057191204E+01
Br    3.4596983695703085E+00   -1.1119872581461149E+01    3.5587768764718559E+00
Br   -3.6234909268865696E+00    1.1590041569904916E+01   -9.0165186378553557E+00
Br   -3.4041988919894397E+00    5.2727648359825547E+00   -8.9587775887350265E+00
Br   -8.5494699427154970E+00   -5.2627954027590396E-01    3.2588612392532794E+00
Br   -2.9465572252854875E+00   -9.6737063318024159E+00   -5.6295660736859618E+00
Br   -6.7631554502797266E+00    9.2805400712442516E+00    2.9288926994010556E+00
Br   -3.7862861325230788E+00    8.6641636263351245E+00   -5.1138295739419304E-01
Br   -3.4213316152512170E+00    1.1733134847759914E+01    1.6454975973812873E+00
Br   -1.2341233287124366E-01    9.4186068080611527E+00    2.7542420485969230E+00
Br    2.3244173717694832E+00    9.6683501747252247E+00   -6.5567440525486820E-01
Br    2.0784296674025025E+00    1.2446552095276749E+01    2.6042882652893251E+00
Br   -7.4635757077944585E-03    3.6014332099649815E+00    2.1913904628716754E+00
Br    2.9002578371747583E+00    3.0971227951532203E+00   -4.2674169796545869E-01
Br    2.9173281331639691E+00    6.6405516864090766E+00    1.6251341953464793E+00
Br    4.1639526733964211E-01   -1.8794033572374798E+00    8.8467122830845728E+00
Br    2.8922281216747274E+00   -1.9667712962590240E+00    6.0569705380544407E+00
Br    3.9666836590737127E+00    9.5618053115070700E-01    9.1031859274813876E+00
Br    9.4787798766838638E-01   -7.4691253238361348E+00    9.5751264163481018E+00
Br    4.0423014490227347E+00   -7.9528920350267365E+00    6.4712850311215950E+00
Br    3.5982271056782853E+00   -4.7676846178245347E+00    8.8304686389109950E+00
Br   -1.1776096712205140E+01    1.6667488234361953E+00    2.9669395496797026E+00
Br   -8.3813650553858920E+00    2.0583460653632666E+00   -3.6134743754191255E-02
Br    4.4763683004151593E+00   -1.0853736714983445E+01    9.5672192506289129E+00
Br   -8.8408053675631955E+00    5.4108197550803210E+00    3.0662689475473388E+00
Br   -8.6317825197496063E+00   -1.8527515580376706E-02    9.2938815582541690E+00
Br   -2.7658014637571378E+00   -6.5574522904715264E+00   -2.6752128555474139E+00
Br   -5.8518233900363024E+00    2.8457313030526286E+00    2.9135848009580387E+00
Br   -3.4809472323034898E+00    2.5461076530199978E+00   -3.3520051864889694E-01
Br   -3.0800875357521216E+00    6.2250781278969320E+00    1.8860371475949900E+00
Br    9.3030714564485043E-02    9.7750498178056713E+00    8.7924952809272252E+00
Br    2.5591380321757713E+00    9.7939913795599995E+00    5.4741555503901260E+00
Br    2.7437100255139453E+00    1.2997104156276434E+01    7.5407489164585693E+00
Br    2.9960174177712351E-01    3.4317973619628646E+00    8.4720688734530949E+00
Br    2.8122782582907120E+00    3.8479030463618731E+00    5.4465654857155421E+00
Br    2.3735954067101530E+00    7.2021255781246456E+00    8.1232240040050279E+00
Br   -5.5250817530437590E+00   -2.4509338267170704E+00    8.3857744103164027E+00
Br    3.4685452351031794E+00   -1.7619992500243391E+00    1.1979536313576311E+01
Br   -1.9648491196952855E+00   -2.6364029818969734E+00    6.1399142717589799E+00
Br   -3.3341788751479338E+00    6.5043382723144771E-01    8.5561277998457932E+00
Br   -1.4012885995790254E+00   -1.1979154106006506E+01   -2.5426671421204197E+00
Br    3.8428278444797441E+00   -7.2204181168203450E+00    1.2291026301812458E+01
Br   -1.1463643431325089E+01    1.7870681841441354E+00   -2.1748752760517478E+00
Br   -1.8719925073267034E+00   -1.1391012671548145E+01    4.6877486408784677E+00
Br   -1.1352415760471150E+01   -4.8873838277926716E+00   -1.9200772862355018E+00
Br    2.9757880946734319E+00    9.9372923893647389E+00    1.1423272876270881E+01
Br   -8.9157421656887941E+00   -4.0264554650360216E+00   -5.5461198965719669E+00
Br   -8.7961506665325846E+00   -9.9534984656468872E-01   -3.1070855458964979E+00
Br    2.3207300077641202E+00    3.9214536483737814E+00    1.1536906540741445E+01
Br   -7.1245106221587546E+00    9.0233524670905574E+00   -3.2351395852289673E+00
Br   -3.6583480107915456E+00    8.8220712824775944E+00   -6.5916567264739641E+00
Br   -3.8834651619498084E+00    1.1494521957366992E+01   -3.9029665400257629E+00
Br   -5.8748239875547688E+00    2.2217172088499630E+00   -3.3801174141023922E+00
Br   -1.0868647556254871E+01   -1.1425431929155732E+01    3.3663525840313508E+00
Br   -3.5773914452619655E+00    2.6579121320529513E+00   -6.0017112112498117E+00
Br   -6.2780889343502695E+00   -3.6858812404500005E+00   -9.3436392763847955E+00
Br   -2.2821310793296377E+00   -4.3737070224234484E+00   -1.1891513199939629E+01
Br   -3.6070625063033654E+00   -7.7240123350095025E-01   -9.3479971744272490E+00
Br   -2.3182437492852470E+00    3.5811181849603488E+00    1.1572240120893165E+01
Br   -5.3476706264707499E+00   -8.1915350348970630E+00    8.8842110524762834E+00
Br   -1.9432971235071821E+00   -7.7591903821344044E+00    6.2293886738942943E+00
Br   -2.8969377370584430E+00   -5.0978827898893906E+00    9.6663301915459563E+00
Br   -8.1369916445609611E+00   -9.9534959226576198E+00    3.4474862562003994E-01
Br   -8.3333190812785958E+00   -6.6439503616216102E+00    3.7663199931936182E+00
Br   -8.6957080588228255E+00    9.1597451812988506E+00    1.1867299953414932E+01
Br    1.1439823651731826E+01    1.0243950396910337E+01    1.4399244438734329E+00
Br   -7.9345429312638514E+00   -8.6890137284645537E+00    1.2336301333093227E+01
Br    1.1297839292763840E+01    8.7365679677838521E+00   -3.7330235154403555E+00
Br    1.1740890044972856E+01    4.7696993906917973E+00    3.1597533230651602E+00
Br   -8.1828049142352235E+00    2.7773210408225504E+00    1.2228764755529681E+01
Br   -1.2535424818137948E+01   -3.3686622619507247E+00   -7.9478163547971103E+00
Br    1.1838890950141957E+01   -1.8985234984050836E+00    9.1369183142075023E+00
Br   -5.2197816970372264E+00   -9.0346002308516109E+00    3.2429617701207345E+00
Br    5.6033025636453173E+00   -3.3732241419284770E+00   -9.1250583852532259E+00
Br    8.4364931473124845E+00   -3.5492628181440193E+00   -1.2066503296534947E+01
Br    1.2394133211655927E+01   -6.9181600284195817E+00    8.3385130791540707E+00
Br    8.1964417792689019E+00   -5.0050357782381150E-01   -9.4766914690006754E+00
Br   -7.5672857368817930E+00   -1.1705449864307516E+01    9.7016715681927952E+00
Br   -2.3160362299230002E+00   -9.3722558742147868E+00    7.4495736348015096E-01
Br   -2.2762838772694267E+00   -5.9710339353398050E+00    2.7743110513770950E+00
Br    6.0518112386527632E+00   -9.7656649901976760E+00   -8.5443489586332326E+00
Br   -5.9284363553494401E+00   -9.7636531422086872E+00   -8.6956494846287562E+00
Br    8.8291131439660102E+00   -8.8496057858556014E+00   -1.1646862955754838E+01
Br    8.5838656199023422E+00   -6.1801424003980721E+00   -8.3300430245060362E+00
Br   -2.1603126648307311E+00   -1.1260263234194003E+01    9.3555166519687312E+00