 # Version information for this restart file 
 # current date 2021-06-17 12:34:24.821
 # current working dir /user/ub2042/exercises/2_fitting/MM_MD_workdir/md_settings
 # Program compiled at                              Thu Apr 22 21:44:59 EDT 2021
 # Program compiled on                cpn-k07-07-02.compute.cbls.ccr.buffalo.edu
 # Program compiled for                                                    local
 # Source code revision number                                       git:36754bb
 &GLOBAL
   PRINT_LEVEL  LOW
   PROJECT_NAME cp2k
   RUN_TYPE  MD
 &END GLOBAL
 &MOTION
   &MD
     ENSEMBLE  NVT
     STEPS  10000
     TIMESTEP     2.4999999999999996E+00
     STEP_START_VAL  8000
     TIME_START_VAL     1.9999999999997544E+04
     ECONS_START_VAL    -1.3925666412857368E+01
     TEMPERATURE     3.0000000000000000E+02
     &BAROSTAT
       PRESSURE     1.0100000000000000E+00
       TIMECON     9.9999999999999982E+03
     &END BAROSTAT
     &THERMOSTAT
       TYPE  CSVR
       &CSVR
         TIMECON     9.9999999999999982E+03
         &THERMOSTAT_ENERGY
              -2.5721452140431456E-01
         &END THERMOSTAT_ENERGY
         &RNG_INIT
Wiener process for Thermostat # 1        1 F T F  -7.2409950450941327E-02        2449733240.0        1737660451.0        3785501763.0        2017621797.0        4094717736.0        3768323869.0             12345.0             12345.0             12345.0             12345.0             12345.0             12345.0             12345.0             12345.0             12345.0             12345.0             12345.0             12345.0
         &END RNG_INIT
       &END CSVR
     &END THERMOSTAT
     &AVERAGES  T
       &RESTART_AVERAGES
         ITIMES_START  1
         AVECPU     1.7870477207383353E-02
         AVEHUGONIOT     0.0000000000000000E+00
         AVETEMP_BARO     0.0000000000000000E+00
         AVEPOT    -1.4256767518296948E+01
         AVEKIN     4.7283494890628291E-01
         AVETEMP     2.3985428033267084E+02
         AVEKIN_QM     0.0000000000000000E+00
         AVETEMP_QM     0.0000000000000000E+00
         AVEVOL     6.7483345830911295E+06
         AVECELL_A     1.8897261328855691E+02
         AVECELL_B     1.8897261328855691E+02
         AVECELL_C     1.8897261328855691E+02
         AVEALPHA     9.0000000000000000E+01
         AVEBETA     9.0000000000000000E+01
         AVEGAMMA     9.0000000000000000E+01
         AVE_ECONS    -3.7900937050031223E+00
         AVE_PRESS     0.0000000000000000E+00
         AVE_PXX     0.0000000000000000E+00
       &END RESTART_AVERAGES
     &END AVERAGES
     &PRINT
       &ENERGY  SILENT
         &EACH
           MD  10
         &END EACH
       &END ENERGY
     &END PRINT
   &END MD
   &PRINT
     &TRAJECTORY  SILENT
       &EACH
         MD  10
       &END EACH
     &END TRAJECTORY
     &CELL  SILENT
       &EACH
         MD  10
       &END EACH
     &END CELL
     &VELOCITIES  SILENT
       &EACH
         MD  10
       &END EACH
     &END VELOCITIES
     &FORCES  SILENT
       &EACH
         MD  10
       &END EACH
     &END FORCES
     &RESTART  SILENT
       &EACH
         MD  10
       &END EACH
     &END RESTART
   &END PRINT
 &END MOTION
 &FORCE_EVAL
   METHOD  FIST
   &MM
     &FORCEFIELD
       VDW_SCALE14     1.0000000000000000E+00
       EI_SCALE14     1.0000000000000000E+00
       SHIFT_CUTOFF  T
       DO_NONBONDED  T
       IGNORE_MISSING_CRITICAL_PARAMS  T
       &SPLINE
         R0_NB     2.5000000000000000E-01
       &END SPLINE
       &NONBONDED
         &LENNARD-JONES
           ATOMS Br Br
           EPSILON     1.2630795322675199E+02
           SIGMA     3.6900000000000004E+00
         &END LENNARD-JONES
         &LENNARD-JONES
           ATOMS Cs Pb
           EPSILON     8.6920055954630968E+01
           SIGMA     3.6699999999999999E+00
         &END LENNARD-JONES
         &LENNARD-JONES
           ATOMS Cs Cs
           EPSILON     2.2644852172126850E+01
           SIGMA     4.5300000000000002E+00
         &END LENNARD-JONES
         &LENNARD-JONES
           ATOMS Pb Pb
           EPSILON     3.3363415533600227E+02
           SIGMA     6.1000000000000005E+00
         &END LENNARD-JONES
         &LENNARD-JONES
           ATOMS Br Cs
           EPSILON     5.3481070753900497E+01
           SIGMA     3.6300000000000003E+00
         &END LENNARD-JONES
         &LENNARD-JONES
           ATOMS Br Pb
           EPSILON     2.0528187276773045E+02
           SIGMA     2.9800000000000000E+00
         &END LENNARD-JONES
       &END NONBONDED
       &CHARGE
         ATOM Cs
         CHARGE     4.1739999999999999E-01
       &END CHARGE
       &CHARGE
         ATOM Pb
         CHARGE     8.3479999999999999E-01
       &END CHARGE
       &CHARGE
         ATOM Br
         CHARGE    -4.1739999999999999E-01
       &END CHARGE
     &END FORCEFIELD
     &POISSON
       PERIODIC  XYZ
       &EWALD
         EWALD_TYPE  SPME
         GMAX  62 62 62
         O_SPLINE  4
       &END EWALD
     &END POISSON
     &PRINT
       &FF_INFO  LOW
         SPLINE_INFO  F
         SPLINE_DATA  F
       &END FF_INFO
     &END PRINT
   &END MM
   &SUBSYS
     &CELL
       A     1.0000000000000001E+02    0.0000000000000000E+00    0.0000000000000000E+00
       B     0.0000000000000000E+00    1.0000000000000001E+02    0.0000000000000000E+00
       C     0.0000000000000000E+00    0.0000000000000000E+00    1.0000000000000001E+02
       PERIODIC  XYZ
       MULTIPLE_UNIT_CELL  1 1 1
     &END CELL
     &COORD
Cs    4.6307612209761395E-01   -1.0401734986616606E+00   -5.4704710362138034E+00
Cs    1.1173272299494428E+00   -5.7507635220693372E+00   -5.6486243484542387E+00
Cs    1.1809152022776415E+00   -1.2658894304758437E+01   -4.3525225483201053E+00
Cs   -5.4553171229650657E+00   -7.8971866873864096E+00   -4.4170785637849708E+00
Br   -8.0007405854171925E+00   -1.3898570893019315E+01   -5.1167990507753540E+00
Br    1.1624754861292816E+01   -2.5027271695499742E+00   -9.9953215865108618E+00
Br   -3.6346280777219224E+00    1.4747984002028258E+00   -1.1746875934633419E+01
Cs   -1.2348640068334664E+00    3.9645208260992191E+00   -6.3419186511197898E+00
Cs    6.9320188695846260E-02    6.2145314431789313E-02    1.0380581697155826E+00
Cs    6.8491066768586528E-01   -6.2720365635846367E+00    1.5146669480629982E+00
Br   -5.6599176102915090E+00   -3.5363515890064741E+00    3.8267859050795439E+00
Cs   -8.1177600645521064E+00   -5.7312737590074940E+00    1.4703254816821348E+01
Cs    1.4054302252419273E+01   -9.3544157054516486E+00    3.9312316056174174E-01
Cs   -5.7184493755123365E+00    4.3830254053270252E+00   -9.0609664329192618E-01
Cs   -1.2308942068893767E+00    1.0856223130124782E+01   -1.4534107432192358E+00
Cs   -1.2537327500090478E+00    4.7383992566483348E+00   -4.9628963927232228E-01
Cs   -2.1284846080858122E-01    4.6913642833758423E-01    5.6855151606302936E+00
Cs    1.5420474640956439E+00   -5.6799805238664955E+00    7.3018087089539740E+00
Cs    3.2189088604963687E+00   -1.0536386989732041E+01    7.2905651357570447E+00
Cs   -6.6538868510696290E+00    7.2603191140761449E+00    1.1458383708781312E+01
Cs   -6.7484869893352712E+00   -2.7638527601624112E+00   -1.0452459927903520E+01
Cs   -5.1574195271382690E+00   -1.3188564541181988E+01   -3.4544897340264997E+00
Cs   -5.7598403631022217E+00   -6.4793380941200562E-01    6.5596751546360084E+00
Br   -2.0893485262428606E+00   -4.4176058653990564E+00    5.1742185821650399E-01
Cs   -5.7582293943956187E-03    6.8689866311765666E+00    5.9403285724512429E+00
Br    1.2503679577272475E+01   -7.1605061217509167E+00   -8.7634074007575613E+00
Cs    2.0595489304748771E+00   -4.4790069398914083E+00    1.2498929936069532E+01
Br   -2.7710475018390435E+00   -3.8492649392591377E-01    3.2773148327790511E+00
Br   -7.5128798943945387E+00   -2.4273073927812283E+00    1.2848062788850791E+01
Cs    1.0861335579121123E+01    1.1435102506162485E+01   -8.0566172533131795E+00
Cs   -1.1677093427631727E+01   -7.5178952909899479E+00    7.6045069799971774E+00
Cs   -3.4138415007457490E+00   -6.8149510492815644E+00    6.7230702838817624E+00
Cs   -7.6245075492913088E+00    9.9038847095111731E+00   -7.4948555005097690E+00
Br   -9.5979630011505215E+00   -1.0156982753852976E+01    1.0502364566822081E+01
Br   -6.2536908594771914E+00   -9.1193465776396447E+00    8.2610163639000582E+00
Cs   -1.0996866171465712E+01   -8.4158302023266973E+00   -4.7573608420629485E+00
Cs   -6.6581625536093147E+00    4.0311287460164378E+00   -6.1582170568506234E+00
Br   -7.5225288117185087E+00   -5.7950882315363348E+00    1.0844693063047110E+01
Cs    1.1913464500284350E+01    9.1194033062876834E+00    9.1685737252024015E+00
Br   -1.2476716542364921E+01    9.7676037035799279E+00    7.5453017861653517E+00
Br   -5.9471041185571956E+00   -4.4072121837851972E+00   -2.4158652500981348E+00
Cs    3.5940136613010804E-01    9.6694429617317945E-01    1.0605546122785816E+01
Cs    1.0519635050140941E+01    6.8722748442016233E+00   -1.9464442969648106E+00
Cs   -1.1165513676558716E+01   -9.4572685661454319E+00   -9.5586948264063381E+00
Cs    1.1637468517697091E+01    3.2737422168778312E+00    4.8312819165161160E+00
Cs   -1.2992792559641154E+01    9.3389843584393510E+00   -7.5114841402838364E+00
Cs    1.3721916282173368E+01   -7.8092389834444917E+00    6.1420499172667382E+00
Cs    5.7206144467047002E+00   -7.2656413551604144E+00   -1.1138516174244522E+01
Cs    9.0441261036276277E+00   -9.7470690649180405E+00    5.8810977759937213E+00
Cs   -5.0473250170215005E+00   -1.2590293588221758E+01    1.0688823789012121E+00
Cs    7.4572054173821911E+00   -1.2303985818194983E+01   -9.6494205116998284E+00
Cs    9.9606114803482821E+00    5.9413469032472630E+00   -7.9751892738881809E+00
Cs    9.2275880904212428E+00    1.4241180960797358E+01    3.0169356500895024E+00
Cs    9.9559279082124359E+00    6.3491862804592056E+00   -1.3519557721473909E+01
Cs    5.1220846858642921E-01   -7.2560711234808704E+00   -1.0934317475465145E+01
Cs   -1.1746973610676456E+01   -2.6669310326987845E+00   -5.5125309364991297E+00
Cs    8.2151771118364039E+00   -3.1977696701484630E+00    1.1888385154743933E+01
Cs    1.1822835227139688E+01   -2.4121639828026686E+00    5.7819096186334669E+00
Cs   -9.1682715862157398E+00   -1.1000089431488755E+01    1.3736513145632758E+01
Cs   -1.6699970106344060E+00   -1.2001115198451870E+00   -1.1209269685185820E+01
Cs   -8.0656090334115571E-01    1.1994997285238643E+01    4.2892375203464885E+00
Cs   -1.7006562480902907E+00    4.2775622626619247E+00   -1.2852042308782961E+01
Cs    5.9432166508067485E+00   -3.8143716918987719E-01   -6.5561749770046269E+00
Cs    7.0450982306435774E+00   -6.3851976223820195E+00   -5.3242784074090270E+00
Cs   -2.9359324833840512E+00   -1.2396328478315167E+01    8.2685401883845095E+00
Cs   -1.1326604831166341E+01    9.3086475615172318E-02    7.3112827361736441E+00
Cs    4.8419796688518453E+00   -2.0839508236215774E+00   -1.2358995076509634E+01
Cs    3.4846759251427040E+00    1.1985815742761227E+01   -1.2001902366933905E+01
Cs   -2.7341741115674032E-02    6.9760208932591343E+00    1.0759279139643422E+01
Cs   -6.8837278777506006E+00    1.0975022664578130E+01    5.0384285438654066E+00
Cs    4.8610223678714251E+00    1.1878528809646868E+01   -7.5076064625771055E+00
Cs    5.2068997474101266E+00    5.4800099012113819E+00   -6.4858228476765216E+00
Cs    6.3459915961540876E+00    1.3339193752152760E+00    2.4686713022553519E-01
Cs    6.7439980617190232E+00   -5.7188203478405244E+00   -3.8952716723138947E-01
Cs    7.0486327188679372E+00   -1.0528604543730752E+01    6.9383988270323982E-01
Cs    3.7814098833922816E+00    5.2526550491710262E+00   -1.1865845957417577E+01
Cs   -6.1804659114503524E+00    6.1641725620491155E+00    5.7963416044776768E+00
Cs   -5.6172098446347878E+00   -8.3843600592679461E+00   -1.0176378156890635E+01
Cs    5.1341391944462336E+00    6.6679620042249885E+00   -1.4213736370993018E+00
Cs    5.9424797168273704E+00    1.3027976395570127E+00    5.5152379565628555E+00
Cs    6.6236845673166709E+00   -4.5869068886171807E+00    6.3974684176581738E+00
Cs   -6.5134292646457146E+00    1.1056522451017598E+01   -1.6777634450535936E+00
Cs    1.1635566433431793E+01    9.5893216956624294E-01   -1.0659995718394213E+00
Cs   -5.9631854090402241E+00   -1.9712293389017498E-02    1.7822594033261505E+00
Cs   -1.2826916662703146E+01    4.4227289118238131E+00    4.9181971348625222E+00
Cs   -5.1723555429127499E+00    6.1245726471727813E-01    1.1329028591254565E+01
Cs    4.4474877683221301E+00    1.4136219441591406E+01    5.4939229952399717E+00
Cs    5.0206063149573481E+00    7.1800232810426321E+00    5.4129623093800543E+00
Cs    5.7813774384814343E+00    2.2218283459947372E+00    1.1117450407140449E+01
Cs    4.3437733954404312E+00    1.2502193421217008E+01   -2.0589940980368655E+00
Cs    1.0272729835778327E+01    1.4925699025339781E-01   -7.4448593150547104E+00
Cs    1.2315542366851997E+01   -5.1884388685269300E+00   -6.0263471739740302E+00
Cs    9.0418242753309670E+00   -8.3473521576737451E+00    1.1768387892363100E+01
Cs    1.0752845743453504E+01    1.2064913380187441E+01   -1.9705357791246050E+00
Cs   -1.0854895154681321E+01    5.8240193765658637E+00    1.2391295162835567E+01
Cs   -7.5128237650852725E+00    2.8800716793196237E+00   -1.1866208032296420E+01
Cs   -1.2550254104145131E+01    1.0479745790590435E+01   -1.7747851888748205E+00
Cs   -4.4604862630703010E+00   -4.3775293292019724E+00    1.2461013954293799E+01
Cs   -3.5981044556792967E+00   -1.1794193479898674E+01    1.3891000664663270E+01
Cs    5.8522191388073574E+00    9.4415365343601891E+00    1.1108399446259751E+01
Cs    1.2153527925373879E+01   -5.0183010482261272E+00   -2.7044710144652262E-01
Cs   -1.1163279157532608E+01   -1.0364864092467272E+00    1.1231611483385633E+00
Cs   -7.5448576571377437E+00    7.9076421858853969E+00   -1.3466485088024646E+01
Cs   -1.2534634185686098E+01    4.8824020284416916E+00    5.4653282335817743E-01
Cs   -1.0739471414888216E+01   -1.2769027432912592E+01   -3.0865693319276875E+00
Cs   -1.0302698749407224E+01   -7.2727187370965094E+00    1.9340648127451747E+00
Cs   -4.8053514751521691E+00   -7.4678932517364149E+00    1.1518313009256234E+00
Cs   -8.2369947676956912E+00   -1.2657787668284319E+01    8.2936500230240586E+00
Cs    1.2421867473908337E+01   -1.8737261825457878E+00    1.1796465980834085E+01
Cs    1.0552919013572723E+01    8.1964769613052528E+00    3.7970397274373382E+00
Cs   -1.2480138459388545E+01    4.6588315089208008E+00   -5.9247330728294676E+00
Cs   -6.3641216929979629E+00   -1.4495088346781331E+00   -4.8272960211885838E+00
Cs   -1.2640756164035398E+01   -1.0517624447920344E+01    2.8709865132320904E+00
Cs    1.1249509804884450E+01   -6.2731841936452906E+00   -1.1805416651422703E+01
Cs   -5.0315939827668812E+00   -1.3401103153785401E+01   -9.5698434465821585E+00
Cs   -2.8225352239448465E+00    1.0730874014632292E+01   -1.2201762311911498E+01
Cs    1.2378851618430060E+00   -1.2714657394970155E+01   -9.7726960851270164E+00
Cs   -1.6246191425837693E+00    1.1067107466961010E+01   -7.0221532538813278E+00
Cs   -7.0386661638291850E+00    1.2394900127566631E+01    1.0090669619820430E+01
Cs    2.2015883099016897E+00   -1.1326541352937971E+01    2.2335830654693862E+00
Cs   -1.3133269685871984E+01   -5.8293369977231280E-01   -1.1569895254387303E+01
Cs   -1.1321753074942908E+01    1.1118051122688808E+01    4.0963266780211596E+00
Cs    8.0980513973818447E+00   -1.1676429108115826E+01   -4.5357145913864381E+00
Cs    9.8662894760276796E+00   -1.9693798836039836E-01   -1.3136428203271834E+01
Cs   -1.5609112339040312E+00    1.2749869910647611E+01    9.4294424558723655E+00
Pb    3.1830691427575055E+00   -3.1228375338053924E+00   -3.0492339117150773E+00
Pb    3.8372433618970456E+00   -9.2829832910510053E+00   -2.1212614741638589E+00
Pb   -8.7684334655696397E+00   -4.0904235683359111E+00    4.3864254578998461E+00
Pb   -1.8574810735891885E+00   -1.0589420363999478E+01   -1.4852885538877205E+00
Pb    1.8593887285490327E+00    8.6260865346700673E+00   -4.0815830979804701E+00
Pb    2.4973090451019342E+00    2.5866943518718815E+00   -3.4981171918897380E+00
Pb    3.6040457322912629E+00   -2.2017297865706249E+00    2.8105254161069295E+00
Pb    4.6773958895388192E+00   -7.6996342181867901E+00    3.8665852859096383E+00
Pb   -3.8855274709444720E+00    8.6253951436096710E+00    1.7630881877388962E+00
Pb    2.2915258976673010E+00    9.3581469910789341E+00    1.8895522503315245E+00
Pb    2.9513002653623777E+00    3.5792631191336106E+00    2.2512117898752546E+00
Pb    3.5136140250956811E+00   -1.4969406264289877E+00    8.5509644662581046E+00
Pb    5.1092460427125737E+00   -7.0145308892746572E+00    1.0242032656276805E+01
Pb   -3.1117241651056551E+00    2.9615878959263573E+00    2.9074847681972984E+00
Pb    2.0168831730667343E+00    1.0525170311814398E+01    7.7309183962778363E+00
Pb    3.0661031931759264E+00    4.4011765023927598E+00    8.3694975288931115E+00
Pb   -2.2866754307063375E+00   -2.2958252488185109E+00    9.1714212746067858E+00
Pb   -6.8786703453256006E+00   -9.7518233323093053E+00    5.3349276465064648E+00
Pb   -9.4613263884927861E+00    1.5858991753002929E+00   -2.9953817634337243E+00
Pb   -3.3627380606927679E+00   -4.6682293590546742E+00   -8.5726983375590322E+00
Pb   -1.0264572365454123E+00   -9.2588480236697279E+00    4.9555380332140064E+00
Pb   -4.0247782468903157E+00    7.9996975478654395E+00   -4.0627878535535631E+00
Pb   -1.0047596845047042E+00   -7.9909453762443423E+00    1.1069788825829788E+01
Pb   -9.3254419582671009E+00   -4.1947886456460868E+00   -1.5088039660487262E+00
Pb   -7.8279298212488211E+00   -9.9832958229906268E+00   -1.2283258860552981E+00
Pb   -3.4901707499077954E+00    1.6011363682709563E+00   -2.8903860836075235E+00
Pb   -6.7695423189004034E+00   -8.7828690067152237E+00    1.1219982293041470E+01
Pb   -8.9206252666362502E+00   -5.6753095518723020E+00   -7.6700756939592889E+00
Pb    8.6420055724216276E+00   -2.8256020500461183E+00   -9.7376059239570019E+00
Pb    1.0081666977944232E+01   -8.8138246802677038E+00   -8.3756403821695411E+00
Pb   -2.0595862954877391E+00   -1.0841508793703278E+01   -7.1530384469954305E+00
Pb   -1.0882144665154003E+01    5.9107891664481782E+00   -9.8185005734634903E+00
Pb    2.7187232549794298E+00   -3.8622897873978568E+00   -9.1516787613822146E+00
Pb    3.8872806882076789E+00   -9.7583976101542955E+00   -7.8413400043957395E+00
Pb   -4.1186290394159935E+00    1.3059260916011017E+00   -8.7427593593261559E+00
Pb    1.2799876872600016E+00    8.2475487834006120E+00   -9.8861411934272052E+00
Pb    1.8428010583586345E+00    1.9231264834365398E+00   -9.6392310076851562E+00
Pb    9.3648217063130552E+00   -2.1599449862957574E+00   -3.5265191004645806E+00
Pb    9.6381667609430668E+00   -8.2314300069535022E+00   -2.3931851881610084E+00
Pb   -8.5481819025983743E+00   -2.8420014811143974E+00    1.0358105594136029E+01
Pb    7.1435272471583628E+00    9.2463237131308826E+00   -1.0634983031926993E+01
Pb   -9.9060987178808375E+00    1.0779692132329027E-01   -8.9458102172624567E+00
Pb   -3.6079367229361545E+00    9.2650634695861314E+00    7.8261698533684170E+00
Pb    7.7793363500540318E+00    9.5216246445673569E+00   -4.5974180482537061E+00
Pb    8.0308023907247019E+00    3.4350503308008973E+00   -4.5994525405367783E+00
Pb    9.4320977127914851E+00   -1.2956631719350737E+00    2.2741173912338155E+00
Pb    1.0715736636530162E+01   -7.2448522853186308E+00    3.1983321363861981E+00
Pb    7.6628971646695963E+00    2.9144164684895539E+00   -1.0594677742819133E+01
Pb   -2.5693189833372849E+00    3.5952642789990290E+00    8.7209601614160466E+00
Pb    7.8622741737653365E+00    1.0891198803762492E+01    1.0657987024171325E+00
Pb    8.7694768828961216E+00    4.8482923942018736E+00    1.6433071874720486E+00
Pb    9.4506978044212122E+00    1.3167587981381201E-01    8.1579709588236184E+00
Pb    1.1028918159382789E+01   -5.6988123093327143E+00    9.1420173270899845E+00
Pb    8.2136928016814892E+00    1.1731992519916391E+01    7.0658791168140533E+00
Pb    8.8404292390826722E+00    6.0116939402942764E+00    7.7058814318728812E+00
Pb   -8.6325256913872916E+00    3.0843829727087773E+00    9.1543061710294520E+00
Pb   -2.4746855269938051E+00   -3.4679672944994868E+00    3.4073245334676017E+00
Pb   -9.8692533594852954E+00    7.9881899082243555E+00    1.9705674040798489E+00
Pb   -1.0237393558690396E+01    7.4784435960136744E+00   -4.0204286395806745E+00
Pb   -8.3276867723068726E+00   -1.1700174517872361E+01   -6.9203121610714247E+00
Pb   -4.5187420023606570E+00    7.1138919601078889E+00   -1.0024485244605428E+01
Pb   -9.1674744742945524E+00    1.6860818132784070E+00    3.3185961098916033E+00
Pb   -9.5391331694773793E+00    9.1581139661683171E+00    8.1760459224748967E+00
Pb   -2.8364435890873430E+00   -4.4320477904957345E+00   -2.5285521321694739E+00
Br    4.1408553031950035E-01   -3.6829729079768101E+00   -3.1938621421345119E+00
Br    3.3398244933988877E+00   -2.9332318283267980E+00   -6.2603157782078371E+00
Br    2.1285077588454966E+00   -4.3307554834269607E-01   -2.8010347005216278E+00
Br    1.2245036310074504E+00   -1.0017778571561177E+01   -1.4584746109731652E+00
Br    4.3010482023834617E+00   -1.0086185721094425E+01   -5.0471717833946288E+00
Br    3.5279726611581110E+00   -6.2832461929904770E+00   -2.6313131116245598E+00
Br   -2.1466472363893669E+00   -4.1528096851418095E+00   -5.4367953238152715E+00
Br   -8.9381135542190027E+00   -2.9405405014299015E+00    7.3253551233436625E+00
Br   -3.5886298503885179E+00   -1.1337877301910386E+00   -2.3527886872199772E+00
Br    5.0557482079564693E+00   -1.2036009051429080E+01   -2.2534146027347135E+00
Br    1.2295052393376608E+01   -1.2382373264041122E+00    1.7858772612929863E+00
Br   -5.0607800133601417E+00   -1.0092938249179349E+01   -1.7622845069433530E+00
Br   -1.1510704994807183E+01   -5.0209145151646792E+00    4.4653869173959961E+00
Br   -8.7162134537181917E+00   -4.1982049829665788E+00    1.4290140760938215E+00
Br    1.3390139394503885E+01   -6.6004511278086957E+00    3.0169020332473639E+00
Br   -1.0771819453205560E+00    8.1269961932137260E+00   -4.3321785114323701E+00
Br    1.9194327434920615E+00    8.8762139761402121E+00   -7.1244997396701546E+00
Br    1.8422218434549027E+00    1.1861024906393988E+01   -4.2770116426908089E+00
Br   -4.8537546664446279E-01    2.0875342398607573E+00   -3.4014005663184999E+00
Br    2.3400314465165284E+00    2.0073307488986303E+00   -6.5467134402913389E+00
Br    2.8336588744237523E+00    5.7023827633271091E+00   -4.1189418509328783E+00
Br    6.4205934969620626E-01   -2.5135198591513475E+00    2.9016761673752849E+00
Br    3.5862406663812405E+00   -2.7355561281537839E+00   -3.0714570088325333E-01
Br    3.3270414325496103E+00    5.9896360963907247E-01    2.6469904986211010E+00
Br    1.8521385211009223E+00   -8.4065137217743331E+00    4.0636351094635161E+00
Br    4.2769293342079342E+00   -8.1067886855345748E+00    1.1407606752756152E+00
Br    4.1565655557452761E+00   -4.9345088827779531E+00    3.6016021409489265E+00
Br   -7.4937176367939164E+00    6.3159659819870839E+00   -9.8622885640090932E+00
Br   -4.1261690335758079E+00    7.2216170608667642E+00   -1.2747814412701995E+01
Br    4.8332921092662522E+00   -1.0679487876476118E+01    4.1956946483307362E+00
Br   -5.3287901562657174E+00    9.9566035849388648E+00   -1.0107925151483791E+01
Br   -4.5043443153073959E+00    4.2398551652847916E+00   -9.0733690090674095E+00
Br   -8.4355933052856695E+00   -1.0692347336100332E+00    3.9434440271123612E+00
Br   -1.9551840935124827E+00   -1.1498860212628744E+01   -4.4403968492397832E+00
Br   -6.7958820663590744E+00    8.1537795570555875E+00    1.7081080480942936E+00
Br   -4.2222995685947771E+00    8.4535167992554037E+00   -1.0774387420855462E+00
Br   -5.0142272964899117E+00    1.1282865787034773E+01    1.7757744990945170E+00
Br   -9.7280091005264202E-01    9.5919025495771635E+00    1.5769290971154886E+00
Br    1.4326307366535753E+00    8.7658247511159111E+00   -1.1608737568367575E+00
Br    1.9015684261680281E+00    1.2219317467040581E+01    1.3774268203236402E+00
Br   -2.1510635655313585E-02    3.0044618419349813E+00    1.9679042455284563E+00
Br    2.4090673964522749E+00    3.5315939904746352E+00   -7.3216826053393436E-01
Br    2.9296704949698942E+00    6.3732844845562830E+00    3.0184172404950993E+00
Br    5.4078944094963510E-01   -1.9060931325117163E+00    7.9921919453064527E+00
Br    3.6937583886172245E+00   -1.6120511735578129E+00    5.5295182165949814E+00
Br    3.4735063823062537E+00    1.2082820156372267E+00    8.1679755527207387E+00
Br    1.9517491732678787E+00   -7.3874803665449127E+00    1.0295143688670628E+01
Br    4.3890202750309841E+00   -7.3925055289600863E+00    6.8487042354374816E+00
Br    3.9766597494868425E+00   -4.4826209941485242E+00    9.3244663321268355E+00
Br   -1.2016127334552500E+01    1.1258313585608961E+00    3.6911686350659618E+00
Br   -8.9628652991230382E+00    1.5625383878790178E+00    5.1553657418569832E-01
Br    5.8877752210951932E+00   -9.5550685648631433E+00    1.0768019625832530E+01
Br   -1.0200494014267793E+01    4.5461939213915041E+00    2.5775623427623926E+00
Br   -7.9003508594817013E+00    2.7457443793983688E-01    9.3103794465547018E+00
Br   -2.4783370387868264E+00   -7.3985309105772554E+00   -2.0193583045389798E+00
Br   -5.9447772694283723E+00    2.5877591751738898E+00    3.6406462243542239E+00
Br   -3.3952105330029529E+00    2.5561767545299396E+00   -2.2451472963231681E-01
Br   -3.4832459580032635E+00    5.8102855126076243E+00    1.7233433715220230E+00
Br   -6.9715145913160093E-01    9.7463143600973297E+00    7.6393719348865359E+00
Br    1.9535966690620021E+00    9.6555447500258929E+00    5.0082435927902020E+00
Br    1.3014491954167273E+00    1.3302994844033107E+01    7.0159672555824342E+00
Br    4.2553943423095170E-01    3.4984788335464914E+00    8.2884645882946355E+00
Br    3.4671748273469603E+00    3.6797534007369088E+00    5.5975290756335276E+00
Br    2.6594418369159287E+00    7.5256135701119913E+00    8.1457428591104986E+00
Br   -5.2105048684453763E+00   -2.6463027858464847E+00    9.4570723667870240E+00
Br    2.5809210586988285E+00   -1.5776426790183447E+00    1.1384048784397891E+01
Br   -2.9679099513906273E+00   -3.0384153879740317E+00    6.2896101492228782E+00
Br   -2.4635597780642939E+00    5.9875375384602880E-01    8.7662688126401065E+00
Br   -2.1956322070816081E+00   -1.3260953818428113E+01   -6.3933521584139474E-01
Br    5.6849908745878439E+00   -5.2826503180490105E+00    1.2451712366671449E+01
Br   -1.2283574224462589E+01    2.5513024972745626E+00   -2.4684109535028305E+00
Br   -3.0143690377786647E-01   -1.2113319867660479E+01    4.8417459468797279E+00
Br   -1.2003556270106593E+01   -3.6187115093206237E+00   -1.6601740015374506E+00
Br    1.8591351084408307E+00    1.1408938357638581E+01    1.0376874030657644E+01
Br   -9.2170267852426448E+00   -5.0759270646914691E+00   -4.9531242160417559E+00
Br   -8.5522475580394595E+00   -1.2391983162476656E+00   -2.4131850474201921E+00
Br    2.8975777409713044E+00    4.1074322404711019E+00    1.1170294295237117E+01
Br   -7.1419214444378580E+00    8.2973404569106464E+00   -4.0684633329736570E+00
Br   -4.2945745745114658E+00    7.6981629486801380E+00   -6.8724188085438476E+00
Br   -3.6639164867873917E+00    1.0729811367414978E+01   -3.9357132361551703E+00
Br   -6.4097353065457563E+00    1.7933857340218373E+00   -3.0103718066735934E+00
Br   -1.0302446797167443E+01   -1.0121486811254183E+01    5.3857022153854919E+00
Br   -3.5538276421902375E+00    1.4859895221041064E+00   -5.8207140784189173E+00
Br   -6.1859160470632961E+00   -5.0665366242781440E+00   -7.2375008203171962E+00
Br   -2.8267077335273183E+00   -5.5988434245448495E+00   -1.1305691724579836E+01
Br   -4.2959138130896868E+00   -1.9703490883382211E+00   -8.1073898710429546E+00
Br   -2.2819684643101441E+00    3.9224884831175610E+00    1.1398645702093699E+01
Br   -3.9613531119012575E+00   -8.4193778095875729E+00    1.1640592689788477E+01
Br   -8.0896553703420804E-01   -8.6262919957484723E+00    7.8941921792172920E+00
Br   -1.9223845326926969E+00   -5.3231705823217066E+00    9.9324354259089667E+00
Br   -7.0897882162588983E+00   -1.0013327131270533E+01    1.6634183357233563E+00
Br   -8.2843096945749561E+00   -7.0481487998559880E+00    4.7200655870732007E+00
Br   -9.0160835166665958E+00    9.6242831211272506E+00    1.1099403130007476E+01
Br    1.0738891134912951E+01    1.1491323807795155E+01    1.0147071555408209E+00
Br   -7.3623618189172815E+00   -8.8276390177695649E+00    1.4477430531975964E+01
Br    1.0994970040902279E+01    9.6313889974128220E+00   -5.1889575924849085E+00
Br    1.1614508556075460E+01    5.1155817183995165E+00    2.0454762507503581E+00
Br   -8.3329824040387166E+00    3.7909626001968775E+00    1.1895881524968427E+01
Br   -1.1677017015175602E+01   -6.4596599999286042E+00   -7.2368931426018044E+00
Br    1.2446062862182433E+01    3.0156353739026776E-01    7.3816429008090019E+00
Br   -4.1653792845055824E+00   -9.2897556254265190E+00    4.7892950018873144E+00
Br    5.7936546970716352E+00   -2.8845223818479497E+00   -9.3630942191438962E+00
Br    8.2695214741045486E+00   -2.7951179092102207E+00   -1.2487874131251115E+01
Br    1.3333301491376782E+01   -4.6923795144068041E+00    7.8367467289027202E+00
Br    8.0411585775009353E+00    3.7657479364910616E-02   -1.0118686434611062E+01
Br   -6.2984219567199258E+00   -1.1804382380623304E+01    1.1889946797704027E+01
Br   -2.0675597109708583E+00   -9.3733781613323153E+00    2.0153127963385020E+00
Br   -1.6324827161058355E+00   -5.7924123392125964E+00    4.3161855519342893E+00
Br    6.8368645424803445E+00   -9.2086536304340889E+00   -8.0449821401441106E+00
Br   -5.0199672369745292E+00   -1.1059980249322898E+01   -6.7864661237049120E+00
Br    9.3046251848324921E+00   -9.1712117391649439E+00   -1.1543296035569071E+01
Br    8.7251599973409206E+00   -5.8884854574940642E+00   -9.3572328595306882E+00
Br   -5.5350738563306556E-01   -1.0824370630301869E+01    1.1504708904173393E+01