 # Version information for this restart file 
 # current date 2021-06-17 12:33:31.250
 # current working dir /user/ub2042/exercises/2_fitting/MM_MD_workdir/md_settings
 # Program compiled at                              Thu Apr 22 21:44:59 EDT 2021
 # Program compiled on                cpn-k07-07-02.compute.cbls.ccr.buffalo.edu
 # Program compiled for                                                    local
 # Source code revision number                                       git:36754bb
 &GLOBAL
   PRINT_LEVEL  LOW
   PROJECT_NAME cp2k
   RUN_TYPE  MD
 &END GLOBAL
 &MOTION
   &MD
     ENSEMBLE  NVT
     STEPS  10000
     TIMESTEP     2.4999999999999996E+00
     STEP_START_VAL  5000
     TIME_START_VAL     1.2500000000000537E+04
     ECONS_START_VAL    -1.3925666412857368E+01
     TEMPERATURE     3.0000000000000000E+02
     &BAROSTAT
       PRESSURE     1.0100000000000000E+00
       TIMECON     9.9999999999999982E+03
     &END BAROSTAT
     &THERMOSTAT
       TYPE  CSVR
       &CSVR
         TIMECON     9.9999999999999982E+03
         &THERMOSTAT_ENERGY
              -2.0590597503732672E-01
         &END THERMOSTAT_ENERGY
         &RNG_INIT
Wiener process for Thermostat # 1        1 F T F   1.3298801444298969E-01        2410222925.0        2863843072.0        4179475288.0         853044666.0         507103514.0        1614793076.0             12345.0             12345.0             12345.0             12345.0             12345.0             12345.0             12345.0             12345.0             12345.0             12345.0             12345.0             12345.0
         &END RNG_INIT
       &END CSVR
     &END THERMOSTAT
     &AVERAGES  T
       &RESTART_AVERAGES
         ITIMES_START  1
         AVECPU     1.7878862206218725E-02
         AVEHUGONIOT     0.0000000000000000E+00
         AVETEMP_BARO     0.0000000000000000E+00
         AVEPOT    -1.4282360973733230E+01
         AVEKIN     4.4819585807122564E-01
         AVETEMP     2.2735564542007805E+02
         AVEKIN_QM     0.0000000000000000E+00
         AVETEMP_QM     0.0000000000000000E+00
         AVEVOL     6.7483345830907775E+06
         AVECELL_A     1.8897261328855762E+02
         AVECELL_B     1.8897261328855762E+02
         AVECELL_C     1.8897261328855762E+02
         AVEALPHA     9.0000000000000000E+01
         AVEBETA     9.0000000000000000E+01
         AVEGAMMA     9.0000000000000000E+01
         AVE_ECONS    -3.5815767617102656E+00
         AVE_PRESS     0.0000000000000000E+00
         AVE_PXX     0.0000000000000000E+00
       &END RESTART_AVERAGES
     &END AVERAGES
     &PRINT
       &ENERGY  SILENT
         &EACH
           MD  10
         &END EACH
       &END ENERGY
     &END PRINT
   &END MD
   &PRINT
     &TRAJECTORY  SILENT
       &EACH
         MD  10
       &END EACH
     &END TRAJECTORY
     &CELL  SILENT
       &EACH
         MD  10
       &END EACH
     &END CELL
     &VELOCITIES  SILENT
       &EACH
         MD  10
       &END EACH
     &END VELOCITIES
     &FORCES  SILENT
       &EACH
         MD  10
       &END EACH
     &END FORCES
     &RESTART  SILENT
       &EACH
         MD  10
       &END EACH
     &END RESTART
   &END PRINT
 &END MOTION
 &FORCE_EVAL
   METHOD  FIST
   &MM
     &FORCEFIELD
       VDW_SCALE14     1.0000000000000000E+00
       EI_SCALE14     1.0000000000000000E+00
       SHIFT_CUTOFF  T
       DO_NONBONDED  T
       IGNORE_MISSING_CRITICAL_PARAMS  T
       &SPLINE
         R0_NB     2.5000000000000000E-01
       &END SPLINE
       &NONBONDED
         &LENNARD-JONES
           ATOMS Br Br
           EPSILON     1.2630795322675199E+02
           SIGMA     3.6900000000000004E+00
         &END LENNARD-JONES
         &LENNARD-JONES
           ATOMS Cs Pb
           EPSILON     8.6920055954630968E+01
           SIGMA     3.6699999999999999E+00
         &END LENNARD-JONES
         &LENNARD-JONES
           ATOMS Cs Cs
           EPSILON     2.2644852172126850E+01
           SIGMA     4.5300000000000002E+00
         &END LENNARD-JONES
         &LENNARD-JONES
           ATOMS Pb Pb
           EPSILON     3.3363415533600227E+02
           SIGMA     6.1000000000000005E+00
         &END LENNARD-JONES
         &LENNARD-JONES
           ATOMS Br Cs
           EPSILON     5.3481070753900497E+01
           SIGMA     3.6300000000000003E+00
         &END LENNARD-JONES
         &LENNARD-JONES
           ATOMS Br Pb
           EPSILON     2.0528187276773045E+02
           SIGMA     2.9800000000000000E+00
         &END LENNARD-JONES
       &END NONBONDED
       &CHARGE
         ATOM Cs
         CHARGE     4.1739999999999999E-01
       &END CHARGE
       &CHARGE
         ATOM Pb
         CHARGE     8.3479999999999999E-01
       &END CHARGE
       &CHARGE
         ATOM Br
         CHARGE    -4.1739999999999999E-01
       &END CHARGE
     &END FORCEFIELD
     &POISSON
       PERIODIC  XYZ
       &EWALD
         EWALD_TYPE  SPME
         GMAX  62 62 62
         O_SPLINE  4
       &END EWALD
     &END POISSON
     &PRINT
       &FF_INFO  LOW
         SPLINE_INFO  F
         SPLINE_DATA  F
       &END FF_INFO
     &END PRINT
   &END MM
   &SUBSYS
     &CELL
       A     1.0000000000000001E+02    0.0000000000000000E+00    0.0000000000000000E+00
       B     0.0000000000000000E+00    1.0000000000000001E+02    0.0000000000000000E+00
       C     0.0000000000000000E+00    0.0000000000000000E+00    1.0000000000000001E+02
       PERIODIC  XYZ
       MULTIPLE_UNIT_CELL  1 1 1
     &END CELL
     &COORD
Cs   -1.3795638632503418E-01   -6.2620276703623234E-01   -4.9371039006596931E+00
Cs    3.4399960593497980E-01   -6.4784147740440945E+00   -6.6145082066925047E+00
Cs    8.0323443333515687E-01   -1.1446655479850719E+01   -5.7406159687923353E+00
Cs   -4.8919243672167392E+00   -6.9997926344269290E+00   -5.7661581262605832E+00
Br   -8.1667990416766845E+00   -1.3888595342535121E+01   -6.1765058291886472E+00
Br    1.1428954874670907E+01   -2.4258037763834284E+00   -1.0603907785479816E+01
Br   -4.3937928353897382E+00    1.8957772755568369E+00   -1.1896839060010665E+01
Cs   -1.0562355013861697E+00    4.6782019547102554E+00   -6.1235701133762754E+00
Cs   -5.0892623839782991E-01   -3.7063607047482461E-01    7.5739493800985450E-02
Cs    3.0668960133599338E-01   -5.6487039980546347E+00    7.5023012127255928E-01
Br   -5.9058089937650742E+00   -3.1952941195392448E+00    3.0030102298734120E+00
Cs   -1.1771670340217332E+01   -5.8518240066273792E+00    1.1554182361431211E+01
Cs    1.3971774049693186E+01   -7.8847507794570513E+00    3.0510024026779309E-01
Cs   -6.3560707184647711E+00    5.1143660529996087E+00   -1.0143152244671058E-01
Cs    8.1311472363366166E-01    1.2365677243644761E+01   -8.1456495320739397E-01
Cs   -4.5329685694093853E-02    6.9291986023641421E+00   -4.9908217494860141E-01
Cs   -5.8162387817076988E-01    3.1292068893453434E-01    5.5297599012879219E+00
Cs    1.3676995269846597E+00   -6.4616184704445887E+00    6.4056041026222310E+00
Cs    7.8060787715125890E-01   -1.0977323490275142E+01    6.2849917941360447E+00
Cs   -5.8816717753614327E+00    5.9213379594171549E+00    1.1304924528670274E+01
Cs   -6.3750892175095357E+00   -1.3199999114144161E+00   -1.0677459934833418E+01
Cs   -5.5838798622258041E+00   -1.3109964579729223E+01   -4.0004911351542214E+00
Cs   -5.2988981597963294E+00   -9.8255281945096384E-01    6.0094555648157426E+00
Br   -2.7047424923442875E+00   -3.7413018820809003E+00    2.5441424737839458E-01
Cs    5.6707392032806413E-02    6.1293134227051453E+00    5.7562662274554315E+00
Br    1.2355406604545871E+01   -8.5132398304448849E+00   -7.7351007719353149E+00
Cs    3.1537249294518671E-01   -6.1612710116729321E+00    1.3207663650787465E+01
Br   -2.9712391971038938E+00   -1.6522005659762901E-01    3.0509621820064496E+00
Br   -8.0289280746453020E+00   -2.9557693413769850E+00    1.2371889696603255E+01
Cs    1.0791170589148171E+01    1.1456417353936597E+01   -7.9118932762614858E+00
Cs   -1.0261378593946860E+01   -6.2712281936645988E+00    6.9975821587309186E+00
Cs   -4.0514113001319538E+00   -6.3521968234933031E+00    6.8490388041239179E+00
Cs   -6.8807133357211416E+00    1.0057308989915569E+01   -6.7734532828051277E+00
Br   -1.1264047579128379E+01   -9.2165659062996461E+00    9.7101559492573948E+00
Br   -8.4057713163303198E+00   -9.0878931950133151E+00    7.2639471427023530E+00
Cs   -1.1149523268864922E+01   -7.5362518309024429E+00   -6.0970525810178868E+00
Cs   -7.6002660524210901E+00    4.7759566493568393E+00   -6.1268614258255898E+00
Br   -8.2736998525286864E+00   -6.2065649267548988E+00    9.9619029596253075E+00
Cs    1.1379679666481042E+01    8.2187247305589715E+00    1.0614081023633227E+01
Br   -1.2007099585377674E+01    8.3991571074942737E+00    8.3198748464417172E+00
Br   -5.8512696821942081E+00   -2.9603128280070861E+00   -2.6552248193351149E+00
Cs    1.3540878357363910E+00    6.4435043902881983E-01    1.1938806327001965E+01
Cs    1.1504881235337782E+01    6.2745879661203894E+00   -2.8811083482606854E+00
Cs   -9.9689190986191818E+00   -8.9578645441321605E+00   -1.1487549477721737E+01
Cs    1.1674830403481394E+01    2.2966246070955845E+00    6.2767102537862680E+00
Cs   -1.3490938789750906E+01    9.8913857896484885E+00   -5.5997899047402511E+00
Cs    1.3126609218381427E+01   -9.4985680022099164E+00    6.4742594037926571E+00
Cs    5.6136450417018846E+00   -5.3384883249870967E+00   -1.1377063984555470E+01
Cs    8.1175789566133929E+00   -1.0502764114889247E+01    6.8466193178301769E+00
Cs   -5.4366261435684899E+00   -1.1504342564000348E+01    7.9995396863510171E-01
Cs    7.7422648399160510E+00   -1.2211501354444167E+01   -9.9602323460658138E+00
Cs    1.0132368790392276E+01    5.5454187217801936E+00   -7.8733833206723158E+00
Cs    1.0731598340440099E+01    1.2891765326014173E+01    4.4114231337506675E+00
Cs    1.0095667757808593E+01    5.5983309067384557E+00   -1.2958370910602051E+01
Cs    5.5349789178985409E-01   -5.6568275347457568E+00   -1.1844629848809618E+01
Cs   -1.2031826602992737E+01   -1.4466235961004736E+00   -5.9459516896364457E+00
Cs    6.7399768851063779E+00   -3.5339398330029570E+00    1.2370085592311623E+01
Cs    1.1302145636070524E+01   -4.6716423750417757E+00    5.8955067577816562E+00
Cs   -1.0283583612096612E+01   -1.1404524021661969E+01    1.4467392104861458E+01
Cs   -1.3131661824626286E+00   -5.0399578418492474E-01   -1.1594857190105580E+01
Cs   -8.1543709728124636E-01    1.2347436004598155E+01    5.5349084958110444E+00
Cs   -1.5064889045834486E+00    5.0731435633617572E+00   -1.2985531144823677E+01
Cs    6.2923728392236171E+00   -4.3940659893466955E-01   -6.0669418355156877E+00
Cs    6.7401855328305631E+00   -6.4522111412152565E+00   -5.0835272160611158E+00
Cs   -5.7675273743796849E+00   -1.1992051805454659E+01    7.6808302596805751E+00
Cs   -1.1883911810825165E+01   -8.1170818634238484E-01    5.7377953967633752E+00
Cs    5.6438804943386689E+00   -3.0159136659597047E-01   -1.1842681476133389E+01
Cs    5.3217173546562702E+00    1.0280120360333564E+01   -1.3407817091809854E+01
Cs   -1.4267458142379938E-01    6.3246747843180167E+00    1.1024221555037965E+01
Cs   -6.4665329741371051E+00    1.0424401581694250E+01    5.7791292490218158E+00
Cs    5.1089956066013276E+00    1.1695444325696256E+01   -8.2151251208693807E+00
Cs    5.5224705126354952E+00    5.9338236352422395E+00   -6.9464529310325620E+00
Cs    6.0746473381911521E+00    9.2586747806388214E-01   -9.6626424085774565E-01
Cs    6.4056120823097400E+00   -5.2590947937388899E+00    7.3696672175770572E-01
Cs    6.7517733174510175E+00   -1.1183955200812731E+01    8.3677347856219297E-01
Cs    4.2472437624867165E+00    5.2982030508178370E+00   -1.2588443687868539E+01
Cs   -6.0498344459151001E+00    5.2898971465961218E+00    5.4059805141270090E+00
Cs   -4.8710537494502715E+00   -6.6002321393090977E+00   -1.1071505566634006E+01
Cs    6.3083863277279351E+00    7.2401334852709835E+00   -1.0213301312229039E+00
Cs    5.5634064299111543E+00    5.8235412613080706E-01    6.4823242489772408E+00
Cs    6.6366155289984787E+00   -5.6549108385551774E+00    7.1081395482962382E+00
Cs   -5.2624971411365564E+00    1.1753887865373718E+01   -9.5541126099138030E-01
Cs    1.1903023572469086E+01    6.1727818529145850E-01   -5.4197718141895257E-01
Cs   -6.3918961345840071E+00   -1.3150292532123192E-01    9.2090926199431233E-01
Cs   -1.2407402779234921E+01    4.7758406382763701E+00    7.1866902011794149E+00
Cs   -4.8474851865499433E+00    4.3096415176176955E-01    1.1720497351095121E+01
Cs    5.8067039220631500E+00    1.1993691533391855E+01    4.3103032917541659E+00
Cs    5.3820515024838329E+00    6.9630538578258570E+00    4.8874051644398335E+00
Cs    6.5101133389354313E+00    1.7050144473058182E+00    1.1084166641210205E+01
Cs    5.4396344711351210E+00    1.1375013800409867E+01   -1.4143599443105423E+00
Cs    1.1148575462049726E+01   -7.6494731490118900E-02   -6.2384020772700639E+00
Cs    1.2263296476825527E+01   -5.4927965202766860E+00   -5.5879844431401784E+00
Cs    6.6827573085636240E+00   -8.7340769492739749E+00    1.3290911994115401E+01
Cs    1.0582347050430680E+01    1.2218570676284500E+01   -1.5079392134067637E+00
Cs   -1.0548804575576003E+01   -3.0813229063913455E-01    1.1764563017625909E+01
Cs   -7.4131288127230786E+00    4.7497797570809146E+00   -1.1725174935103057E+01
Cs   -1.0011198806637109E+01    1.3212310149750085E+01    2.3363554734640557E-01
Cs   -5.4142451918306049E+00   -5.1950213271331824E+00    1.2048626401549404E+01
Cs   -5.1076439960301494E+00   -1.0826890706668490E+01    1.2361289334599594E+01
Cs    6.6677968942318060E+00    7.7120808222989048E+00    1.0943401438929111E+01
Cs    1.1477825375442695E+01   -4.3942523534921474E+00    1.5025772204301974E-01
Cs   -1.1398124992989315E+01   -1.0648217205322392E+00   -2.6513115103501039E-01
Cs   -7.6266754495591531E+00    1.0582320734684830E+01   -1.2073924409231578E+01
Cs   -1.1056774576935899E+01    5.9709673022003313E+00   -3.5362414555521471E-01
Cs   -1.0359766422896490E+01   -1.4134003331944706E+01   -3.9098486738644476E+00
Cs   -1.1013139598562731E+01   -7.1732814088725600E+00    1.8946173704784055E+00
Cs   -5.1872700339760991E+00   -6.7468049240606263E+00    4.0600693363444784E-01
Cs   -1.1194169024170108E+01   -1.1337381219793027E+01    6.9788001799105412E+00
Cs    1.2402426775653053E+01   -3.1446051375336523E+00    1.2061097043931364E+01
Cs    1.2134654376491207E+01    7.1347714362003227E+00    5.8106954845017293E+00
Cs   -1.3725263171524487E+01    5.2884220531781754E+00   -4.5454158759559666E+00
Cs   -5.9055868062190413E+00   -3.4129590132118931E-01   -5.5023137284417682E+00
Cs   -1.1748584959507427E+01   -1.1596208741533701E+01    1.1546836755945771E+00
Cs    1.2130832246109977E+01   -6.6648067438431218E+00   -1.1075579141372694E+01
Cs   -6.0081067787764422E+00   -1.2495464184788426E+01   -1.1493342487910969E+01
Cs   -1.6129567009686121E+00    1.1334220726216188E+01   -1.1099037062885701E+01
Cs    1.0642927603276926E+00   -1.1725164207344472E+01   -1.1603859034775823E+01
Cs   -1.2330279434630056E+00    1.1007916703669107E+01   -6.9692352630520915E+00
Cs   -6.3582532827353919E+00    1.0972797335329275E+01    1.1016288040104506E+01
Cs    1.2207344451865456E+00   -1.2257055071749928E+01    1.0544980632350380E+00
Cs   -1.1755663039051745E+01   -1.8917267955733275E+00   -1.2440974924275753E+01
Cs   -1.1467295640220163E+01    1.0866699486947462E+01    5.8552419173760857E+00
Cs    8.8055208355547059E+00   -1.1933355576461423E+01   -4.6820990398023934E+00
Cs    1.0683875835543995E+01   -4.0596020387557269E-01   -1.3320364257668372E+01
Cs    1.5821388529767932E+00    1.2889152032773165E+01    1.1783836091009498E+01
Pb    3.3083537523489857E+00   -3.1691506012763604E+00   -2.6735629347316019E+00
Pb    3.6942341478931735E+00   -9.3467380746669146E+00   -2.7089620218653461E+00
Pb   -8.7825923972778686E+00   -3.1272148846237466E+00    3.2718639245769832E+00
Pb   -2.2532054693034769E+00   -9.7506523486568675E+00   -2.3724679369078703E+00
Pb    2.8419216148779225E+00    8.6147106907167306E+00   -4.0500623002409828E+00
Pb    2.4995401552052106E+00    2.5975644097009263E+00   -3.2731438196610299E+00
Pb    3.6027062361413527E+00   -2.6908380099007578E+00    3.2524040236253926E+00
Pb    3.8906625867430180E+00   -8.7358772578349573E+00    3.1265848905992399E+00
Pb   -3.1755379413966072E+00    9.1417885636881149E+00    2.3877314147018551E+00
Pb    2.9342272329720629E+00    9.1270018578815915E+00    2.3234800206721267E+00
Pb    2.7024296667154744E+00    3.1968888478422341E+00    2.4139653130344692E+00
Pb    3.5418394324888669E+00   -2.2194187620356365E+00    9.2275103070073818E+00
Pb    3.7222842545542125E+00   -8.1296342604301266E+00    9.5562772312735014E+00
Pb   -3.3702354621642274E+00    3.0823497937203097E+00    2.8916383148810465E+00
Pb    3.1140399353885968E+00    1.0031946094357702E+01    8.2265425590580623E+00
Pb    3.0602074772068200E+00    4.1203039048949863E+00    8.9480989125698684E+00
Pb   -2.6230211292768515E+00   -2.7385374932754845E+00    9.3889795995290370E+00
Pb   -8.1178008333523817E+00   -9.2336464078056935E+00    4.2746972347350960E+00
Pb   -9.7370987896783578E+00    2.6914071969736808E+00   -2.7984852055813496E+00
Pb   -2.9834698966431930E+00   -3.5842658974417669E+00   -8.5868464098908639E+00
Pb   -2.0233964067388936E+00   -9.3367922521003610E+00    3.3991861916914101E+00
Pb   -3.1116031310826573E+00    8.4825895071400890E+00   -3.6267175484524823E+00
Pb   -2.3388163175960370E+00   -8.9412593834349874E+00    9.6850715361185955E+00
Pb   -8.6818410787724574E+00   -3.5140888538374044E+00   -2.7853859326284356E+00
Pb   -8.5026267542993850E+00   -9.4710318910332543E+00   -1.6683574257804634E+00
Pb   -3.4370241823080225E+00    2.5279350402536345E+00   -3.0353298580416292E+00
Pb   -8.3506392884554241E+00   -9.1506770993734907E+00    1.0165158639185647E+01
Pb   -8.7121403807763524E+00   -5.2763889926552423E+00   -8.7225488422081323E+00
Pb    8.8675861698801306E+00   -2.9477321119098137E+00   -9.5473816193875987E+00
Pb    9.5907447884318398E+00   -8.7887640717470408E+00   -8.1759005248891974E+00
Pb   -2.4921450150016273E+00   -1.0106139667977692E+01   -8.4694735201517197E+00
Pb   -1.0298194027247039E+01    7.6519458842602690E+00   -8.8933846804069301E+00
Pb    2.9926258171724700E+00   -3.3394479086336881E+00   -8.5091432786322621E+00
Pb    3.4551705753295407E+00   -9.2379249328013362E+00   -8.9581783022427981E+00
Pb   -4.0083587811745165E+00    2.1659052662460154E+00   -9.2332697691935834E+00
Pb    1.6752498465208787E+00    8.4339456652450764E+00   -1.0030609767246077E+01
Pb    2.0677925547783347E+00    2.5676721662942885E+00   -9.2580698982607910E+00
Pb    9.2320822607397606E+00   -2.6241682951732592E+00   -3.1331028910439294E+00
Pb    9.5821626393032453E+00   -8.5498764085859733E+00   -2.3195221586640673E+00
Pb   -8.4152523179811922E+00   -3.1250799188031220E+00    9.4719760136394946E+00
Pb    7.8371633186415304E+00    8.7478251572461989E+00   -1.0584452838551538E+01
Pb   -9.9776486950891297E+00    1.6187968740519945E+00   -8.9230403137784506E+00
Pb   -3.0094554963112374E+00    9.0324912599241927E+00    8.2205018674836516E+00
Pb    8.6813776559312892E+00    9.3226554387819291E+00   -4.5372397020899209E+00
Pb    8.7233983492576002E+00    3.3498806460394674E+00   -3.8854555071698966E+00
Pb    9.5928276463048920E+00   -2.1762757071804355E+00    3.0035713935309132E+00
Pb    9.9896870579372550E+00   -8.1852916894338907E+00    3.6052877803610039E+00
Pb    7.9825076948498541E+00    2.7657110637140279E+00   -1.0255131510644182E+01
Pb   -2.7390343405058566E+00    3.1361492442019623E+00    9.0092406033134314E+00
Pb    8.7646309335807207E+00    9.6951093218460027E+00    1.8590845394094166E+00
Pb    8.8316894109028610E+00    3.8990179521820285E+00    2.1708130509226424E+00
Pb    9.5965806352177676E+00   -1.2036574710369696E+00    9.0897772509446870E+00
Pb    9.8331840989308859E+00   -7.2474950728821224E+00    9.7138359375617025E+00
Pb    9.0305094770050758E+00    1.0811959404183595E+01    7.5561299770138266E+00
Pb    8.9528470668475215E+00    4.8540823515056539E+00    8.5860135151069397E+00
Pb   -8.7232192302219680E+00    2.8227452246672526E+00    9.1997264765409241E+00
Pb   -2.7373625174099554E+00   -3.2949689567701914E+00    3.3856597797680070E+00
Pb   -9.4779645498551144E+00    9.0459833999448023E+00    2.3936202610131092E+00
Pb   -9.5460071578799433E+00    8.5647896774623558E+00   -3.3639435318510333E+00
Pb   -8.5070610761205465E+00   -1.1238873319370905E+01   -7.6037910410570744E+00
Pb   -4.2740537970198114E+00    7.8898440528291482E+00   -9.8159759839541518E+00
Pb   -9.4760768679106331E+00    2.9972305514014490E+00    3.1360506256233789E+00
Pb   -9.1424620307037525E+00    8.4774191444938083E+00    8.7114807416101421E+00
Pb   -2.9248880684719096E+00   -3.6830045720842524E+00   -2.7895564373388462E+00
Br    9.6787164946171567E-02   -3.1350712926684245E+00   -2.3576552463202196E+00
Br    2.8495279921797834E+00   -3.0952470251856274E+00   -5.5379956416073348E+00
Br    3.1906919957343027E+00   -1.0610478377090987E-01   -3.0346479104577244E+00
Br    4.4805466571836805E-01   -9.5246618226336643E+00   -3.0584299462185327E+00
Br    3.5062076456510924E+00   -9.3873334850231611E+00   -5.5099756231457917E+00
Br    3.9092868402792766E+00   -6.0777986710741052E+00   -2.4342039610068822E+00
Br   -2.9807694336227453E+00   -3.4614714161681888E+00   -5.6734511174567475E+00
Br   -8.5094272615771835E+00   -3.1477906566926563E+00    6.1662251228108254E+00
Br   -2.7021398394616734E+00   -5.5723462895817011E-01   -2.9149141355080803E+00
Br    3.8301909239498291E+00   -1.2246078527039867E+01   -2.6073708689590491E+00
Br    1.2304114648744722E+01   -1.9227123596234568E+00    2.1155861374507201E+00
Br   -5.5641283376364026E+00   -9.5514049983688167E+00   -2.0116310296780111E+00
Br   -1.1672156033238160E+01   -3.8590897798277282E+00    4.0315659257960137E+00
Br   -8.9449901813014296E+00   -3.2433971651441249E+00    2.7116475749109153E-01
Br    1.2585544619820851E+01   -7.6942918700650402E+00    3.3407962046911384E+00
Br   -2.0482756807321514E-01    8.3743168009784821E+00   -4.2327648137983145E+00
Br    2.7403737368461347E+00    8.5740221072576173E+00   -6.8699929094460179E+00
Br    2.8270651833378611E+00    1.2095695508197775E+01   -4.0795592998216508E+00
Br   -6.9773573651156084E-01    2.6976716983466069E+00   -3.3333258547688986E+00
Br    1.7290820719262678E+00    2.8703124781575764E+00   -6.2201341673133443E+00
Br    2.7353310469473961E+00    5.6323479791190998E+00   -3.2837073176999834E+00
Br    2.7661005590225934E-01   -2.7231806989124929E+00    3.2588148963956081E+00
Br    2.9755953316476598E+00   -3.0659423366487273E+00    4.9432449014653362E-01
Br    3.3661119711127774E+00    1.4255810935584820E-01    3.7271690791830383E+00
Br    8.9258951155099309E-01   -8.8027882055839974E+00    3.4884380819590035E+00
Br    3.3885703501702644E+00   -9.2070882972539128E+00    4.5468689116724181E-01
Br    3.8304747608282490E+00   -5.7845844922442442E+00    4.1578400514858957E+00
Br   -7.1050937024450018E+00    7.2501714122366314E+00   -9.4446125597847157E+00
Br   -4.4296797585336973E+00    7.9798196489587570E+00   -1.2801468651029278E+01
Br    4.5239789256212291E+00   -1.1408815699034360E+01    3.5555242668166658E+00
Br   -4.7120646782791464E+00    1.0744082831110925E+01   -1.0146614232308629E+01
Br   -4.2052031212755541E+00    4.9433945568276965E+00   -9.3390768825999260E+00
Br   -8.9289067741272525E+00   -2.0047378124149270E-01    3.2483563469007386E+00
Br   -2.7768384172740923E+00   -1.0290827668034515E+01   -5.2058505938741568E+00
Br   -6.3718721311870521E+00    8.9070961668694153E+00    2.2969799301490892E+00
Br   -3.0329744111221624E+00    8.7926601380213523E+00   -6.6451762665053904E-01
Br   -2.8115708425820403E+00    1.2236958022710475E+01    1.4435095168216938E+00
Br    6.0202141201657566E-02    9.7899620184261558E+00    2.2902979950194404E+00
Br    2.5543017192683655E+00    8.9397412395561577E+00   -9.5126333926902473E-01
Br    3.0963420256672460E+00    1.2085955876663499E+01    1.8014969878174636E+00
Br   -2.5261487133183846E-01    3.0200582473468587E+00    2.4757947270040286E+00
Br    2.0450359806922340E+00    2.2059184680276407E+00   -4.4676985551477483E-01
Br    2.5926529828636995E+00    6.3900678355774438E+00    2.0059690609202367E+00
Br    6.4758325485765900E-01   -2.7523215454372716E+00    8.8660906719352415E+00
Br    3.8998165613147222E+00   -2.1672869669392116E+00    6.1869559439339330E+00
Br    3.0313196930977275E+00    1.3113178298537154E+00    9.0532006772474780E+00
Br    4.8296398997728629E-01   -8.3220247626558752E+00    9.9076965275544673E+00
Br    3.7956777804465194E+00   -8.4933148501853921E+00    6.5947931243761193E+00
Br    3.5587399598263736E+00   -5.1035827444659967E+00    9.0830319626639344E+00
Br   -1.2086883264473473E+01    2.3963191825108732E+00    4.3448967800397913E+00
Br   -9.2792067930509692E+00    2.8066405315117078E+00    1.6043836858667623E-01
Br    4.1954970586318971E+00   -1.0949538981644524E+01    1.0433391205781383E+01
Br   -9.4635283065133127E+00    5.9548882198392681E+00    2.2965055667582241E+00
Br   -8.4872111404204365E+00    7.6729320581291017E-03    8.8540768819578393E+00
Br   -2.8948078739717520E+00   -6.6009876854309431E+00   -2.9307338657140996E+00
Br   -6.6493192384128976E+00    3.0114717327068177E+00    2.4947479140372182E+00
Br   -3.6220914609140369E+00    2.8978419006133080E+00    1.2482288086791847E-01
Br   -3.1619584418827293E+00    5.9549435560142783E+00    3.6240965724995076E+00
Br   -8.8542924542492657E-02    9.2759776381764336E+00    8.2044290130503317E+00
Br    3.0079029368726089E+00    9.6443605877186744E+00    5.1550095960437750E+00
Br    1.6580875520080025E+00    1.2789885542591449E+01    7.9172904733864851E+00
Br    1.6964748588987996E-01    3.7104220430066239E+00    8.7952729968539547E+00
Br    2.7304162862529378E+00    3.8475907108943903E+00    5.5850198111277436E+00
Br    2.9426906817336653E+00    7.0259858663092709E+00    8.0845496976818527E+00
Br   -5.6458689480051278E+00   -3.1935996089950129E+00    9.1134015855532162E+00
Br    4.0162353517396179E+00   -1.7145987595017562E+00    1.1946737658821220E+01
Br   -3.0761277369711868E+00   -3.2468966038245912E+00    6.3146047461121695E+00
Br   -2.7091034783537622E+00   -4.7076878699097248E-02    8.8060338365368835E+00
Br   -3.0935571816959988E+00   -1.2594617461715114E+01   -1.7293262980574389E+00
Br    3.5326297434821328E+00   -6.9238318458758750E+00    1.2551017473460533E+01
Br   -1.2413275552216279E+01    3.0574017036465260E+00   -1.9354902270659802E+00
Br   -1.3421893881591449E+00   -1.2183395698065290E+01    3.0461910908057312E+00
Br   -1.1635705418212298E+01   -3.2487198020650490E+00   -3.1916139597989241E+00
Br    2.7377519185883985E+00    9.6857271317316531E+00    1.1165327080702152E+01
Br   -8.9443809873947835E+00   -4.6483165269178510E+00   -5.5774929239787152E+00
Br   -8.6795498062675946E+00   -5.2200742174074899E-01   -2.5889924871995778E+00
Br    3.0623657469228731E+00    4.2374633920674585E+00    1.1812756462147291E+01
Br   -6.3915737228755107E+00    8.2281896750281920E+00   -3.3046004468085219E+00
Br   -3.7474475164531991E+00    8.5643590483552376E+00   -6.7860699009196228E+00
Br   -3.5668964239783087E+00    1.1173720369083012E+01   -4.0707621312837015E+00
Br   -6.4201776808845397E+00    2.8732058089900256E+00   -2.7999503190733832E+00
Br   -1.1332930814239591E+01   -9.7745765717758264E+00    3.8517154557890163E+00
Br   -3.3742115736069307E+00    1.8699470298422678E+00   -6.3877277879082488E+00
Br   -5.6590832173118590E+00   -4.5298153759504798E+00   -8.5565575205144810E+00
Br   -2.7807432701550425E+00   -3.7464522027022107E+00   -1.1484034313341104E+01
Br   -3.6928743475449122E+00   -7.9685869871934001E-01   -8.7123807868616261E+00
Br   -2.3849587843649034E+00    2.8242446199543565E+00    1.2056098373695212E+01
Br   -5.1986311787882249E+00   -8.9715498468374246E+00    9.6586299232188075E+00
Br   -1.7875514257569396E+00   -8.6955844781960749E+00    6.4840532378459006E+00
Br   -2.2780565435543663E+00   -5.6415206049121895E+00    9.5280520984577723E+00
Br   -8.2033972170611573E+00   -9.3522744689472326E+00    1.1228173522686939E+00
Br   -8.1345826781088650E+00   -6.3465175160887615E+00    4.0945164900254492E+00
Br   -8.8201535115859393E+00    9.1105888177541647E+00    1.1451824587363545E+01
Br    1.1505026648567979E+01    1.0611249519223286E+01    1.1031758666464937E+00
Br   -8.4042864984262362E+00   -8.8754406583008478E+00    1.3016614555011270E+01
Br    1.1532158941791154E+01    9.4873325687551731E+00   -4.2538726928906421E+00
Br    1.1669674676813058E+01    3.5544246377899662E+00    1.8903043829428468E+00
Br   -8.2296906037377049E+00    2.0292354436995721E+00    1.2265261730687872E+01
Br   -1.1680092796113442E+01   -5.0112762101320403E+00   -8.9102774437747900E+00
Br    1.2337408128235412E+01   -2.3449015469706477E-01    9.0489557009405193E+00
Br   -4.9451150135622735E+00   -9.4070905251175212E+00    3.8606515273165929E+00
Br    5.9904498258082519E+00   -3.0928157693262697E+00   -8.5840621962604740E+00
Br    7.6866742096329714E+00   -2.7202932115876259E+00   -1.2130239552188703E+01
Br    1.2540112579053353E+01   -6.7994595207688340E+00    9.0221604385223984E+00
Br    7.8393019943011346E+00    1.3507402313828665E-01   -9.4478839885666392E+00
Br   -7.9387692946686697E+00   -1.1950876887513862E+01    1.0673658865559720E+01
Br   -2.3826480495105433E+00   -8.9773527368217501E+00    2.8473677560922400E-01
Br   -2.4210206929865006E+00   -6.5146325893836075E+00    3.7743490448013173E+00
Br    6.6005449571993307E+00   -8.8314810336071297E+00   -8.6939954948792550E+00
Br   -5.5554182478833800E+00   -1.0722380230170739E+01   -8.4778851369596619E+00
Br    9.7067470865535714E+00   -9.3500095925640565E+00   -1.1078657829150549E+01
Br    9.9826504047764892E+00   -5.9032233486375114E+00   -8.9673406974518777E+00
Br   -2.8844490919287891E+00   -1.1846625723741248E+01    9.2399338490386267E+00