 # Version information for this restart file 
 # current date 2021-06-17 12:34:51.947
 # current working dir /user/ub2042/exercises/2_fitting/MM_MD_workdir/md_settings
 # Program compiled at                              Thu Apr 22 21:44:59 EDT 2021
 # Program compiled on                cpn-k07-07-02.compute.cbls.ccr.buffalo.edu
 # Program compiled for                                                    local
 # Source code revision number                                       git:36754bb
 &GLOBAL
   PRINT_LEVEL  LOW
   PROJECT_NAME cp2k
   RUN_TYPE  MD
 &END GLOBAL
 &MOTION
   &MD
     ENSEMBLE  NVT
     STEPS  10000
     TIMESTEP     2.4999999999999996E+00
     STEP_START_VAL  9500
     TIME_START_VAL     2.3749999999995998E+04
     ECONS_START_VAL    -1.3925666412857368E+01
     TEMPERATURE     3.0000000000000000E+02
     &BAROSTAT
       PRESSURE     1.0100000000000000E+00
       TIMECON     9.9999999999999982E+03
     &END BAROSTAT
     &THERMOSTAT
       TYPE  CSVR
       &CSVR
         TIMECON     9.9999999999999982E+03
         &THERMOSTAT_ENERGY
              -3.0148057902308523E-01
         &END THERMOSTAT_ENERGY
         &RNG_INIT
Wiener process for Thermostat # 1        1 F T F   4.8452024352072653E-01        1792175538.0        2267216916.0         572611013.0          57475850.0        4020803938.0        1984946838.0             12345.0             12345.0             12345.0             12345.0             12345.0             12345.0             12345.0             12345.0             12345.0             12345.0             12345.0             12345.0
         &END RNG_INIT
       &END CSVR
     &END THERMOSTAT
     &AVERAGES  T
       &RESTART_AVERAGES
         ITIMES_START  1
         AVECPU     1.7904359598840125E-02
         AVEHUGONIOT     0.0000000000000000E+00
         AVETEMP_BARO     0.0000000000000000E+00
         AVEPOT    -1.4245585855804705E+01
         AVEKIN     4.8276056094914804E-01
         AVETEMP     2.4488923077131716E+02
         AVEKIN_QM     0.0000000000000000E+00
         AVETEMP_QM     0.0000000000000000E+00
         AVEVOL     6.7483345830912264E+06
         AVECELL_A     1.8897261328855686E+02
         AVECELL_B     1.8897261328855686E+02
         AVECELL_C     1.8897261328855686E+02
         AVEALPHA     9.0000000000000000E+01
         AVEBETA     9.0000000000000000E+01
         AVEGAMMA     9.0000000000000000E+01
         AVE_ECONS    -3.8316919535501626E+00
         AVE_PRESS     0.0000000000000000E+00
         AVE_PXX     0.0000000000000000E+00
       &END RESTART_AVERAGES
     &END AVERAGES
     &PRINT
       &ENERGY  SILENT
         &EACH
           MD  10
         &END EACH
       &END ENERGY
     &END PRINT
   &END MD
   &PRINT
     &TRAJECTORY  SILENT
       &EACH
         MD  10
       &END EACH
     &END TRAJECTORY
     &CELL  SILENT
       &EACH
         MD  10
       &END EACH
     &END CELL
     &VELOCITIES  SILENT
       &EACH
         MD  10
       &END EACH
     &END VELOCITIES
     &FORCES  SILENT
       &EACH
         MD  10
       &END EACH
     &END FORCES
     &RESTART  SILENT
       &EACH
         MD  10
       &END EACH
     &END RESTART
   &END PRINT
 &END MOTION
 &FORCE_EVAL
   METHOD  FIST
   &MM
     &FORCEFIELD
       VDW_SCALE14     1.0000000000000000E+00
       EI_SCALE14     1.0000000000000000E+00
       SHIFT_CUTOFF  T
       DO_NONBONDED  T
       IGNORE_MISSING_CRITICAL_PARAMS  T
       &SPLINE
         R0_NB     2.5000000000000000E-01
       &END SPLINE
       &NONBONDED
         &LENNARD-JONES
           ATOMS Br Br
           EPSILON     1.2630795322675199E+02
           SIGMA     3.6900000000000004E+00
         &END LENNARD-JONES
         &LENNARD-JONES
           ATOMS Cs Pb
           EPSILON     8.6920055954630968E+01
           SIGMA     3.6699999999999999E+00
         &END LENNARD-JONES
         &LENNARD-JONES
           ATOMS Cs Cs
           EPSILON     2.2644852172126850E+01
           SIGMA     4.5300000000000002E+00
         &END LENNARD-JONES
         &LENNARD-JONES
           ATOMS Pb Pb
           EPSILON     3.3363415533600227E+02
           SIGMA     6.1000000000000005E+00
         &END LENNARD-JONES
         &LENNARD-JONES
           ATOMS Br Cs
           EPSILON     5.3481070753900497E+01
           SIGMA     3.6300000000000003E+00
         &END LENNARD-JONES
         &LENNARD-JONES
           ATOMS Br Pb
           EPSILON     2.0528187276773045E+02
           SIGMA     2.9800000000000000E+00
         &END LENNARD-JONES
       &END NONBONDED
       &CHARGE
         ATOM Cs
         CHARGE     4.1739999999999999E-01
       &END CHARGE
       &CHARGE
         ATOM Pb
         CHARGE     8.3479999999999999E-01
       &END CHARGE
       &CHARGE
         ATOM Br
         CHARGE    -4.1739999999999999E-01
       &END CHARGE
     &END FORCEFIELD
     &POISSON
       PERIODIC  XYZ
       &EWALD
         EWALD_TYPE  SPME
         GMAX  62 62 62
         O_SPLINE  4
       &END EWALD
     &END POISSON
     &PRINT
       &FF_INFO  LOW
         SPLINE_INFO  F
         SPLINE_DATA  F
       &END FF_INFO
     &END PRINT
   &END MM
   &SUBSYS
     &CELL
       A     1.0000000000000001E+02    0.0000000000000000E+00    0.0000000000000000E+00
       B     0.0000000000000000E+00    1.0000000000000001E+02    0.0000000000000000E+00
       C     0.0000000000000000E+00    0.0000000000000000E+00    1.0000000000000001E+02
       PERIODIC  XYZ
       MULTIPLE_UNIT_CELL  1 1 1
     &END CELL
     &COORD
Cs   -3.4125222457225535E-01   -1.2310725787233909E+00   -5.9782587748839600E+00
Cs    7.4458452448485812E-01   -6.9652846915528697E+00   -4.7533125687201094E+00
Cs    1.5342141259406932E+00   -1.3728656691330386E+01   -4.7130835784274741E+00
Cs   -5.3683074160626756E+00   -7.7501120787881295E+00   -4.6053361958869372E+00
Br   -7.5347421058899746E+00   -1.4860729142566502E+01   -5.1603244729214905E+00
Br    1.1649174635167768E+01   -4.4679921937584703E+00   -9.4565757543214559E+00
Br   -3.4476999408080164E+00    7.1920079454695651E-01   -1.1673167458348740E+01
Cs   -2.0686453460429761E+00    4.0653778256210140E+00   -6.8242138058446562E+00
Cs    4.7964504174737782E-01    2.7303083393249661E-01    1.4282339947250550E-01
Cs    1.2420699347285884E+00   -6.4573706496148793E+00    4.8121710347859264E-01
Br   -5.0686712085277268E+00   -3.0295291679611016E+00    4.6541179907956698E+00
Cs   -1.1634713473594184E+01   -4.7411863928635603E+00    1.3182003889480344E+01
Cs    1.3016253828758645E+01   -9.0520050763817927E+00   -1.9862259565402826E-01
Cs   -7.1929214886228108E+00    4.4995007225380315E+00   -1.7366589883995422E+00
Cs   -3.6553537246904018E+00    1.2405825707121965E+01   -2.1817384019432646E+00
Cs   -1.5270722979052207E+00    5.4877176429986356E+00   -1.8807969574882102E+00
Cs    1.1282375567030714E+00    9.2025986086047096E-01    6.6437613143519823E+00
Cs    1.5084507543900383E+00   -4.5645696616365763E+00    5.7994913155296910E+00
Cs    2.4785595156204896E+00   -9.2240504170332187E+00    7.5772253120849093E+00
Cs   -6.3697988792108315E+00    6.6058397613863526E+00    1.1259119075555994E+01
Cs   -7.5623121132524780E+00   -3.4129724854366783E+00   -1.1141989747107447E+01
Cs   -4.4026135458985722E+00   -1.3339417945208899E+01   -2.6878062612719655E+00
Cs   -5.2147976842522183E+00   -3.8508569584136693E-01    7.3102038385438730E+00
Br   -2.7605618978888109E+00   -2.7099212584034715E+00    8.1087554485137825E-01
Cs   -5.2346517631169476E-01    7.6824266108383021E+00    4.4197112267691177E+00
Br    1.1690650999883848E+01   -8.5014093015404697E+00   -1.0335993398042181E+01
Cs    2.6024784399175314E+00   -3.7019191645223302E+00    1.2761590370414549E+01
Br   -2.7393997809015160E+00    3.2090561282771812E-01    3.2071370803627932E+00
Br   -6.9570936362889961E+00   -2.6734595320141388E+00    1.3530190157877708E+01
Cs    1.0554888611428400E+01    1.0437834103955042E+01   -8.3311267835428957E+00
Cs   -9.0853287388264548E+00   -6.6361214792618703E+00    8.9683050445729009E+00
Cs   -2.7864724870047737E+00   -5.7651082210150628E+00    7.8671639727145104E+00
Cs   -8.2638983915496897E+00    8.5391935297675943E+00   -7.3438275787408394E+00
Br   -9.4818827826237104E+00   -8.2244718665102905E+00    1.2988613695962758E+01
Br   -6.7042159449798486E+00   -8.9680085533002121E+00    9.0199173560907528E+00
Cs   -1.0310175280696036E+01   -8.5792324770034298E+00   -3.1801191061816803E+00
Cs   -6.8150078561844056E+00    3.1895358483125014E+00   -6.3758904452367426E+00
Br   -6.5783356584811132E+00   -5.7741395285798776E+00    1.1483970619396368E+01
Cs    1.0690159291047749E+01    9.9552488341037311E+00    9.4041967731645766E+00
Br   -1.2675471323531832E+01    6.7561997252957413E+00    7.6314014894810658E+00
Br   -5.6346270119061703E+00   -4.1559100641837370E+00   -1.7442827394689882E+00
Cs    1.5343925021836269E+00    1.8653879208547310E+00    1.1595300031417517E+01
Cs    1.0020703334014701E+01    7.4596572198516400E+00   -2.4642478554259006E+00
Cs   -1.1521273323722973E+01   -9.8039217563853107E+00   -9.2247320678682492E+00
Cs    1.1949051625808030E+01    2.8132090155648157E+00    5.3885802509272835E+00
Cs   -1.3073730475477259E+01    8.7165968579085842E+00   -7.3937243811903590E+00
Cs    1.4254711547130606E+01   -7.8765727076104577E+00    5.6665801481070970E+00
Cs    5.0290537988076176E+00   -6.3875685739320751E+00   -1.0860216266220295E+01
Cs    9.6317546045670763E+00   -8.7968378925829072E+00    7.2510689709287384E+00
Cs   -3.2922277537556139E+00   -1.3164115748132460E+01    2.0328721218025025E+00
Cs    7.0838246127971205E+00   -1.2780523529503739E+01   -1.0293709548823632E+01
Cs    9.9061591634119086E+00    5.6483936484845563E+00   -8.0572035026258035E+00
Cs    8.7965191780469905E+00    1.4474881519311829E+01    2.3453050425266806E+00
Cs    1.0428331772582037E+01    5.1895285110780387E+00   -1.2633609377790265E+01
Cs   -2.1780955397666758E-02   -7.6440226192204834E+00   -1.0766820572766415E+01
Cs   -1.1616142398741731E+01   -2.4555237693059486E+00   -4.9468242322883524E+00
Cs    8.0337058320896997E+00   -2.9925906903520691E+00    1.1598444826068887E+01
Cs    1.3161530903573542E+01   -2.9007758495983742E+00    5.0808601906416371E+00
Cs   -8.2677029446847801E+00   -8.9453061810434154E+00    1.6305189381228644E+01
Cs   -9.2287829355575457E-01   -2.8283657287626931E+00   -1.1232727500587844E+01
Cs   -1.4607423368408643E+00    1.2334643887034954E+01    4.0114109354150287E+00
Cs   -1.1678564090948900E+00    3.8471575273370995E+00   -1.1999174786537989E+01
Cs    4.6484799790241427E+00   -5.8007171081751918E-01   -6.0376688900346034E+00
Cs    5.7610714813166837E+00   -5.5368221311095986E+00   -5.6635801468798617E+00
Cs   -2.8310349286239949E+00   -1.1539056937959325E+01    8.3876063375547449E+00
Cs   -1.1124682265188188E+01   -8.8043080262608742E-01    6.5997242503426587E+00
Cs    5.5578273228616766E+00   -1.0077885923873968E+00   -1.1945019260328754E+01
Cs    4.4857282722877141E+00    8.4846455729232364E+00   -1.5338555013676675E+01
Cs   -4.8135576950323755E-01    8.1352555190804683E+00    9.6093018066614011E+00
Cs   -8.5499797878522621E+00    1.0374877402826133E+01    3.9115130006095336E+00
Cs    3.9543676075739267E+00    1.1415929162147156E+01   -8.5906047740907532E+00
Cs    4.4324984974917063E+00    5.9535876733364246E+00   -6.9172888804497381E+00
Cs    6.7560226689010010E+00    1.0236811864459132E+00   -3.7201401723711464E-01
Cs    7.0949539786361147E+00   -5.2421950966036315E+00   -7.3513301693028540E-02
Cs    8.0976945117005705E+00   -1.0157093072354844E+01    1.2410525305092124E+00
Cs    5.2722871657698205E+00    4.8045230471416440E+00   -1.2944375353667972E+01
Cs   -6.4697759739873648E+00    5.4723404952208670E+00    5.2490127476328912E+00
Cs   -5.6993048841679661E+00   -9.2925650556607025E+00   -1.0250768694766075E+01
Cs    5.6187341802835062E+00    7.2266703008272577E+00   -1.6065857807098782E+00
Cs    6.2439736539946900E+00    2.1832854169021836E+00    5.3240328242859718E+00
Cs    7.9549077660812255E+00   -3.8209529829494664E+00    6.5101365245628617E+00
Cs   -8.7076076766670472E+00    9.2986799127587503E+00   -1.5729232060149543E+00
Cs    1.1080607096225243E+01    2.6358775302238731E+00   -1.9176875353302536E-01
Cs   -4.9693796223078150E+00   -5.2155303359818528E-01   -5.7473240576476084E-02
Cs   -1.1524648880052332E+01    4.2843574758558489E+00    6.2858062591361303E+00
Cs   -5.2409618505645321E+00    1.3898138296410616E+00    1.1829557938279613E+01
Cs    4.0177494839880508E+00    1.2950892006158231E+01    3.6089475463547744E+00
Cs    5.7701017246017408E+00    8.4826823390657040E+00    4.9985428339213067E+00
Cs    6.4827503390660928E+00    3.5820983836255293E+00    1.0053345708461503E+01
Cs    2.9577119303094155E+00    1.3156393476956238E+01   -1.9989307408386765E+00
Cs    1.1404028174958077E+01    1.3561657801049820E+00   -6.0117433026082656E+00
Cs    1.1490604900551919E+01   -5.2063616276766576E+00   -6.1980722267518358E+00
Cs    8.9306791385029456E+00   -7.1060159950396491E+00    1.2788986448783779E+01
Cs    9.2649862601115363E+00    1.3046683839307809E+01   -2.8925283279685825E+00
Cs   -1.1228497280219850E+01    5.5810792371338040E+00    1.1499019791339844E+01
Cs   -6.6406276326781564E+00    1.9056173730397437E+00   -1.1946949012581575E+01
Cs   -1.4771706872657070E+01    9.2444247614526844E+00   -3.5536930642010148E-02
Cs   -3.6629582903779521E+00   -3.9170699601453296E+00    1.3792801780699975E+01
Cs   -2.5809764844426422E+00   -1.0457887939072009E+01    1.3479482456261911E+01
Cs    4.7131451034225700E+00    9.4467731194500519E+00    9.8898192565416245E+00
Cs    1.2320450799163680E+01   -4.0179385714937252E+00   -1.1103656351451119E+00
Cs   -1.0863315390521587E+01   -2.2579203110388506E+00    5.4754253828715793E-01
Cs   -8.3473999945442490E+00    9.6175117187073553E+00   -1.1678811579371509E+01
Cs   -1.2406682815096540E+01    2.9092607468097591E+00    5.9291943352814280E-01
Cs   -1.0065194848230004E+01   -1.3939498544257571E+01   -2.8962833519241262E+00
Cs   -1.0463497056503707E+01   -7.3959853656392331E+00    2.8481941282701779E+00
Cs   -4.6139487330178435E+00   -5.7253448267081195E+00    1.6092577109410942E+00
Cs   -9.6932040970133411E+00   -1.1697885491893881E+01    9.8926368500506960E+00
Cs    1.3341517474192271E+01   -2.2696166782075773E+00    1.0939717013917504E+01
Cs    1.0755670740817539E+01    8.9140004210448396E+00    4.2856556063388664E+00
Cs   -1.2257076621753232E+01    3.2751916138205117E+00   -6.7676750689885123E+00
Cs   -6.7702470350177544E+00   -2.3394051703420202E+00   -5.0277041969117828E+00
Cs   -8.9547548249631479E+00   -1.3521640638094901E+01    4.4853271492355473E+00
Cs    1.0218983041686013E+01   -6.4260436356434587E+00   -1.2544332010127263E+01
Cs   -4.6700870392823450E+00   -1.4364412560934362E+01   -9.6586456469322588E+00
Cs   -1.4036138401252012E+00    8.4886234639667837E+00   -1.4064289466416867E+01
Cs    4.1810421850170582E-01   -1.2752933515685708E+01   -9.8718079497076463E+00
Cs   -3.0812525764781720E+00    1.0452815910054801E+01   -7.6046576408062361E+00
Cs   -7.4550817170493042E+00    1.1031484655564434E+01    1.0899753194592389E+01
Cs    2.1817027280647205E+00   -1.1363939257294392E+01    2.7102944896252446E+00
Cs   -1.3164216307929545E+01    2.1687409145793244E+00   -1.3144599546775158E+01
Cs   -1.3555523734179941E+01    9.4214104738052349E+00    5.3824692508341556E+00
Cs    7.4119211481136844E+00   -1.1068990722207820E+01   -4.6449406016954162E+00
Cs    1.2398827168522882E+01   -1.0348378935286608E+00   -9.7448520610237228E+00
Cs   -2.6120008575358131E+00    1.4225166632235394E+01    8.8111951338181331E+00
Pb    3.4406818949390452E+00   -3.1258340928626742E+00   -2.7577697771315410E+00
Pb    4.4057240701761478E+00   -9.0246498706825378E+00   -2.0319363499974599E+00
Pb   -7.8531102785856772E+00   -4.0762020487297725E+00    5.1124336747551560E+00
Pb   -1.7804214475845550E+00   -1.0211202169391418E+01   -8.2592966209884577E-01
Pb    7.1071580794721212E-01    9.3225976641647712E+00   -4.9214441840405136E+00
Pb    1.9071243536164983E+00    2.9546431209778650E+00   -4.1131805908307468E+00
Pb    3.6013745205509378E+00   -1.6854967964533292E+00    3.1295527955402132E+00
Pb    5.3226543776816087E+00   -7.7348067870585897E+00    3.8442396992650316E+00
Pb   -4.7775831340347734E+00    9.3469805984105019E+00    1.5722440496823200E+00
Pb    1.4414105248901603E+00    9.8397549915792570E+00    1.0531314326686223E+00
Pb    2.4865513735720994E+00    4.0928950558526358E+00    1.8520035894174782E+00
Pb    4.7064238799307043E+00   -8.0031322195336674E-01    8.9248007426419669E+00
Pb    6.1296589502148269E+00   -6.6600357337240768E+00    9.9178637399764931E+00
Pb   -3.3207397322420298E+00    3.2643683183111101E+00    2.4893745375469551E+00
Pb    1.7137798733394287E+00    1.1447767957449033E+01    7.1687182097253324E+00
Pb    3.1830238802237658E+00    5.2456967865453574E+00    7.7105443358904555E+00
Pb   -1.1564710678580072E+00   -1.8013105958906810E+00    1.0018865698823278E+01
Pb   -7.0277327671056726E+00   -1.0022759877929506E+01    5.4366880356990528E+00
Pb   -9.6543902341998660E+00    7.7366944966008289E-01   -2.6601359806579623E+00
Pb   -3.2741328569791350E+00   -5.0139012898476398E+00   -7.8957480089144783E+00
Pb   -1.0163282423237940E+00   -8.7656263781383803E+00    4.7711154122678083E+00
Pb   -4.8013690902447426E+00    7.9688450096913641E+00   -4.0125826678997019E+00
Pb   -1.6423784961944052E-01   -8.2647411193814815E+00    1.0770038795094610E+01
Pb   -8.5679151104702651E+00   -5.1379830571613656E+00   -1.1356044120149531E+00
Pb   -7.7202335118748131E+00   -1.0929441058629607E+01   -2.8353433641401149E-01
Pb   -3.7453113485528955E+00    1.6627664278913741E+00   -3.0826400491243726E+00
Pb   -6.4029322384192389E+00   -8.7262619403337531E+00    1.2321710736054865E+01
Pb   -8.9634879867750197E+00   -6.1951809274993188E+00   -7.2922318889685611E+00
Pb    8.5407523886987811E+00   -3.5922322026346727E+00   -9.2586881470531015E+00
Pb    9.3425518121131255E+00   -9.4804497500466365E+00   -9.1385942231841000E+00
Pb   -2.2014457161025862E+00   -1.0938347804866991E+01   -6.8254774966185181E+00
Pb   -1.0615928443998779E+01    5.9072178328101739E+00   -1.0667248873347694E+01
Pb    2.5503163222769154E+00   -4.0706401186212533E+00   -8.6866749609901550E+00
Pb    3.5052315910507241E+00   -1.0276298307395217E+01   -8.0199424482398189E+00
Pb   -3.6673781012008893E+00    1.0297629937454769E+00   -8.9137469781054950E+00
Pb    1.3337714661052080E+00    7.9492449198170645E+00   -1.0856293920437350E+01
Pb    2.0822073460407053E+00    1.9565580178219732E+00   -9.9466633558759057E+00
Pb    9.5381292792189090E+00   -1.9983476096143984E+00   -3.5125865783605827E+00
Pb    1.0279322957656843E+01   -7.9599740010904663E+00   -3.0500011054531022E+00
Pb   -7.6144587557823389E+00   -2.9656698662705914E+00    1.0782087411585042E+01
Pb    7.2837690341273937E+00    8.6196524884211598E+00   -1.1780696764656813E+01
Pb   -9.9267275599532425E+00   -3.3663379078077615E-01   -8.7615299405486482E+00
Pb   -4.1857502782115263E+00    9.7907203407901378E+00    7.7240900055943094E+00
Pb    7.1671509404851701E+00    9.6964663050081921E+00   -5.2820155111393561E+00
Pb    8.1453858276985311E+00    4.0377613549857152E+00   -4.2819653510410376E+00
Pb    9.6010578379673781E+00   -8.2053073613188043E-01    2.4087769189995285E+00
Pb    1.1158604967098896E+01   -6.6386030683084059E+00    3.0087509286776850E+00
Pb    8.4342333112656451E+00    2.2387596286922338E+00   -9.7607127642099751E+00
Pb   -2.7541574048370041E+00    3.9448394603599324E+00    8.3700815118017893E+00
Pb    7.1060287801757633E+00    1.1034866469666985E+01    5.8844437218700096E-01
Pb    8.1650138816835511E+00    5.0246019071425438E+00    1.9156840744071826E+00
Pb    1.0429880040395686E+01    2.2561301795619124E-01    8.4253287964148367E+00
Pb    1.2046879761525251E+01   -5.7641309478973168E+00    9.4989231536885441E+00
Pb    7.9847182653342141E+00    1.2235580445400291E+01    6.5922510225749491E+00
Pb    8.9920695036723579E+00    6.1640091069444152E+00    8.0780497102929747E+00
Pb   -8.5774553401256348E+00    2.7719518456108592E+00    9.1733854647774535E+00
Pb   -2.1896514950749819E+00   -2.6286585576368311E+00    3.8948912663712836E+00
Pb   -1.0522966708475103E+01    7.0805885293882795E+00    1.9083232094859464E+00
Pb   -1.1202079464744687E+01    6.4608167690351301E+00   -4.3886149931924630E+00
Pb   -7.8607898429453797E+00   -1.1837493294853687E+01   -6.1994591815316182E+00
Pb   -4.5540464000838590E+00    6.6392313258968256E+00   -1.0482696607990992E+01
Pb   -8.8751644030316310E+00    1.3637755309730559E+00    3.1039439424561013E+00
Pb   -9.8084898397842650E+00    8.3453446687431043E+00    7.9670882000362253E+00
Pb   -2.5907598804329592E+00   -3.9312400424104061E+00   -2.0243430710861401E+00
Br    4.6429659262970424E-01   -3.0142298644730880E+00   -2.4275631681030387E+00
Br    2.8141979378641206E+00   -3.6634714516502052E+00   -5.8635121966955550E+00
Br    2.5323612371137152E+00    1.1966861953811372E-02   -3.4944374809150607E+00
Br    9.2911214745099957E-01   -9.2016297846086648E+00   -1.3963095032259032E+00
Br    3.7688250245266728E+00   -9.9844144093651774E+00   -4.8029370669372184E+00
Br    3.5180032098496845E+00   -6.1909835380343532E+00   -2.7036839917740947E+00
Br   -3.0831522494456025E+00   -5.1462676537346805E+00   -4.7598197202972479E+00
Br   -7.3882827532290865E+00   -3.8312769154507711E+00    7.9491950054318510E+00
Br   -3.1363396056857504E+00   -1.1146557785715101E+00   -2.6188096792754880E+00
Br    5.9742417663365703E+00   -1.1175628446888714E+01   -1.2204925685897299E+00
Br    1.2124580668356160E+01   -6.2199407986650157E-01    1.8954505760932847E+00
Br   -4.4420598611857374E+00   -1.0935859933697730E+01   -7.5757214216499724E-01
Br   -1.0409467189487625E+01   -4.9900549208768812E+00    5.8906481991866420E+00
Br   -7.8689430426150659E+00   -4.9162773264805013E+00    1.9431510452769380E+00
Br    1.4108405438171300E+01   -6.7389902724707040E+00    2.2610400491646865E+00
Br   -1.9683080592565176E+00    8.3565959866152308E+00   -4.0462531994993647E+00
Br    1.2981648942992228E+00    9.0400911280201601E+00   -8.2962454937944301E+00
Br   -8.7049275416856409E-01    1.1858134225828172E+01   -5.4245713378355189E+00
Br   -9.4755535476711750E-01    2.0999623072098763E+00   -3.4183484805448239E+00
Br    2.6569828711626200E+00    2.6962855671856065E+00   -6.8364868078636416E+00
Br    4.5820861581639244E-01    5.3654331920107889E+00   -5.0317203352011104E+00
Br    6.4219432228063955E-01   -2.6122541666345103E+00    3.3734895931776605E+00
Br    3.1097987416669302E+00   -2.0013618513007412E+00   -8.1825679104432530E-02
Br    2.8699234328073620E+00    1.3347140692541954E+00    3.1120494494677122E+00
Br    2.1876777891246864E+00   -8.1391057475524224E+00    4.0202970348098210E+00
Br    4.7374449381012935E+00   -8.0700792339469398E+00    7.2285134797855233E-01
Br    4.3382458112786084E+00   -4.7101463396791416E+00    3.3642992804419212E+00
Br   -7.8851213583486688E+00    6.4046609241440642E+00   -1.0421420778334877E+01
Br   -3.3570487999426946E+00    6.1246285193134744E+00   -1.2948187674881428E+01
Br    5.3983869674278875E+00   -1.0622423205588527E+01    3.7710658387267579E+00
Br   -5.3509730836176495E+00    9.4517168801538478E+00   -1.0511061122430743E+01
Br   -4.6137283207517621E+00    3.7155349966583047E+00   -9.1617939387214946E+00
Br   -8.6891259430157923E+00   -1.3185418915142053E+00    3.7217028631684244E+00
Br   -2.0060228312440311E+00   -1.0230033150762644E+01   -3.7415581479999633E+00
Br   -7.7957653341558064E+00    8.1534618971843180E+00    1.0962951702816890E+00
Br   -5.0562818747069631E+00    8.8251055516639152E+00   -1.3275780178153660E+00
Br   -6.0863533187092429E+00    1.1690296962513846E+01    1.4196388015959482E+00
Br   -1.7492642395830982E+00    9.6233398912719945E+00    1.4023868916300199E+00
Br    1.5631976531708096E+00    1.0021909397361959E+01   -1.9197325517164689E+00
Br    5.7678378879899350E-01    1.2342646050256999E+01    4.8439842363339847E-01
Br   -4.2704498244323663E-01    3.7506755358025310E+00    1.4322450904868300E+00
Br    2.4645434626853211E+00    3.9762082033015407E+00   -1.1799463037156348E+00
Br    2.2846002787200130E+00    6.8922456889026051E+00    2.0584959742015756E+00
Br    1.7208945145500676E+00   -1.4909611891775831E+00    9.3116245400107562E+00
Br    3.8341952434713611E+00   -1.1446489477851265E+00    6.1401139917148226E+00
Br    4.0022761590940732E+00    2.3690652761411877E+00    8.0078410065499632E+00
Br    3.1609802502568067E+00   -7.1235550023721963E+00    1.0177552146361414E+01
Br    5.3037597359814397E+00   -7.0726408544227066E+00    6.6442883482678159E+00
Br    5.6466264837702562E+00   -3.6436427507876208E+00    9.2435303195236962E+00
Br   -1.1639957460447276E+01    1.1116416675122254E+00    3.4090330185968778E+00
Br   -8.7920869796656724E+00    6.8767230698511017E-01    2.1802458369919223E-01
Br    7.3327246409808815E+00   -8.9829737064775568E+00    1.0650337552924881E+01
Br   -9.5880215951955066E+00    4.3079391036022310E+00    2.4193841764305106E+00
Br   -8.3055820349055764E+00   -3.7437982664331437E-01    1.0007864650325333E+01
Br   -2.4057586776427788E+00   -6.5556860835593040E+00   -9.6845408057271420E-01
Br   -6.1525091213378396E+00    2.5490391845198213E+00    3.3876381018707238E+00
Br   -3.8150253251495148E+00    2.4293720752483399E+00   -1.8995989920556292E-01
Br   -3.6881538891297470E+00    6.0658888381967078E+00    2.0297398789500356E+00
Br   -1.6318616175848513E+00    9.9496711775876889E+00    6.9488674550412020E+00
Br    1.6130538521189353E+00    1.0915012948924529E+01    3.9645866165038295E+00
Br    3.4605270811721420E-02    1.3766474040175169E+01    6.6523440015503157E+00
Br    2.8268083423888779E-01    4.2323577132752730E+00    8.5925648620125674E+00
Br    2.6255918986538380E+00    4.5957809008867834E+00    5.1403632155568522E+00
Br    2.2761323797033635E+00    8.1096984884926613E+00    7.3922357680335118E+00
Br   -3.8701452770239522E+00   -2.4673299985454271E+00    9.8468036710026272E+00
Br    4.2364244187242850E+00   -7.3687629377600450E-01    1.1747818319294881E+01
Br   -1.2707707304078630E+00   -2.9003487060064388E+00    7.1276254744842662E+00
Br   -2.0617174713172632E+00    1.1138389216646507E+00    9.1253353446357437E+00
Br   -1.1669242528927966E+00   -1.2965748811167867E+01   -3.1896676417941905E-01
Br    6.0831283083880452E+00   -5.4421815812977528E+00    1.2570633013603343E+01
Br   -1.2568119701055368E+01    2.3553158525322798E-01   -1.6876034154175428E+00
Br   -3.9509553538659747E-01   -1.1311438575567598E+01    5.6876258939395274E+00
Br   -1.1243328392509264E+01   -5.6639574337789460E+00   -4.5149006240132539E-01
Br    9.5091500843447530E-01    1.2080964885848491E+01    9.9037550199531559E+00
Br   -8.4941824680289582E+00   -5.5271846141045797E+00   -4.2972912905476326E+00
Br   -9.4764475864969100E+00   -2.4431118333978326E+00   -2.3902141966283201E+00
Br    3.5506181034648012E+00    5.4066667783773834E+00    1.0714355578992913E+01
Br   -7.3197629035581171E+00    6.9099255323821120E+00   -4.0146588609192140E+00
Br   -4.5203202009217369E+00    7.3167390810006436E+00   -7.3356325963746691E+00
Br   -5.6850180628732607E+00    1.0349775708628298E+01   -5.5072307479903104E+00
Br   -6.5882271474661787E+00    1.2381346104265609E+00   -2.4557790395302015E+00
Br   -9.8566177766942840E+00   -1.0813688569359817E+01    6.0283343846360067E+00
Br   -3.9369053609045399E+00    1.5163661794781815E+00   -6.0065993784787572E+00
Br   -6.1989785210499058E+00   -5.5536051998538580E+00   -7.0867312395321971E+00
Br   -3.0447629402281002E+00   -5.8628565202209133E+00   -1.0656845670442157E+01
Br   -3.8536129998637336E+00   -2.0245544441994663E+00   -8.6983884049225217E+00
Br   -2.8148678453738118E+00    5.1822726467572107E+00    1.1078152884422677E+01
Br   -3.4262446142036596E+00   -8.5016383522389845E+00    1.0908624966876380E+01
Br   -8.5597839287951472E-01   -8.3393973135237704E+00    7.8598031407705884E+00
Br   -3.6222926176191284E-01   -4.9751977495841118E+00    1.0365937792639953E+01
Br   -6.7215060628874106E+00   -1.0869466199310436E+01    2.7330195684965148E+00
Br   -7.5846896749148600E+00   -7.1319010814224502E+00    5.1860378307430244E+00
Br   -1.0634470844579207E+01    9.0726200784759143E+00    1.0866160566134885E+01
Br    9.7560403518690926E+00    1.2085754386845359E+01    3.7877043281601347E-01
Br   -5.7152248114265305E+00   -7.3472756118648901E+00    1.4703943518886486E+01
Br    1.0060846421389838E+01    1.0214972855551096E+01   -5.0223828526417105E+00
Br    1.1329809758542403E+01    5.3384161569848008E+00    1.4509580198814318E+00
Br   -8.0915977511084218E+00    3.8091322688176557E+00    1.2165330146406610E+01
Br   -1.1488220372719281E+01   -7.1729011158340921E+00   -6.4904128698398598E+00
Br    1.2936607367021628E+01    1.7415721857729778E+00    8.3204708888435235E+00
Br   -3.9850192009436034E+00   -9.4340108730008279E+00    5.4523894846054821E+00
Br    5.5661364823693855E+00   -3.2615217854015426E+00   -8.9783744801125298E+00
Br    7.4470579878715020E+00   -3.8331390291831835E+00   -1.2114835934092769E+01
Br    1.4744216708610763E+01   -5.0561054537906251E+00    8.4084956062261593E+00
Br    9.0029077576459073E+00   -8.8984940017258751E-01   -1.0309122059754854E+01
Br   -5.8758066769671098E+00   -1.1277681939145072E+01    1.3437996342751415E+01
Br   -1.2969023710672232E+00   -9.1949255810465420E+00    2.0018902833936121E+00
Br   -2.0211055070890414E+00   -5.7199657107336996E+00    3.8253416238867155E+00
Br    6.2025549711653722E+00   -9.0520453340013827E+00   -7.5147615312580598E+00
Br   -4.8871133566769585E+00   -1.1482243717298681E+01   -6.1380738370701007E+00
Br    7.3954621617061873E+00   -9.5709780376342497E+00   -1.1624289557853000E+01
Br    8.1957271537019718E+00   -6.3550798652863287E+00   -8.9860352208263219E+00
Br   -8.0122395439643823E-01   -1.0981728242986174E+01    1.0989598017151440E+01