 # Version information for this restart file 
 # current date 2021-06-17 12:33:22.344
 # current working dir /user/ub2042/exercises/2_fitting/MM_MD_workdir/md_settings
 # Program compiled at                              Thu Apr 22 21:44:59 EDT 2021
 # Program compiled on                cpn-k07-07-02.compute.cbls.ccr.buffalo.edu
 # Program compiled for                                                    local
 # Source code revision number                                       git:36754bb
 &GLOBAL
   PRINT_LEVEL  LOW
   PROJECT_NAME cp2k
   RUN_TYPE  MD
 &END GLOBAL
 &MOTION
   &MD
     ENSEMBLE  NVT
     STEPS  10000
     TIMESTEP     2.4999999999999996E+00
     STEP_START_VAL  4500
     TIME_START_VAL     1.1250000000000349E+04
     ECONS_START_VAL    -1.3925666412857368E+01
     TEMPERATURE     3.0000000000000000E+02
     &BAROSTAT
       PRESSURE     1.0100000000000000E+00
       TIMECON     9.9999999999999982E+03
     &END BAROSTAT
     &THERMOSTAT
       TYPE  CSVR
       &CSVR
         TIMECON     9.9999999999999982E+03
         &THERMOSTAT_ENERGY
              -1.8357171131670030E-01
         &END THERMOSTAT_ENERGY
         &RNG_INIT
Wiener process for Thermostat # 1        1 F T F   4.8942508383968170E-01        1922692901.0         751943800.0        1824698526.0         472050684.0        2743543379.0         537116521.0             12345.0             12345.0             12345.0             12345.0             12345.0             12345.0             12345.0             12345.0             12345.0             12345.0             12345.0             12345.0
         &END RNG_INIT
       &END CSVR
     &END THERMOSTAT
     &AVERAGES  T
       &RESTART_AVERAGES
         ITIMES_START  1
         AVECPU     1.7886082783341365E-02
         AVEHUGONIOT     0.0000000000000000E+00
         AVETEMP_BARO     0.0000000000000000E+00
         AVEPOT    -1.4288183330000244E+01
         AVEKIN     4.4304587745043522E-01
         AVETEMP     2.2474322242050070E+02
         AVEKIN_QM     0.0000000000000000E+00
         AVETEMP_QM     0.0000000000000000E+00
         AVEVOL     6.7483345830906788E+06
         AVECELL_A     1.8897261328855762E+02
         AVECELL_B     1.8897261328855762E+02
         AVECELL_C     1.8897261328855762E+02
         AVEALPHA     9.0000000000000000E+01
         AVEBETA     9.0000000000000000E+01
         AVEGAMMA     9.0000000000000000E+01
         AVE_ECONS    -3.4989603558155680E+00
         AVE_PRESS     0.0000000000000000E+00
         AVE_PXX     0.0000000000000000E+00
       &END RESTART_AVERAGES
     &END AVERAGES
     &PRINT
       &ENERGY  SILENT
         &EACH
           MD  10
         &END EACH
       &END ENERGY
     &END PRINT
   &END MD
   &PRINT
     &TRAJECTORY  SILENT
       &EACH
         MD  10
       &END EACH
     &END TRAJECTORY
     &CELL  SILENT
       &EACH
         MD  10
       &END EACH
     &END CELL
     &VELOCITIES  SILENT
       &EACH
         MD  10
       &END EACH
     &END VELOCITIES
     &FORCES  SILENT
       &EACH
         MD  10
       &END EACH
     &END FORCES
     &RESTART  SILENT
       &EACH
         MD  10
       &END EACH
     &END RESTART
   &END PRINT
 &END MOTION
 &FORCE_EVAL
   METHOD  FIST
   &MM
     &FORCEFIELD
       VDW_SCALE14     1.0000000000000000E+00
       EI_SCALE14     1.0000000000000000E+00
       SHIFT_CUTOFF  T
       DO_NONBONDED  T
       IGNORE_MISSING_CRITICAL_PARAMS  T
       &SPLINE
         R0_NB     2.5000000000000000E-01
       &END SPLINE
       &NONBONDED
         &LENNARD-JONES
           ATOMS Br Br
           EPSILON     1.2630795322675199E+02
           SIGMA     3.6900000000000004E+00
         &END LENNARD-JONES
         &LENNARD-JONES
           ATOMS Cs Pb
           EPSILON     8.6920055954630968E+01
           SIGMA     3.6699999999999999E+00
         &END LENNARD-JONES
         &LENNARD-JONES
           ATOMS Cs Cs
           EPSILON     2.2644852172126850E+01
           SIGMA     4.5300000000000002E+00
         &END LENNARD-JONES
         &LENNARD-JONES
           ATOMS Pb Pb
           EPSILON     3.3363415533600227E+02
           SIGMA     6.1000000000000005E+00
         &END LENNARD-JONES
         &LENNARD-JONES
           ATOMS Br Cs
           EPSILON     5.3481070753900497E+01
           SIGMA     3.6300000000000003E+00
         &END LENNARD-JONES
         &LENNARD-JONES
           ATOMS Br Pb
           EPSILON     2.0528187276773045E+02
           SIGMA     2.9800000000000000E+00
         &END LENNARD-JONES
       &END NONBONDED
       &CHARGE
         ATOM Cs
         CHARGE     4.1739999999999999E-01
       &END CHARGE
       &CHARGE
         ATOM Pb
         CHARGE     8.3479999999999999E-01
       &END CHARGE
       &CHARGE
         ATOM Br
         CHARGE    -4.1739999999999999E-01
       &END CHARGE
     &END FORCEFIELD
     &POISSON
       PERIODIC  XYZ
       &EWALD
         EWALD_TYPE  SPME
         GMAX  62 62 62
         O_SPLINE  4
       &END EWALD
     &END POISSON
     &PRINT
       &FF_INFO  LOW
         SPLINE_INFO  F
         SPLINE_DATA  F
       &END FF_INFO
     &END PRINT
   &END MM
   &SUBSYS
     &CELL
       A     1.0000000000000001E+02    0.0000000000000000E+00    0.0000000000000000E+00
       B     0.0000000000000000E+00    1.0000000000000001E+02    0.0000000000000000E+00
       C     0.0000000000000000E+00    0.0000000000000000E+00    1.0000000000000001E+02
       PERIODIC  XYZ
       MULTIPLE_UNIT_CELL  1 1 1
     &END CELL
     &COORD
Cs   -7.1454986029937440E-01   -5.0759937179990874E-02   -7.0122596615097752E+00
Cs    1.2535275100085626E+00   -6.4809619310758260E+00   -5.3703313222891795E+00
Cs    2.4345209018002711E-01   -1.1780186934392248E+01   -4.8103280995615876E+00
Cs   -6.3238503044946839E+00   -6.0795776960271608E+00   -6.0127179731943432E+00
Br   -7.6862982241440516E+00   -1.3400460697125189E+01   -8.0714343022410713E+00
Br    1.1350428174797788E+01   -2.5566364286492855E+00   -9.3647675173491169E+00
Br   -3.7683502884544620E+00    1.0832901863725981E+00   -1.2369046051284345E+01
Cs   -1.7752661201383038E-01    6.3947267984353138E+00   -7.0303369850440731E+00
Cs    4.3198989410201549E-01    5.7533322208204496E-01    5.6044107188703551E-01
Cs    1.6198959022843654E-01   -6.3416785300220377E+00   -2.9113418197270252E-01
Br   -5.7334688616284755E+00   -3.4302244856813471E+00    3.4690156908623271E+00
Cs   -1.1777569547300363E+01   -6.3089609379842342E+00    1.2030113428122196E+01
Cs    1.2591704188934477E+01   -1.0584579374386754E+01    7.1744820846392787E-01
Cs   -6.3227783823409309E+00    5.6831639086252963E+00   -6.1267506710084474E-01
Cs   -5.9149126061328938E-01    1.1225635250768587E+01   -1.3390993430579403E+00
Cs   -8.9407700714612948E-01    4.9511226887702744E+00   -5.9060531818870488E-01
Cs    7.9525911130705496E-01    6.3035704294329054E-01    6.3696968201465864E+00
Cs    5.7893267297077200E-01   -5.1329619241865032E+00    5.8010010593347685E+00
Cs    1.3384649416094085E+00   -1.1208574926758111E+01    6.6986461369029664E+00
Cs   -5.9657561913943864E+00    6.7384538637676670E+00    1.0843052577098435E+01
Cs   -6.7593223750234541E+00   -1.5806211737405906E+00   -1.1338866487856240E+01
Cs   -5.0239655694233551E+00   -1.2129127840817381E+01   -4.9712750263539283E+00
Cs   -5.3230775568724091E+00    1.0451417360576025E+00    5.9126242813883749E+00
Br   -2.8876287827864489E+00   -2.3872206635443165E+00   -6.6020313707152611E-02
Cs    2.1642824105259903E-01    7.0580345409839795E+00    5.3029925839341159E+00
Br    1.2438216541789807E+01   -8.8795227810861306E+00   -8.7046304183588212E+00
Cs    1.1139497673794951E+00   -5.0142427087933896E+00    1.0842187086558196E+01
Br   -2.4940826452461868E+00    3.5376082142345633E-01    2.8529487431466816E+00
Br   -1.0099223485485034E+01   -2.8316521612615375E+00    1.2527086496911579E+01
Cs    1.1367175823372948E+01    1.0270703054131427E+01   -7.6769623699686811E+00
Cs   -1.1028280803535679E+01   -6.2346929894926246E+00    7.0412614330315764E+00
Cs   -6.1281707422673746E+00   -5.5498727535749746E+00    6.1404776686233813E+00
Cs   -7.5164774813738795E+00    1.1440051573737680E+01   -6.4562685639068302E+00
Br   -1.0784238148821791E+01   -9.2780716192803254E+00    9.2208089716262371E+00
Br   -8.1000181483397373E+00   -9.3353024048014923E+00    6.9546427904666341E+00
Cs   -1.0938918026595655E+01   -7.3626290171711322E+00   -5.4731229740271692E+00
Cs   -6.2162390733904713E+00    5.8257062045047254E+00   -6.5251093094056669E+00
Br   -8.3881321752394751E+00   -6.3468932738614807E+00    1.0178190627820422E+01
Cs    1.0990382420484474E+01    8.0098325129656143E+00    1.0949694990898379E+01
Br   -1.1696967376516511E+01    8.7689339162951185E+00    8.3463450093244234E+00
Br   -6.0009699618146675E+00   -3.4742743381201882E+00   -3.0476181589557898E+00
Cs   -1.8027721100368890E-01    3.2882771531402688E-01    1.1181176408646714E+01
Cs    1.1076521364373493E+01    5.7810681088604099E+00   -8.5866899273237307E-01
Cs   -1.0821216226650726E+01   -7.4716792761123942E+00   -1.0841943311334507E+01
Cs    1.1989586295198736E+01    3.6718526015614339E-01    5.4978119289830110E+00
Cs   -1.3169444198723376E+01    9.3724001580595218E+00   -5.6018824117431310E+00
Cs    1.3308978320334022E+01   -1.0064555611923064E+01    7.0451770673260530E+00
Cs    6.0276373465095530E+00   -6.2671788113707940E+00   -1.1513844498451885E+01
Cs    7.5729064825850392E+00   -1.0125811975740552E+01    6.4313502477290623E+00
Cs   -5.8072352545584796E+00   -1.2094639912887608E+01    1.4100201002575687E+00
Cs    6.3437959341713652E+00   -1.1814555861977990E+01   -1.1213317977249186E+01
Cs    1.1179148064456722E+01    5.8277871601588513E+00   -7.2830586219601088E+00
Cs    1.1668950887298385E+01    1.2363293194534835E+01    5.3292401451042410E+00
Cs    1.0020806016224816E+01    5.2162379252718880E+00   -1.2080340542250580E+01
Cs    1.0531804067366739E-01   -6.9835461429764916E+00   -1.0989622239360854E+01
Cs   -1.1113452334500760E+01   -1.5523636215564891E+00   -5.8156524972896246E+00
Cs    6.1465766000756599E+00   -5.3926132328691052E+00    1.0805798271090893E+01
Cs    1.2058765920289890E+01   -4.6287566288998878E+00    5.4091101900545429E+00
Cs   -9.9932220747329126E+00   -1.2246907818680741E+01    1.3565272537121936E+01
Cs   -7.6319974092562481E-01   -1.0399947255394997E+00   -1.1652592481274974E+01
Cs   -1.2061978065545518E+00    1.2137241114489555E+01    5.6063372024461335E+00
Cs   -3.7188337487569856E-01    5.5899590956214515E+00   -1.1680699246343794E+01
Cs    5.6742593401557562E+00    2.5612591371296634E-01   -5.7866766498104312E+00
Cs    6.1042192208272308E+00   -6.8454236192338076E+00   -6.5462030471608887E+00
Cs   -4.7106528853471525E+00   -1.1054949773222930E+01    6.5935848574661104E+00
Cs   -1.0602039260736396E+01   -8.2906024485555041E-01    6.9949582863647475E+00
Cs    4.4759365864830336E+00   -6.4911670043295330E-02   -1.1981404838439390E+01
Cs    5.1418754891192746E+00    9.9429540723235235E+00   -1.2969488253645467E+01
Cs   -5.4678627380485276E-02    6.1675400607666591E+00    1.1167871403515480E+01
Cs   -6.9790369180044571E+00    1.1408257606455630E+01    5.2683021971264967E+00
Cs    5.3990262662272608E+00    1.1367013924232849E+01   -7.0169818364334615E+00
Cs    5.4338232854270201E+00    5.8380269182217051E+00   -6.6711570940858014E+00
Cs    5.8497220798943435E+00    7.4742315310822816E-01   -2.3862333797508858E-01
Cs    6.5275419951505009E+00   -5.2522562761192173E+00    1.0995391967196513E+00
Cs    7.1844667863273335E+00   -1.1278117000149461E+01    1.5027085060656353E+00
Cs    5.2087070897920471E+00    4.3092325551746988E+00   -1.2509566982653601E+01
Cs   -5.8956450792920965E+00    6.3110705455390548E+00    5.8880807543962499E+00
Cs   -5.8779763115785846E+00   -6.9418929620264018E+00   -1.0444588826013829E+01
Cs    5.8022514691454878E+00    6.2413793420987265E+00   -8.8608277747743991E-01
Cs    6.1399873380105152E+00    1.2196534110064123E+00    5.0587689526944306E+00
Cs    6.8281996810981473E+00   -4.8405276027184323E+00    5.8193850690175957E+00
Cs   -5.9676195089650097E+00    1.1126455301618869E+01    4.3848467081380849E-01
Cs    1.1366162274880288E+01    7.8131961653877091E-01   -1.0558820409208995E-02
Cs   -6.3002995463211171E+00   -9.7104820995138819E-01   -4.6010643912338950E-01
Cs   -1.1692229709157452E+01    5.6765568278072083E+00    6.4222378112647522E+00
Cs   -5.2994800393982215E+00    4.7844559353734828E-01    1.1179738936914829E+01
Cs    5.5661670870050743E+00    1.3494463065342693E+01    4.4794285180593718E+00
Cs    6.6117768530697028E+00    6.8963144114138855E+00    5.6441957322723875E+00
Cs    6.9032449561948273E+00    1.0981393666008350E+00    1.0983089840118179E+01
Cs    4.9042556497603860E+00    1.2098327488020169E+01   -1.1488533817525839E+00
Cs    1.1450718219837260E+01    1.0252458133166475E+00   -6.4606389666709783E+00
Cs    1.1737004970618612E+01   -6.3674212355528459E+00   -5.8372557724151424E+00
Cs    6.6795057804192819E+00   -1.0590197283893366E+01    1.1860265089203647E+01
Cs    1.1241346950579310E+01    1.2470708838101137E+01   -1.3918390160433647E+00
Cs   -1.0875560618403346E+01    1.2414351162072124E+00    1.3241557890176152E+01
Cs   -7.2950886594607898E+00    4.8696916276814290E+00   -1.1662117255667791E+01
Cs   -1.1562189767218660E+01    1.1046940318138807E+01    5.5031989982972464E-02
Cs   -4.9592369091891175E+00   -6.0155446543684272E+00    1.1555246962208930E+01
Cs   -3.8912576139715713E+00   -1.1370996783484996E+01    1.2897881379707954E+01
Cs    5.3046185416186997E+00    7.4980574004546003E+00    1.1149377364244192E+01
Cs    1.1629357075225325E+01   -4.7389555306389495E+00    3.6103551113151766E-01
Cs   -1.2059998487765569E+01   -1.3460397537532018E+00   -5.1935584246561817E-01
Cs   -7.2088012801504622E+00    9.4001220998569774E+00   -1.2391123133067406E+01
Cs   -1.2339157767092894E+01    4.8919548093280509E+00    3.3733445816318608E-01
Cs   -1.0446964929663340E+01   -1.3178498499306025E+01   -4.7305320419627632E+00
Cs   -1.1211392750859494E+01   -6.8722630774758118E+00    4.3932092645322063E-01
Cs   -5.6008188053961465E+00   -6.0276513718385605E+00    3.2789766298170075E-01
Cs   -1.0523307410739763E+01   -1.2031168276854206E+01    7.5161110909399209E+00
Cs    1.1237113950509325E+01   -4.1818956158964893E+00    1.2224549462434863E+01
Cs    1.1523699184740071E+01    7.0526731658693782E+00    5.1739981790602219E+00
Cs   -1.1787104030839721E+01    3.7971768687698280E+00   -5.9919742298229863E+00
Cs   -6.0379582356478965E+00   -1.0860237899169618E+00   -6.5100627920193954E+00
Cs   -1.0225651741208868E+01   -1.2363662892957521E+01    1.6926900140579255E+00
Cs    1.1458846594743179E+01   -6.4572461077342176E+00   -1.1151502294088720E+01
Cs   -5.0798821821194027E+00   -1.2189778398859737E+01   -1.0535340307764141E+01
Cs   -8.1828063926651440E-01    1.0950916783632708E+01   -1.1492458473364612E+01
Cs    2.1151396316808713E-01   -1.2539911488098262E+01   -1.0567658857826290E+01
Cs   -1.0470557475014550E+00    1.1392376582260882E+01   -5.9710593513831087E+00
Cs   -5.7800239264656934E+00    1.1373189159159685E+01    1.3058292384870517E+01
Cs    6.4717509164475739E-01   -1.1458973078094921E+01    8.0176146487315636E-01
Cs   -1.3458617003401148E+01   -8.4481534960004467E-01   -1.0248434561522711E+01
Cs   -1.1647634343917067E+01    1.0451999558989426E+01    5.5873122145577883E+00
Cs    7.0126125368309600E+00   -1.1503790347086410E+01   -5.0461388067962156E+00
Cs    1.0417999602547283E+01   -9.8389270872661327E-01   -1.2049691152510171E+01
Cs    4.2199457788556488E-01    1.2515517230953540E+01    1.0392792209544409E+01
Pb    3.0076608108057625E+00   -2.9163855559681608E+00   -3.1383246963056877E+00
Pb    3.9599951153201700E+00   -9.2135026593127876E+00   -2.9452850529178716E+00
Pb   -8.5940879669808705E+00   -3.3037749899061812E+00    3.4108895055708053E+00
Pb   -2.4530673371572735E+00   -9.2851564305396330E+00   -2.0310908088171686E+00
Pb    2.2552720025789759E+00    8.8852687819100193E+00   -3.6653529083891954E+00
Pb    2.4939287484322814E+00    3.0301370734835658E+00   -3.0127217108652431E+00
Pb    3.4428706020968258E+00   -2.1845914588940261E+00    2.8170860653973873E+00
Pb    3.6197696421979035E+00   -8.3225006997105488E+00    3.3204439668739192E+00
Pb   -3.5708351128505886E+00    8.9169526326214434E+00    2.7836041682095027E+00
Pb    2.6506937025099004E+00    9.6336830720814568E+00    2.2058744509572112E+00
Pb    3.0597829641594068E+00    3.7519556558728775E+00    2.6772025166264348E+00
Pb    3.5937947306604641E+00   -1.8984577883250704E+00    8.5280041124903878E+00
Pb    3.7745270994864302E+00   -8.4685197356164625E+00    8.9447652523840055E+00
Pb   -2.8801534313043873E+00    3.0884233886151344E+00    2.5863650113639918E+00
Pb    2.8631226638997416E+00    1.0000357146663402E+01    8.3068874573641942E+00
Pb    3.4399139562780880E+00    4.1668469750379629E+00    8.7989869529857341E+00
Pb   -2.4950077637328802E+00   -2.6030405352691139E+00    8.8031687098415219E+00
Pb   -8.4441266369835617E+00   -9.4874908965020666E+00    3.9957014471536545E+00
Pb   -9.1829660695628679E+00    1.8775162923027404E+00   -2.6477630377597556E+00
Pb   -3.2555453972327344E+00   -3.7197442274415669E+00   -8.7152315222029877E+00
Pb   -2.1226314529721968E+00   -8.8874205536262352E+00    3.7700984253849907E+00
Pb   -3.6123472689757050E+00    8.7803443522160105E+00   -3.3491524725763369E+00
Pb   -2.0135146583167862E+00   -8.5545049416523558E+00    9.6850458209175709E+00
Pb   -9.0623759470389249E+00   -3.9911059970826499E+00   -2.4538515779736954E+00
Pb   -8.5026574607600924E+00   -9.8677667427894207E+00   -2.2433976485178806E+00
Pb   -3.2951856155534704E+00    2.4311632560221210E+00   -3.4299510968396127E+00
Pb   -8.1406059887696127E+00   -9.2941108266975512E+00    1.0200886718786116E+01
Pb   -9.3273173371621230E+00   -4.4266411164260422E+00   -8.7987531779418049E+00
Pb    8.7844532657771932E+00   -3.6862146709514878E+00   -8.9348170398301860E+00
Pb    9.7093178519137293E+00   -9.8765117873628352E+00   -8.6533016197004233E+00
Pb   -2.5920026963055860E+00   -9.5104476025241951E+00   -8.1792520944604838E+00
Pb   -1.0593599461553408E+01    7.8368927302238163E+00   -9.5339820457822313E+00
Pb    2.8765839246388758E+00   -3.3328132215957198E+00   -8.9382620385651137E+00
Pb    3.5557181611477726E+00   -9.7076999282748169E+00   -8.7499392581899631E+00
Pb   -3.8807701291996088E+00    2.3100071450682242E+00   -9.7934917523175802E+00
Pb    2.0668961234004914E+00    8.9460635470291159E+00   -9.5626684652604865E+00
Pb    2.3310357315534880E+00    2.7316166341076400E+00   -9.0837353797230698E+00
Pb    9.4381416833218719E+00   -2.5463307189323552E+00   -2.9206778707943895E+00
Pb    1.0080100146699404E+01   -8.6307676846492996E+00   -2.3300998054556903E+00
Pb   -8.8781949584437978E+00   -3.0791614231746429E+00    9.8551361080210160E+00
Pb    8.1215086102046605E+00    8.2250115165348845E+00   -1.0167649148414300E+01
Pb   -9.8583829360889563E+00    1.7054004019570124E+00   -9.2692542880547606E+00
Pb   -2.8983871085653363E+00    9.4669139204453074E+00    9.0277228654799071E+00
Pb    8.2761677865215155E+00    9.3160582304424224E+00   -4.0868490141356411E+00
Pb    8.6210420999671840E+00    3.5186994193339962E+00   -3.3443589162384963E+00
Pb    9.5037194711778490E+00   -2.0121932826748603E+00    3.0257315962208797E+00
Pb    9.8622581516626333E+00   -7.7887928080732909E+00    3.4370555024275529E+00
Pb    8.4939278039983055E+00    2.5332856564065667E+00   -9.1992810310917363E+00
Pb   -2.6025830717473610E+00    3.5338958395660831E+00    8.1496885221917896E+00
Pb    8.6416017204385192E+00    1.0071255190786117E+01    1.9323603165946885E+00
Pb    9.2180921045199078E+00    3.9761963749912073E+00    2.6852934604705840E+00
Pb    9.6259221640916781E+00   -1.6417064825909902E+00    9.4174425077886745E+00
Pb    9.6956477726454935E+00   -7.6029690201586337E+00    9.6154241612113509E+00
Pb    8.9010368915622795E+00    1.0357229342634165E+01    8.3120407988212524E+00
Pb    1.0313219534539307E+01    4.4928627219003934E+00    8.6596083412746125E+00
Pb   -8.7720030044187585E+00    3.1632729074509105E+00    9.2888270479209289E+00
Pb   -2.6439188467418893E+00   -3.0170183599554230E+00    3.0609180046418198E+00
Pb   -9.3741753076576479E+00    8.4020236820680001E+00    2.6169650802840563E+00
Pb   -9.7702483345037212E+00    8.0699751892379439E+00   -3.4447546675834078E+00
Pb   -8.7194412600943298E+00   -1.0456034135253901E+01   -8.2809114105162429E+00
Pb   -4.1424308454267722E+00    8.7221255978814849E+00   -9.2998800112228945E+00
Pb   -9.0947902230667061E+00    2.5239743297449713E+00    3.3362659481054182E+00
Pb   -8.8968813077397755E+00    9.3889720793227998E+00    8.5897037694308178E+00
Pb   -3.0657441311739517E+00   -3.4390586421925660E+00   -2.8770414607067036E+00
Br    2.9776436074471663E-01   -3.9462942208204548E+00   -3.0523916348285560E+00
Br    3.1317160294472712E+00   -2.8988222055077602E+00   -6.1202550356261671E+00
Br    2.9717637476904657E+00   -4.5784881847801391E-02   -2.6669538178198970E+00
Br    1.1650928773945699E+00   -8.9617297576260047E+00   -2.9189936952558977E+00
Br    3.9463454003350096E+00   -9.1102311280163306E+00   -5.8688501352878610E+00
Br    3.7641576455840484E+00   -5.7041882857254267E+00   -3.2980931744760391E+00
Br   -3.7359168635437543E+00   -3.8722739482793243E+00   -5.9587296798802809E+00
Br   -9.0576430250892486E+00   -3.4613439875377292E+00    6.2789227110889341E+00
Br   -3.0616539198196269E+00   -5.6187461528869920E-01   -3.8566536305808721E+00
Br    4.4063191531690507E+00   -1.2098100663112044E+01   -3.0587609704944785E+00
Br    1.2324288661698967E+01   -2.3419132454304004E+00    2.7070675243820692E+00
Br   -5.6044259406626233E+00   -9.2683139374474397E+00   -2.1410032513337098E+00
Br   -1.1494352100894881E+01   -3.4377192655081128E+00    2.7241102519061458E+00
Br   -8.5507834844475212E+00   -4.2920715810578622E+00    2.0642916309275230E-01
Br    1.2993398588350093E+01   -7.4661276736464508E+00    3.5391835620993564E+00
Br   -7.4860180001199184E-01    8.7023057549408609E+00   -3.6300759480363296E+00
Br    1.5674700527774923E+00    9.5634422753952801E+00   -6.7370639297474755E+00
Br    1.9114985855630457E+00    1.1868740567799296E+01   -3.7233419054232342E+00
Br   -4.2494823652200892E-01    2.8130978446413160E+00   -3.4540143475774805E+00
Br    2.4518798317383106E+00    2.5863432397280723E+00   -6.4298638600704585E+00
Br    2.9675014958769967E+00    5.6756465308604120E+00   -3.9274027045981135E+00
Br    3.6151946802324991E-01   -2.8515216767934914E+00    3.2530313779177988E+00
Br    2.7536068793715280E+00   -2.6595878947945595E+00    6.4364319360678782E-02
Br    3.5595443713122039E+00    7.6551176258616205E-01    1.9900980006629452E+00
Br    8.2463962127173662E-01   -8.4865713117424946E+00    3.5447243177051013E+00
Br    3.1810929186810957E+00   -8.9907129887325414E+00    4.4453131118591498E-02
Br    3.5243069153446389E+00   -5.2415526551081664E+00    3.0140037347583148E+00
Br   -6.7385756841304190E+00    7.4273838171964233E+00   -9.8264970321507406E+00
Br   -4.1102326689691351E+00    8.5820034202553632E+00   -1.2144515802832460E+01
Br    4.3609995039541278E+00   -1.1009460813593988E+01    3.0041881065605267E+00
Br   -3.4716623826606252E+00    1.1640662733398351E+01   -8.7541197051260227E+00
Br   -3.7196387690218375E+00    5.4393720897563194E+00   -9.5242581263308725E+00
Br   -8.8913181514109159E+00   -4.7725685957348613E-01    3.8054906346588622E+00
Br   -2.8226938716888554E+00   -9.6723385533913966E+00   -5.2025544065305951E+00
Br   -6.3853243176812020E+00    8.6369473976342857E+00    2.6425717541072440E+00
Br   -3.8190748255123785E+00    8.6578699208239431E+00   -3.4826505918145523E-01
Br   -4.1045474022412316E+00    1.1682104318204104E+01    3.1148294560747276E+00
Br   -2.3216331093757311E-01    9.3360420431251274E+00    2.2997572089251244E+00
Br    2.6419361475394911E+00    8.2522499910048985E+00   -8.7568163387727238E-01
Br    2.2111751281663063E+00    1.2090247246182654E+01    6.5674244005882565E-01
Br    1.4415822241467863E-01    3.2914245947511818E+00    2.8504597579634181E+00
Br    2.4095118735709535E+00    3.4424343320496957E+00   -1.2666316295977098E-01
Br    3.3598980228609516E+00    6.8478866859622647E+00    2.8623502882942002E+00
Br    6.1712135882235697E-01   -2.5440992358746155E+00    8.1523122279222928E+00
Br    4.0457046506277132E+00   -1.3857394438211770E+00    5.5711969070462679E+00
Br    2.8718000938165358E+00    7.7569667493493355E-01    8.8948589587995226E+00
Br    9.4474910301207415E-01   -8.5087269592349681E+00    8.6404037511094227E+00
Br    3.7168806337460829E+00   -9.0294978076587906E+00    6.0628544020829258E+00
Br    3.9622065155684147E+00   -5.0490006739491688E+00    7.9622868248428693E+00
Br   -1.1985291362779609E+01    3.4279309545339518E+00    3.6032791005553366E+00
Br   -9.8620748887405956E+00    1.4919266233500563E+00    5.4101921133365971E-01
Br    4.0066775417277212E+00   -1.1510179878381665E+01    9.2174455167958502E+00
Br   -8.9091003269455218E+00    5.6532101455390720E+00    3.0401342322920470E+00
Br   -8.6950687702669516E+00   -3.9183517966203472E-02    9.5479862465835783E+00
Br   -3.0203330683219307E+00   -6.2215125950009114E+00   -1.9701326081778845E+00
Br   -6.0475306892400207E+00    2.2499410742672206E+00    2.8711531594899640E+00
Br   -3.2672792245996676E+00    2.3531878101426682E+00   -5.3164470314098766E-01
Br   -2.9065725743009159E+00    6.0522497758213891E+00    2.5663323157852678E+00
Br   -1.7859122551201104E-01    9.6072439013724864E+00    7.9936340259149210E+00
Br    3.7467295508341714E+00    9.7959540204859117E+00    5.1256655528665869E+00
Br    1.8072743648460114E+00    1.2555564280268911E+01    7.2575151927174328E+00
Br    3.1068610895737581E-01    3.8242227105664108E+00    8.3412241341026405E+00
Br    3.0216721361406793E+00    2.6085385250628241E+00    5.4122212473644211E+00
Br    3.3752703523887262E+00    7.1510101398704888E+00    8.2959445537798331E+00
Br   -5.6999632788224126E+00   -3.4947860747405217E+00    9.2075274442990160E+00
Br    3.0651725903855551E+00   -2.3237318390108714E+00    1.1267960305967724E+01
Br   -2.9265106999407329E+00   -3.4808035641422719E+00    5.9573326059409295E+00
Br   -2.5014846397478876E+00    4.2792482325417969E-01    8.3963599239765347E+00
Br   -1.6546700445988394E+00   -1.2080623704628637E+01   -1.4442844148294116E+00
Br    3.5691988697949819E+00   -7.5363562006897071E+00    1.1613643664276022E+01
Br   -1.1897939494951993E+01    1.6550973878906730E+00   -3.3050951726403208E+00
Br   -1.7782987739555909E+00   -1.1606728250441716E+01    4.2237191412854216E+00
Br   -1.1867988114688217E+01   -4.2446183866159615E+00   -2.8193650021622787E+00
Br    2.0477549605171350E+00    9.5314660297843634E+00    1.1030019140216575E+01
Br   -9.3285919363301470E+00   -4.2566437772730206E+00   -5.4891636922209894E+00
Br   -9.1807116833190694E+00   -8.1166921091304689E-01   -2.1858290821081003E+00
Br    3.3299735518625191E+00    4.4610238439397243E+00    1.1475352789899828E+01
Br   -6.7286442684980869E+00    8.4685500781424849E+00   -3.3694982954219848E+00
Br   -3.7335061775231493E+00    7.9114501853207431E+00   -6.6842456016905967E+00
Br   -3.4096806429901614E+00    1.1547957732103725E+01   -3.4376257465271709E+00
Br   -6.2959162672162226E+00    2.0922492807888862E+00   -2.4258993255849779E+00
Br   -1.1088360942436257E+01   -9.7713855686902011E+00    4.4021260551467165E+00
Br   -3.9092586658404920E+00    2.3400140588926708E+00   -6.6511421297236399E+00
Br   -6.3668200713896868E+00   -3.8602103547344147E+00   -8.8941620522547158E+00
Br   -2.9357459944282849E+00   -4.2018398872830929E+00   -1.1466350677831279E+01
Br   -3.4165306116301628E+00   -6.1523166016550224E-01   -9.2524241888328564E+00
Br   -2.2154486529793753E+00    3.3140666203695508E+00    1.1006378862517973E+01
Br   -4.9099556830961637E+00   -8.9459336030672532E+00    9.9932806991892189E+00
Br   -2.4036306703059300E+00   -8.0871718556285792E+00    6.6245843340684436E+00
Br   -1.9522927462843858E+00   -5.5908594112134411E+00    9.4884753641295152E+00
Br   -8.2413090540847431E+00   -9.6533145514238132E+00    5.7735851455889564E-01
Br   -8.5570858675064798E+00   -6.6234859232773324E+00    3.5932894928923047E+00
Br   -7.8534075622236577E+00    9.3986485484765669E+00    1.1451541723432456E+01
Br    1.1432391899675924E+01    1.0883839804391531E+01    1.7803159073690886E+00
Br   -9.4282118649520097E+00   -9.1236918008148287E+00    1.2866091734518900E+01
Br    1.1355452883064968E+01    9.0705112156065493E+00   -4.2189766593318012E+00
Br    1.2197559289009131E+01    3.9239185214479653E+00    1.7216777743247709E+00
Br   -7.7346669056524782E+00    2.8737952690035660E+00    1.2022919854145600E+01
Br   -1.2167695703492470E+01   -4.8077487995260659E+00   -8.5494323101710386E+00
Br    1.2526649402614691E+01   -2.1874812263092407E+00    9.3403313262746188E+00
Br   -5.0858223908291720E+00   -9.0971054188535962E+00    3.2674614085055675E+00
Br    5.6244922471100454E+00   -3.3877933034011085E+00   -9.9448104367342438E+00
Br    8.9209949687815033E+00   -3.9197947005378735E+00   -1.1639312028901827E+01
Br    1.2220961886849539E+01   -7.0671663202093775E+00    1.1188058284334414E+01
Br    8.5648953127148868E+00   -2.9695457187253066E-01   -8.5126823915381280E+00
Br   -7.7998208006194556E+00   -1.1988088205373773E+01    1.1294116167766665E+01
Br   -2.0689049270799749E+00   -8.9049051866684898E+00    8.6285169995423583E-01
Br   -2.5775694995577556E+00   -5.8987650091000399E+00    3.5357663468861089E+00
Br    6.4162636782608420E+00   -9.3486895443923412E+00   -8.9952980231934720E+00
Br   -5.5105382517271364E+00   -9.4794455457964180E+00   -8.3845213278951878E+00
Br    9.5605691800072101E+00   -9.1351773976405362E+00   -1.1555131725520077E+01
Br    8.6104298175360761E+00   -6.5188827814366688E+00   -8.5566366010316521E+00
Br   -2.3848855843375838E+00   -1.1304308188470362E+01    8.9112073731504697E+00