 # Version information for this restart file 
 # current date 2021-06-17 12:39:13.589
 # current working dir /user/ub2042/exercises/2_fitting/MM_MD_workdir/md_settings.003
 # Program compiled at                              Thu Apr 22 21:44:59 EDT 2021
 # Program compiled on                cpn-k07-07-02.compute.cbls.ccr.buffalo.edu
 # Program compiled for                                                    local
 # Source code revision number                                       git:36754bb
 &GLOBAL
   PRINT_LEVEL  LOW
   PROJECT_NAME cp2k
   RUN_TYPE  MD
 &END GLOBAL
 &MOTION
   &MD
     ENSEMBLE  NVT
     STEPS  10000
     TIMESTEP     2.4999999999999996E+00
     STEP_START_VAL  3500
     TIME_START_VAL     8.7499999999999727E+03
     ECONS_START_VAL    -1.4031592531677251E+01
     TEMPERATURE     3.0000000000000000E+02
     &BAROSTAT
       PRESSURE     1.0100000000000000E+00
       TIMECON     9.9999999999999982E+03
     &END BAROSTAT
     &THERMOSTAT
       TYPE  CSVR
       &CSVR
         TIMECON     9.9999999999999982E+03
         &THERMOSTAT_ENERGY
              -1.0466696063910946E-01
         &END THERMOSTAT_ENERGY
         &RNG_INIT
Wiener process for Thermostat # 1        1 F T F  -2.0184626487796824E+00        1270000953.0         926334897.0        3528524991.0        1371575034.0        3658295165.0        4103480558.0             12345.0             12345.0             12345.0             12345.0             12345.0             12345.0             12345.0             12345.0             12345.0             12345.0             12345.0             12345.0
         &END RNG_INIT
       &END CSVR
     &END THERMOSTAT
     &AVERAGES  T
       &RESTART_AVERAGES
         ITIMES_START  1
         AVECPU     1.7437309378558533E-02
         AVEHUGONIOT     0.0000000000000000E+00
         AVETEMP_BARO     0.0000000000000000E+00
         AVEPOT    -1.4437224174977567E+01
         AVEKIN     4.5616594066384819E-01
         AVETEMP     2.3139861734689450E+02
         AVEKIN_QM     0.0000000000000000E+00
         AVETEMP_QM     0.0000000000000000E+00
         AVEVOL     6.7483345830903742E+06
         AVECELL_A     1.8897261328855802E+02
         AVECELL_B     1.8897261328855802E+02
         AVECELL_C     1.8897261328855802E+02
         AVEALPHA     9.0000000000000000E+01
         AVEBETA     9.0000000000000000E+01
         AVEGAMMA     9.0000000000000000E+01
         AVE_ECONS    -3.6548803453415784E+00
         AVE_PRESS     0.0000000000000000E+00
         AVE_PXX     0.0000000000000000E+00
       &END RESTART_AVERAGES
     &END AVERAGES
     &PRINT
       &ENERGY  SILENT
         &EACH
           MD  10
         &END EACH
       &END ENERGY
     &END PRINT
   &END MD
   &PRINT
     &TRAJECTORY  SILENT
       &EACH
         MD  10
       &END EACH
     &END TRAJECTORY
     &CELL  SILENT
       &EACH
         MD  10
       &END EACH
     &END CELL
     &VELOCITIES  SILENT
       &EACH
         MD  10
       &END EACH
     &END VELOCITIES
     &FORCES  SILENT
       &EACH
         MD  10
       &END EACH
     &END FORCES
     &RESTART  SILENT
       &EACH
         MD  10
       &END EACH
     &END RESTART
   &END PRINT
 &END MOTION
 &FORCE_EVAL
   METHOD  FIST
   &MM
     &FORCEFIELD
       VDW_SCALE14     1.0000000000000000E+00
       EI_SCALE14     1.0000000000000000E+00
       SHIFT_CUTOFF  T
       DO_NONBONDED  T
       IGNORE_MISSING_CRITICAL_PARAMS  T
       &SPLINE
         R0_NB     2.5000000000000000E-01
       &END SPLINE
       &NONBONDED
         &LENNARD-JONES
           ATOMS Br Br
           EPSILON     1.2630795322675199E+02
           SIGMA     3.6900000000000004E+00
         &END LENNARD-JONES
         &LENNARD-JONES
           ATOMS Cs Pb
           EPSILON     8.6920055954630968E+01
           SIGMA     3.6699999999999999E+00
         &END LENNARD-JONES
         &LENNARD-JONES
           ATOMS Cs Cs
           EPSILON     2.2644852172126850E+01
           SIGMA     4.5300000000000002E+00
         &END LENNARD-JONES
         &LENNARD-JONES
           ATOMS Pb Pb
           EPSILON     3.3363415533600227E+02
           SIGMA     5.9000000000000004E+00
         &END LENNARD-JONES
         &LENNARD-JONES
           ATOMS Br Cs
           EPSILON     5.3481070753900497E+01
           SIGMA     3.6300000000000003E+00
         &END LENNARD-JONES
         &LENNARD-JONES
           ATOMS Br Pb
           EPSILON     2.0528187276773045E+02
           SIGMA     2.9800000000000000E+00
         &END LENNARD-JONES
       &END NONBONDED
       &CHARGE
         ATOM Cs
         CHARGE     4.1739999999999999E-01
       &END CHARGE
       &CHARGE
         ATOM Pb
         CHARGE     8.3479999999999999E-01
       &END CHARGE
       &CHARGE
         ATOM Br
         CHARGE    -4.1739999999999999E-01
       &END CHARGE
     &END FORCEFIELD
     &POISSON
       PERIODIC  XYZ
       &EWALD
         EWALD_TYPE  SPME
         GMAX  62 62 62
         O_SPLINE  4
       &END EWALD
     &END POISSON
     &PRINT
       &FF_INFO  LOW
         SPLINE_INFO  F
         SPLINE_DATA  F
       &END FF_INFO
     &END PRINT
   &END MM
   &SUBSYS
     &CELL
       A     1.0000000000000001E+02    0.0000000000000000E+00    0.0000000000000000E+00
       B     0.0000000000000000E+00    1.0000000000000001E+02    0.0000000000000000E+00
       C     0.0000000000000000E+00    0.0000000000000000E+00    1.0000000000000001E+02
       PERIODIC  XYZ
       MULTIPLE_UNIT_CELL  1 1 1
     &END CELL
     &COORD
Cs   -3.6815737862161541E-01   -3.2888815369368291E-01   -5.9384750597291802E+00
Cs    1.7571752903916654E-01   -6.3348002472079541E+00   -5.0526518094329074E+00
Cs    4.0261885845365886E-01   -1.1700251187546311E+01   -4.9111452846151558E+00
Cs   -5.6096844199196800E+00   -6.0788447733372459E+00   -5.7028269751166931E+00
Br   -9.4301015266357755E+00   -1.2617079429285107E+01   -7.8209098134598971E+00
Br    1.1500644497846107E+01   -2.7082826610900281E+00   -9.8792616222577685E+00
Br   -2.4836799797265754E+00    3.0068613196449991E+00   -1.1853148968511045E+01
Cs   -8.7282134184805615E-01    5.4224866482030807E+00   -5.9730851674523491E+00
Cs   -2.6392809125327782E-01    6.8529539026778696E-01   -1.0509153490234379E-02
Cs    8.4755232935044034E-01   -5.3680017278775018E+00    2.7839777661227327E-01
Br   -5.7506452022190153E+00   -3.3346903467372981E+00    3.5887019445082111E+00
Cs   -1.0873797250358837E+01   -6.4037685370043320E+00    1.1965810761385399E+01
Cs    1.1089949960914328E+01   -1.1892235912441990E+01    3.1290812204025925E-01
Cs   -6.1321195795851891E+00    5.8877833827429225E+00   -3.6302632181015204E-01
Cs   -9.2047842952426528E-01    1.1279139345033768E+01   -1.2143273494799551E+00
Cs   -9.6734048113759008E-01    6.2151162779396669E+00    2.0992297709150284E-01
Cs    2.2089199915109142E-01    9.9206620640044174E-01    5.7402565312288045E+00
Cs    7.2652376187933898E-01   -5.6859901759214262E+00    6.4495173875244882E+00
Cs    7.8964406049144242E-01   -1.0856001630657948E+01    6.6505401961281132E+00
Cs   -6.7106053241445345E+00    6.6750751486019189E+00    1.1135080390396206E+01
Cs   -6.1500107904486994E+00   -1.2763063600480520E+00   -1.1233210191864757E+01
Cs   -5.2640892626907574E+00   -1.2232121606446734E+01   -4.9754838896542291E+00
Cs   -6.0446075975000806E+00    1.2844977260037077E-01    6.1971983735461817E+00
Br   -2.1836064794255283E+00   -3.9261063476415456E+00    3.6161204219177340E-01
Cs    3.2011034297295116E-01    6.3996408509107798E+00    5.9830343651865858E+00
Br    1.1915618777655823E+01   -8.6468492074935419E+00   -8.8404940785395389E+00
Cs    1.2470663153621317E+00   -5.0331235136200654E+00    1.1257554151766694E+01
Br   -3.3096818498829390E+00    1.4269789412232597E-01    2.5887330464515368E+00
Br   -8.4275117562135851E+00   -3.7777546931053219E+00    1.2252132023241609E+01
Cs    1.0888808391774157E+01    1.2328492365009886E+01   -7.8188414048289401E+00
Cs   -1.1291529832188914E+01   -5.1311690018470326E+00    6.7705387531633168E+00
Cs   -5.4257360233278167E+00   -5.5820136294489027E+00    6.0738883319232109E+00
Cs   -6.3420943080608954E+00    1.0942384112552391E+01   -6.0933772416929139E+00
Br   -1.0828524162665810E+01   -9.0930784635310324E+00    9.8004861110176833E+00
Br   -8.4906755555869644E+00   -9.7082734530491610E+00    6.0593932088741695E+00
Cs   -1.1211249389686024E+01   -7.4437673275185503E+00   -5.8712640883949048E+00
Cs   -6.3106256692215901E+00    4.7505336993730021E+00   -6.2091627063704697E+00
Br   -8.1985047755199361E+00   -6.1685394828650510E+00    8.8938720487722431E+00
Cs    1.1801250363865821E+01    7.5803307465999019E+00    1.0703802708991063E+01
Br   -1.1850968777111644E+01    8.7369932366321059E+00    8.3848395996016940E+00
Br   -5.8174761561592927E+00   -3.5107313815703591E+00   -2.0608114803872102E+00
Cs   -2.9038242921605933E-02    1.0914442529591557E+00    1.1746992333600392E+01
Cs    1.2175760911465092E+01    6.4307810373867262E+00    2.8469534674512381E-01
Cs   -1.0657263243728259E+01   -6.9946296341685317E+00   -1.1190949771042131E+01
Cs    1.1467209514952197E+01    1.5443204783316606E+00    5.8949946436679275E+00
Cs   -1.1771897612969051E+01    1.0566041318910941E+01   -6.2291483355531678E+00
Cs    1.2232658078943404E+01   -1.0279150688988478E+01    6.0460207033383506E+00
Cs    5.9595355336154912E+00   -5.7122981242580826E+00   -1.1716624701743212E+01
Cs    6.9920889291222315E+00   -1.0431315601837476E+01    7.3031851136496977E+00
Cs   -5.3550283954915745E+00   -1.1114808160736342E+01    5.7424606366576814E-01
Cs    5.8157811838620450E+00   -1.1431937210679202E+01   -1.0913351805506631E+01
Cs    1.0763190895544087E+01    6.2619435446269156E+00   -6.2766855561407473E+00
Cs    1.0549643407830096E+01    1.3018876333946368E+01    4.8623851343898137E+00
Cs    1.0494300533457457E+01    5.8595118893827589E+00   -1.1711655602805759E+01
Cs    8.8055775630050415E-01   -7.1938053507127915E+00   -1.1512670860946352E+01
Cs   -1.1501804586543734E+01   -1.4866205398730330E+00   -5.9050762802501975E+00
Cs    5.6034796521964454E+00   -4.6643707678132769E+00    1.1434044388100975E+01
Cs    1.1972323812187719E+01   -4.4201467962303900E+00    6.5676300442779283E+00
Cs   -9.2083707266775470E+00   -1.3863946758491913E+01    1.1373404513174480E+01
Cs   -5.6805697542253308E-01   -8.5451365774492438E-01   -1.1276439996463697E+01
Cs   -1.3802223653865284E-01    1.1559028424149220E+01    4.2732970088360904E+00
Cs   -2.9804872883482280E-02    4.8723024869720968E+00   -1.1947362267062450E+01
Cs    6.3510759453446362E+00   -2.0789952772753956E-01   -6.3260488872083638E+00
Cs    5.6612922956790168E+00   -5.9053283807285624E+00   -5.3977414743483356E+00
Cs   -4.6322434970656365E+00   -1.1546733924160586E+01    5.9758552653313179E+00
Cs   -1.1601622787506548E+01   -2.6679551041257216E-01    6.5075288969108991E+00
Cs    5.3902222738717862E+00   -4.0488610674206932E-01   -1.1804564252046454E+01
Cs    6.2012257128295252E+00    1.1219257543801579E+01   -1.2457120936406477E+01
Cs   -2.1166213754408233E-01    6.5169636955742245E+00    1.1734901686657532E+01
Cs   -6.5517128196032743E+00    1.1276602094238992E+01    5.4684294699028140E+00
Cs    5.4741892462122426E+00    1.0754777168033572E+01   -7.2991856115869007E+00
Cs    5.3911488112172314E+00    5.3285077487145109E+00   -6.8036255610947975E+00
Cs    5.7033242452270008E+00    1.0412538939539059E-01    3.4297579778151205E-01
Cs    6.8317686924418410E+00   -4.8511307835695270E+00    4.5161728292082243E-01
Cs    6.2049071265686102E+00   -1.0763105951501386E+01    5.0632066753747806E-01
Cs    5.5315926835594409E+00    5.7304464296509607E+00   -1.3112780522152432E+01
Cs   -6.0624378967384622E+00    5.8786727989967620E+00    5.2268253931873332E+00
Cs   -5.5521376700297678E+00   -6.3834180869173816E+00   -1.1305630377789617E+01
Cs    5.7707362106516067E+00    6.3492664336753375E+00   -1.6729163749278855E-01
Cs    5.7942975501395351E+00    1.0254587845679013E+00    6.2487507981594872E+00
Cs    6.5847693033358912E+00   -5.0377426043274136E+00    6.2548860195141254E+00
Cs   -6.5063070652528259E+00    1.1431801735716782E+01   -3.5997604730667536E-02
Cs    1.1463291666819218E+01    4.3932756901521719E-01   -6.4263318119242699E-02
Cs   -5.7935804125284198E+00    1.1899453505548822E-01    1.3467555980898086E-02
Cs   -1.1127249365023912E+01    5.1672391955690546E+00    6.7281394731468014E+00
Cs   -4.8928556491258997E+00    6.6747146709872884E-01    1.1654260511755817E+01
Cs    5.7078300415083687E+00    1.2093006618018370E+01    6.1020003695269560E+00
Cs    5.8764608006122607E+00    7.0546709802032979E+00    5.1987685952248279E+00
Cs    8.2274143629873393E+00    1.9641167161113151E+00    1.2029290364292901E+01
Cs    5.0982142098655903E+00    1.1140620804644229E+01   -5.4151858746642456E-01
Cs    1.0948112498366223E+01   -4.4697720970372762E-01   -6.2839724785888702E+00
Cs    1.1658903458937798E+01   -6.7532165464918466E+00   -5.5609721948723401E+00
Cs    7.4035881581856859E+00   -9.7286758089281804E+00    1.2017821818021227E+01
Cs    1.1237749221597925E+01    1.1163404895222865E+01   -9.5422271969431383E-01
Cs   -1.1246357169225076E+01    2.4676552857694589E-01    1.1473521630451705E+01
Cs   -6.4588931287323472E+00    5.0219538708452083E+00   -1.1280112402645468E+01
Cs   -1.2319519533362037E+01    9.9073336357546395E+00   -8.1734522406863508E-01
Cs   -5.0096898611519514E+00   -5.8298521453144296E+00    1.1581437237566487E+01
Cs   -4.0895960520347696E+00   -1.1251742830015875E+01    1.2423556123052199E+01
Cs    5.7656304997818477E+00    7.6278480857079272E+00    1.1850972581708763E+01
Cs    1.2894391846299770E+01   -5.4647956538889400E+00   -1.7560622374716431E-01
Cs   -1.1408853836734044E+01   -1.0822159537301648E+00    4.1802832327949196E-01
Cs   -6.2016864015269073E+00    1.2154600294771456E+01   -1.0458580939749146E+01
Cs   -1.2240539514507999E+01    4.4515664878588490E+00    7.2390922885686693E-01
Cs   -1.1090698405741701E+01   -1.3290092407638134E+01   -4.5466945714884552E+00
Cs   -1.1666129680124019E+01   -6.5503257046661902E+00    5.0878459593630831E-01
Cs   -5.3403438726580070E+00   -6.0823308267816687E+00    2.8073305729061365E-01
Cs   -9.4526518785338123E+00   -1.2920004550183531E+01    5.2373610663852661E+00
Cs    1.1518919860718235E+01   -4.8005105749396391E+00    1.2435253824686196E+01
Cs    1.1534419653030303E+01    7.5112493548489825E+00    5.3481375739095327E+00
Cs   -1.2176613161961681E+01    4.7790443905111477E+00   -6.3873260171519348E+00
Cs   -6.3532578412798353E+00   -7.7420973830539175E-01   -6.0340369520717339E+00
Cs   -1.0372403751570509E+01   -1.2128002353561588E+01    6.1967747357976011E-01
Cs    1.1477036056403646E+01   -6.8027272695896626E+00   -1.1818959095270351E+01
Cs   -1.1941521023945658E+01   -1.3099156005787886E+01   -1.0811520782858537E+01
Cs    1.3563434768491628E-01    1.1928234693180045E+01   -1.0735986498148497E+01
Cs   -3.8959633836153591E-02   -1.2080553364601201E+01   -1.0059559998801246E+01
Cs   -1.9025745496395285E-01    1.0562894049314579E+01   -6.4093156718898756E+00
Cs   -6.4134187152153705E+00    1.2451718809156615E+01    1.0011518374153235E+01
Cs   -1.8331685555927812E-01   -1.1776591001574310E+01    4.4257594679578166E-01
Cs   -1.1720261862594988E+01   -7.4589405003193354E-01   -1.0831921801149186E+01
Cs   -1.1678616074463344E+01    1.0583530772124725E+01    5.4075012864718985E+00
Cs    6.6423415860090413E+00   -1.1637539785963803E+01   -5.7522979845036843E+00
Cs    1.1615099994912892E+01    1.4494867928455749E-01   -1.1748081267267137E+01
Cs    4.9782714422186453E-01    1.2240662493572080E+01    1.0656012688032785E+01
Pb    2.9920384383536147E+00   -2.9373163905453028E+00   -2.9560087283678422E+00
Pb    2.9369697594007476E+00   -8.8301088735179363E+00   -2.4512703397481612E+00
Pb   -8.5349442151046375E+00   -3.2706739454476468E+00    3.3411830016132131E+00
Pb   -2.9869852982508500E+00   -8.9706387980394204E+00   -2.4799988718540171E+00
Pb    2.4983164659002792E+00    8.6986324756875497E+00   -3.7175789352884316E+00
Pb    3.0922419047311025E+00    2.8228264797229019E+00   -3.1014267281090322E+00
Pb    3.3602229564161128E+00   -2.4430947838832981E+00    2.9017848170411051E+00
Pb    3.5376361287286286E+00   -8.2764397454443515E+00    3.6185090170408998E+00
Pb   -3.5560992700825031E+00    8.9393700931578053E+00    2.6808910336978475E+00
Pb    2.7537895382917976E+00    9.1555169875567533E+00    2.1952919617361717E+00
Pb    2.7736403572809767E+00    3.5066335971987175E+00    3.2388663368823227E+00
Pb    3.5797501146015045E+00   -2.0644701218286001E+00    8.6002051900336962E+00
Pb    3.6850993150112421E+00   -7.9948256441652932E+00    9.2595314298346096E+00
Pb   -3.0496845505507406E+00    2.8309260999695587E+00    3.0182333452987207E+00
Pb    2.9439373282484849E+00    9.6083277910749789E+00    8.2556574454103284E+00
Pb    3.1174071160101966E+00    3.8827218222447488E+00    9.0806997308917836E+00
Pb   -2.2900155704988889E+00   -2.4480987312733031E+00    8.8816933998299081E+00
Pb   -8.5037702478446171E+00   -9.0532553637603090E+00    3.2139456804251529E+00
Pb   -9.1252944073353834E+00    2.1387503633104958E+00   -2.9990226550760113E+00
Pb   -2.7235350932676692E+00   -3.2983423315819023E+00   -8.4898137301392502E+00
Pb   -2.4826292587225467E+00   -8.7407968152317554E+00    3.1083680129576861E+00
Pb   -3.2888140004741295E+00    8.5125673316409802E+00   -3.2432939713179723E+00
Pb   -1.9706160242117208E+00   -8.6015825504658139E+00    9.0165316362679562E+00
Pb   -8.9470323473589826E+00   -4.2917280032689700E+00   -2.3442009105822419E+00
Pb   -9.0659935766242707E+00   -9.9443012613496187E+00   -2.7181192036771038E+00
Pb   -2.8421792952621674E+00    2.7673118842162743E+00   -3.1520709082496596E+00
Pb   -8.2742043262994418E+00   -1.0053536036771600E+01    8.9553694818480647E+00
Pb   -8.9003647958358307E+00   -4.1376147617560193E+00   -8.1354505154516215E+00
Pb    8.7355677096818454E+00   -3.1761696471389675E+00   -8.9508808152050978E+00
Pb    9.1552120747126029E+00   -9.0316990669311359E+00   -8.9275264473653575E+00
Pb   -3.2678407960189353E+00   -9.3274262797821716E+00   -8.5896074881106035E+00
Pb   -9.4448815115574192E+00    7.9282871982703123E+00   -9.2325235953921023E+00
Pb    3.0317952769027783E+00   -3.5410130966615201E+00   -9.1202715478925604E+00
Pb    2.9557100108206447E+00   -9.2872674393776187E+00   -8.5795853543581266E+00
Pb   -3.3705799322909153E+00    2.6214314388848257E+00   -9.0056592096688455E+00
Pb    2.3978597759009586E+00    7.9698336154581781E+00   -9.8852916500954482E+00
Pb    2.8651633035598811E+00    2.2850154475088886E+00   -9.2558431609473590E+00
Pb    9.0915111585280499E+00   -2.7530210343271770E+00   -2.6464682339062833E+00
Pb    8.9029459228622212E+00   -8.4930746412852542E+00   -3.1464442172761204E+00
Pb   -8.3374008330248284E+00   -3.4173325643782024E+00    9.1108146546894613E+00
Pb    8.1817115791498569E+00    8.5100338806167564E+00   -9.5097153920214428E+00
Pb   -9.1870845971375221E+00    1.8113929627675638E+00   -8.7138737560858939E+00
Pb   -3.0814332099806396E+00    9.3695276127732416E+00    8.9423764729779371E+00
Pb    8.2144207055869494E+00    9.1870499943861166E+00   -3.4834671840824334E+00
Pb    8.8578295017628719E+00    3.2704500130514886E+00   -3.3037771528525535E+00
Pb    9.3135309032803342E+00   -2.3997187994994804E+00    3.2475346284726485E+00
Pb    9.6734438290216893E+00   -8.2036790178435020E+00    3.0963745054061067E+00
Pb    8.7229922527640475E+00    2.4550998317355965E+00   -9.4869871998330133E+00
Pb   -2.7352189518963441E+00    3.5104669087421079E+00    8.8230629268838356E+00
Pb    8.7224818325835489E+00    9.4789370488846565E+00    2.1194428149045863E+00
Pb    8.7357556138678465E+00    3.3319426618715129E+00    2.6962663450779312E+00
Pb    9.5695192420006308E+00   -1.8072445771017831E+00    9.1037529864008420E+00
Pb    9.5630370787464436E+00   -7.6051020330311259E+00    9.1176117933290453E+00
Pb    9.0182474154903449E+00    1.0259963848557458E+01    8.3400511369396728E+00
Pb    9.3265978256606950E+00    4.1870413660342223E+00    8.6570023529879450E+00
Pb   -8.3650524543434503E+00    2.9253656666867722E+00    8.9325665975242394E+00
Pb   -2.4481610534760407E+00   -2.7003742253839635E+00    3.2520764079749318E+00
Pb   -9.3529151284333896E+00    8.4024181926377413E+00    2.2563313068907886E+00
Pb   -8.9484610107211964E+00    7.9336354372760134E+00   -3.4507089860377187E+00
Pb   -8.8935714011769420E+00   -9.9781561300603219E+00   -8.7592193643904341E+00
Pb   -3.5250264682925909E+00    8.3923705423423680E+00   -9.0451219419886755E+00
Pb   -8.6781860349602855E+00    2.5734772960134289E+00    3.1412793381205022E+00
Pb   -9.2184813215054255E+00    9.0929668037722919E+00    8.3654473744524189E+00
Pb   -2.8860543060965917E+00   -3.0056368541938889E+00   -2.7394984873582384E+00
Br   -8.8320109283223536E-02   -2.9207109526848831E+00   -2.7700674809269801E+00
Br    3.0396348898992973E+00   -3.6389842399201875E+00   -5.7584456815496257E+00
Br    3.4126561166872027E+00   -1.6999607187851373E-01   -2.6158405122301951E+00
Br    1.6696317293672674E-01   -9.1246936390237074E+00   -2.5434714786722545E+00
Br    2.8611629356625730E+00   -8.4414573287681929E+00   -5.3356023603549971E+00
Br    2.9453163324888165E+00   -5.8009826832032134E+00   -2.4132059785211601E+00
Br   -3.0604236654486217E+00   -3.0571150459781760E+00   -5.5340992317788462E+00
Br   -8.8536678515693374E+00   -3.0160554069584506E+00    6.1318624584464612E+00
Br   -3.6388193324839202E+00   -2.0735766451706872E-01   -2.8781188652544780E+00
Br    3.0363298181791945E+00   -1.1847500619537213E+01   -2.5718648511896638E+00
Br    1.2044481463897236E+01   -2.3247204840062876E+00    2.6410294950379241E+00
Br   -5.7324188501826310E+00   -9.3645920325030314E+00   -2.2323281898745480E+00
Br   -1.1486088276045171E+01   -3.4813146770629952E+00    3.6122981928038609E+00
Br   -8.8234213551526537E+00   -3.7468947311666350E+00    4.6357453338017091E-01
Br    1.2364783550588587E+01   -8.0231476842159744E+00    3.6267429308201518E+00
Br   -5.6652181685990843E-01    8.3488932213230083E+00   -3.9110809372155875E+00
Br    2.6955880321134309E+00    8.3285639840567942E+00   -6.5765006171122886E+00
Br    1.5486292380966040E+00    1.1475062176892369E+01   -3.6500466774006748E+00
Br    2.1985605758242005E-01    2.1747113370850157E+00   -3.1574529116462879E+00
Br    3.3311607152757112E+00    2.3739080460465920E+00   -6.3601017536114748E+00
Br    2.4555421327384730E+00    5.7993535517719961E+00   -3.6078087691846479E+00
Br    5.4513678459224324E-01   -2.1540519308473773E+00    3.1037929495702734E+00
Br    3.2506821279500131E+00   -3.1290795822490671E+00    2.5321620421201587E-02
Br    3.1560316356025351E+00    5.1491740472311032E-01    2.9760718792064340E+00
Br    5.3700767287660300E-01   -8.4496996891332561E+00    3.4097263877928468E+00
Br    2.9113989368176783E+00   -8.3687694709905802E+00    5.9476327802712725E-01
Br    3.8352256984950510E+00   -5.3487930758735480E+00    3.0655230979502797E+00
Br   -6.3785087597141947E+00    8.1368887207058993E+00   -9.5318493842747234E+00
Br   -3.8861911929814843E+00    9.4646004274531421E+00   -1.1694863724986945E+01
Br    4.0793967499705701E+00   -1.1420370996788217E+01    4.0300045997082972E+00
Br   -3.3035893550926483E+00    1.1762961317797640E+01   -8.1903453607518184E+00
Br   -3.4622796661776518E+00    5.5920074370968695E+00   -8.7444992980639444E+00
Br   -8.6234741782044217E+00   -3.7171008902926789E-01    3.1932643943111203E+00
Br   -4.0091457382877040E+00   -8.8472584033432433E+00   -5.8214947098924945E+00
Br   -6.4086298575142608E+00    8.7478745796232058E+00    2.8909193407183404E+00
Br   -3.4501243146071139E+00    8.5517638725875376E+00   -3.9757766139472012E-01
Br   -3.0793536335511522E+00    1.1609737416416216E+01    2.1987744388677397E+00
Br   -5.3752036794115665E-01    8.9557945400436907E+00    2.3844388014916933E+00
Br    2.4104885402692666E+00    8.7605483036821052E+00   -8.9684461887683931E-01
Br    2.4035400608760038E+00    1.1824857587564193E+01    1.5067640098427528E+00
Br   -2.4392192553634828E-01    2.9063132996572709E+00    2.8835494114856748E+00
Br    2.5621558709681436E+00    3.1683350534570867E+00    1.6728669732888535E-01
Br    2.6563809872444768E+00    6.3856429207074958E+00    2.4362375433527985E+00
Br    6.0165885760869076E-01   -2.9283668666005886E+00    8.3832962649931115E+00
Br    3.2912381243235740E+00   -1.9586705212705477E+00    5.6912858880787498E+00
Br    2.7846155313079963E+00    8.7937278442981837E-01    8.6646462371844652E+00
Br    8.0326433485172088E-01   -7.8678931987458984E+00    8.9601680118220646E+00
Br    3.6358067217423353E+00   -7.9846710474392069E+00    6.4373897878260999E+00
Br    3.8387257380781223E+00   -5.0526059259359135E+00    8.7313664929854546E+00
Br   -1.1464397065924754E+01    2.3229180953407860E+00    3.2148655677424127E+00
Br   -8.6422066560136486E+00    2.3020224691292999E+00    5.8891141106828394E-02
Br    3.9520694316248548E+00   -1.0949776056515898E+01    8.8544887366701364E+00
Br   -8.9448688645620802E+00    5.4984910344067668E+00    3.1187080957497098E+00
Br   -8.4448375285795141E+00   -2.0979049394772448E-01    9.3925867540900683E+00
Br   -2.7941180678651918E+00   -6.3187224025284863E+00   -3.5745861430303778E+00
Br   -5.8855369265738045E+00    2.6449768703243479E+00    3.4590008110515957E+00
Br   -2.8233821655889799E+00    2.8419735829411357E+00   -6.1383956726214883E-02
Br   -3.3346956632677549E+00    5.8638143744243276E+00    2.7240917214596103E+00
Br   -1.9942805912499209E-01    9.1903440480528165E+00    8.6196880012646435E+00
Br    2.6795864507172631E+00    8.6974291303628846E+00    5.3648673061891756E+00
Br    2.3484361910058826E+00    1.2407715687902426E+01    7.3994772908213307E+00
Br    1.3856332058265633E-01    3.8552828908716323E+00    9.3744177826370176E+00
Br    2.5889373661526194E+00    3.5497435317419175E+00    6.0166319211783268E+00
Br    3.2517196673343496E+00    6.4431321797841736E+00    8.1824681304790445E+00
Br   -5.7151891722561512E+00   -3.1796166469944209E+00    8.4389805411474956E+00
Br    3.3037080825242380E+00   -2.0172163399181646E+00    1.1513211850684886E+01
Br   -2.4345935199962243E+00   -1.6799573656998046E+00    6.2298790289952670E+00
Br   -2.4583408395187578E+00    4.1625892900479738E-01    9.3376339677301772E+00
Br   -2.7795308828734666E+00   -1.1772570299025523E+01   -1.4141297338242187E+00
Br    3.9744071135118131E+00   -7.4610358617002790E+00    1.2236170778981860E+01
Br   -1.2160467604481184E+01    1.8939650466360618E+00   -2.4897173969266637E+00
Br   -2.8001637713055274E+00   -1.1426778409078914E+01    2.9477102593524589E+00
Br   -1.1696000972480579E+01   -3.7486202952643382E+00   -1.6111248357717043E+00
Br    2.6731170780809808E+00    9.4748240420952889E+00    1.0974309920461847E+01
Br   -8.7881126555911688E+00   -4.4577686335223241E+00   -5.3327784806719976E+00
Br   -9.1082389666752110E+00   -7.8431910810127681E-01   -2.3866300664951430E+00
Br    2.8052090734977897E+00    4.6138921447228718E+00    1.1984641396456013E+01
Br   -6.1111273321837700E+00    7.8251852213593560E+00   -2.9088121768213964E+00
Br   -3.7991642467527318E+00    8.3813621442860207E+00   -6.1598148117069371E+00
Br   -4.4284045245312953E+00    1.1434412797879389E+01   -3.1031235371771486E+00
Br   -5.9650481775480566E+00    2.5796426107874701E+00   -3.4427186506329299E+00
Br   -1.1226160430442764E+01   -1.0428773254775408E+01    3.3278883999207398E+00
Br   -3.3767529179975573E+00    2.5148470466877062E+00   -6.1435615006852586E+00
Br   -5.7413330632712949E+00   -3.7561470047914121E+00   -8.4384004079152071E+00
Br   -3.3840397616226925E+00   -3.0818929832015511E+00   -1.1376176548147370E+01
Br   -3.1660953642997627E+00   -3.7340297323974975E-01   -8.5766479040581540E+00
Br   -2.9329714174263253E+00    3.5718043681855614E+00    1.1661577480829116E+01
Br   -5.5024984988339183E+00   -9.1248233787884416E+00    8.7015608811413152E+00
Br   -1.8365277618055660E+00   -8.7879158234866850E+00    6.1594770610770082E+00
Br   -2.0589476856752320E+00   -5.4974279432245101E+00    8.5432771804878165E+00
Br   -9.2139986692963092E+00   -9.1732843194928790E+00    5.4946218805185409E-01
Br   -9.5567333918727986E+00   -6.4201773768071755E+00    3.5609961620516626E+00
Br   -8.4569226634114241E+00    9.4848239468994961E+00    1.1024853527925503E+01
Br    1.1665160588342147E+01    8.8793329610947023E+00    2.4551711443692574E+00
Br   -7.3383416431828481E+00   -1.0865230273754554E+01    1.1813848687158870E+01
Br    1.0558575892592456E+01    1.0645696195472009E+01   -4.2509770904124728E+00
Br    1.1421725214641107E+01    4.0333273042961109E+00    2.4679409391027263E+00
Br   -7.9038577226816562E+00    3.4860948917103194E+00    1.1638299054763285E+01
Br   -1.1644335440121749E+01   -4.4359806407862861E+00   -8.1363669823343585E+00
Br    1.2390792428113457E+01   -1.7912761501527141E+00    8.7939710514399803E+00
Br   -5.3798988005715263E+00   -8.2376981542303351E+00    3.0268652904013833E+00
Br    5.8965512160466869E+00   -3.1817644466919828E+00   -8.8869996937347704E+00
Br    7.9976442397862098E+00   -2.9122907414415313E+00   -1.1904105655041265E+01
Br    1.2530388278860281E+01   -7.2459550123026633E+00    7.8763358241666968E+00
Br    8.5448277632179597E+00   -2.7956495353169264E-01   -9.0189747203803829E+00
Br   -8.0062619101337607E+00   -1.2761571369206571E+01    8.4847404253284431E+00
Br   -2.5423590479542133E+00   -8.2908094076033159E+00    2.3941289608960092E-01
Br   -2.3899923103523482E+00   -5.4981166737005287E+00    3.7050238988691753E+00
Br    5.9649022559394131E+00   -8.8207199743417419E+00   -8.8803171533289706E+00
Br   -5.8417772872107880E+00   -1.0129108197923243E+01   -9.3707365482228866E+00
Br    8.8226427424076839E+00   -8.9401864454035831E+00   -1.1920320846701861E+01
Br    9.2261075433051616E+00   -5.9228337191793443E+00   -9.2516353375136156E+00
Br   -1.8165993087050933E+00   -1.1440942499862489E+01    8.5706271834694281E+00