 # Version information for this restart file 
 # current date 2021-06-17 12:40:50.436
 # current working dir /user/ub2042/exercises/2_fitting/MM_MD_workdir/md_settings.003
 # Program compiled at                              Thu Apr 22 21:44:59 EDT 2021
 # Program compiled on                cpn-k07-07-02.compute.cbls.ccr.buffalo.edu
 # Program compiled for                                                    local
 # Source code revision number                                       git:36754bb
 &GLOBAL
   PRINT_LEVEL  LOW
   PROJECT_NAME cp2k
   RUN_TYPE  MD
 &END GLOBAL
 &MOTION
   &MD
     ENSEMBLE  NVT
     STEPS  10000
     TIMESTEP     2.4999999999999996E+00
     STEP_START_VAL  9000
     TIME_START_VAL     2.2499999999996515E+04
     ECONS_START_VAL    -1.4031592531677251E+01
     TEMPERATURE     3.0000000000000000E+02
     &BAROSTAT
       PRESSURE     1.0100000000000000E+00
       TIMECON     9.9999999999999982E+03
     &END BAROSTAT
     &THERMOSTAT
       TYPE  CSVR
       &CSVR
         TIMECON     9.9999999999999982E+03
         &THERMOSTAT_ENERGY
              -2.4755534412127134E-01
         &END THERMOSTAT_ENERGY
         &RNG_INIT
Wiener process for Thermostat # 1        1 F T F   1.8360017598728720E-01        2587283350.0         742073417.0         736784705.0        2193663472.0        2811323491.0        3638979434.0             12345.0             12345.0             12345.0             12345.0             12345.0             12345.0             12345.0             12345.0             12345.0             12345.0             12345.0             12345.0
         &END RNG_INIT
       &END CSVR
     &END THERMOSTAT
     &AVERAGES  T
       &RESTART_AVERAGES
         ITIMES_START  1
         AVECPU     1.7542089074539597E-02
         AVEHUGONIOT     0.0000000000000000E+00
         AVETEMP_BARO     0.0000000000000000E+00
         AVEPOT    -1.4396680332359084E+01
         AVEKIN     4.9749451757588736E-01
         AVETEMP     2.5236330300589520E+02
         AVEKIN_QM     0.0000000000000000E+00
         AVETEMP_QM     0.0000000000000000E+00
         AVEVOL     6.7483345830912245E+06
         AVECELL_A     1.8897261328855686E+02
         AVECELL_B     1.8897261328855686E+02
         AVECELL_C     1.8897261328855686E+02
         AVEALPHA     9.0000000000000000E+01
         AVEBETA     9.0000000000000000E+01
         AVEGAMMA     9.0000000000000000E+01
         AVE_ECONS    -3.8677478485820167E+00
         AVE_PRESS     0.0000000000000000E+00
         AVE_PXX     0.0000000000000000E+00
       &END RESTART_AVERAGES
     &END AVERAGES
     &PRINT
       &ENERGY  SILENT
         &EACH
           MD  10
         &END EACH
       &END ENERGY
     &END PRINT
   &END MD
   &PRINT
     &TRAJECTORY  SILENT
       &EACH
         MD  10
       &END EACH
     &END TRAJECTORY
     &CELL  SILENT
       &EACH
         MD  10
       &END EACH
     &END CELL
     &VELOCITIES  SILENT
       &EACH
         MD  10
       &END EACH
     &END VELOCITIES
     &FORCES  SILENT
       &EACH
         MD  10
       &END EACH
     &END FORCES
     &RESTART  SILENT
       &EACH
         MD  10
       &END EACH
     &END RESTART
   &END PRINT
 &END MOTION
 &FORCE_EVAL
   METHOD  FIST
   &MM
     &FORCEFIELD
       VDW_SCALE14     1.0000000000000000E+00
       EI_SCALE14     1.0000000000000000E+00
       SHIFT_CUTOFF  T
       DO_NONBONDED  T
       IGNORE_MISSING_CRITICAL_PARAMS  T
       &SPLINE
         R0_NB     2.5000000000000000E-01
       &END SPLINE
       &NONBONDED
         &LENNARD-JONES
           ATOMS Br Br
           EPSILON     1.2630795322675199E+02
           SIGMA     3.6900000000000004E+00
         &END LENNARD-JONES
         &LENNARD-JONES
           ATOMS Cs Pb
           EPSILON     8.6920055954630968E+01
           SIGMA     3.6699999999999999E+00
         &END LENNARD-JONES
         &LENNARD-JONES
           ATOMS Cs Cs
           EPSILON     2.2644852172126850E+01
           SIGMA     4.5300000000000002E+00
         &END LENNARD-JONES
         &LENNARD-JONES
           ATOMS Pb Pb
           EPSILON     3.3363415533600227E+02
           SIGMA     5.9000000000000004E+00
         &END LENNARD-JONES
         &LENNARD-JONES
           ATOMS Br Cs
           EPSILON     5.3481070753900497E+01
           SIGMA     3.6300000000000003E+00
         &END LENNARD-JONES
         &LENNARD-JONES
           ATOMS Br Pb
           EPSILON     2.0528187276773045E+02
           SIGMA     2.9800000000000000E+00
         &END LENNARD-JONES
       &END NONBONDED
       &CHARGE
         ATOM Cs
         CHARGE     4.1739999999999999E-01
       &END CHARGE
       &CHARGE
         ATOM Pb
         CHARGE     8.3479999999999999E-01
       &END CHARGE
       &CHARGE
         ATOM Br
         CHARGE    -4.1739999999999999E-01
       &END CHARGE
     &END FORCEFIELD
     &POISSON
       PERIODIC  XYZ
       &EWALD
         EWALD_TYPE  SPME
         GMAX  62 62 62
         O_SPLINE  4
       &END EWALD
     &END POISSON
     &PRINT
       &FF_INFO  LOW
         SPLINE_INFO  F
         SPLINE_DATA  F
       &END FF_INFO
     &END PRINT
   &END MM
   &SUBSYS
     &CELL
       A     1.0000000000000001E+02    0.0000000000000000E+00    0.0000000000000000E+00
       B     0.0000000000000000E+00    1.0000000000000001E+02    0.0000000000000000E+00
       C     0.0000000000000000E+00    0.0000000000000000E+00    1.0000000000000001E+02
       PERIODIC  XYZ
       MULTIPLE_UNIT_CELL  1 1 1
     &END CELL
     &COORD
Cs    3.8395577235773953E-01   -1.1106807860084460E+00   -5.3350677540632896E+00
Cs    7.1244343111057085E-01   -6.7478458128076468E+00   -4.9425516539224770E+00
Cs    2.3071850768984241E+00   -1.2767189501887838E+01   -2.9484812752505145E+00
Cs   -4.6035308257842278E+00   -7.7823110910287090E+00   -4.5122306600969813E+00
Br   -7.4559471719832349E+00   -1.4160517303607781E+01   -7.8265924166320602E+00
Br    1.1886965096408849E+01   -3.4984536878733801E+00   -1.0619518256740474E+01
Br   -3.4647654282571421E+00   -8.9437529538274219E-02   -1.1546098490141400E+01
Cs   -1.9197707109899358E+00    4.6928391982710602E+00   -7.1481256661792880E+00
Cs    1.2020578801943907E-01    1.0941550296766595E-01   -2.1515139990511389E-01
Cs    1.0227682452919062E+00   -5.7978722765338686E+00    6.3548365294786402E-01
Br   -5.3636131324602179E+00   -2.8420800147183152E+00    4.1387346948717463E+00
Cs   -1.0150833064795739E+01   -6.4399475675257358E+00    1.2463320753515719E+01
Cs    1.2090788256998817E+01   -9.7853648116027081E+00    8.7896743145297840E-01
Cs   -7.0805394399539372E+00    4.4934643066201501E+00   -4.1401735604172257E-01
Cs   -1.7429667179133723E+00    1.1089067223308312E+01   -2.1304533330663640E+00
Cs   -7.2754359046175399E-01    6.7198327944969538E+00   -1.0294938268353304E+00
Cs    2.6461645153848268E-01    1.2694828329137973E+00    6.0462638553253578E+00
Cs    1.9885068220949731E+00   -4.0388095015599976E+00    6.3575042769643968E+00
Cs    2.5653100608054396E+00   -9.8673443934679899E+00    7.0998080896021918E+00
Cs   -6.0651884845755264E+00    6.6634628455950313E+00    1.1298143561669351E+01
Cs   -5.9861038954515520E+00   -2.2525459815371542E+00   -1.0916604921104121E+01
Cs   -3.8374003842140301E+00   -1.3305631236383043E+01   -4.2142597314051997E+00
Cs   -4.7685030523463086E+00   -3.0954933739740526E-01    5.8729764804425182E+00
Br   -2.0968035716003781E+00   -3.1295148929934249E+00    7.9393279344637979E-01
Cs   -6.7370900961232560E-01    6.9585382597795649E+00    4.4672273949721584E+00
Br    1.2712415131560714E+01   -8.6838096955807611E+00   -7.9350816628191962E+00
Cs    1.2489366619848739E+00   -3.2753403097183025E+00    1.2683946041410815E+01
Br   -2.1488199812326756E+00    5.3683899599544771E-01    3.1618720954155841E+00
Br   -6.6889968941909190E+00   -3.4395556943572081E+00    1.2879412526772036E+01
Cs    8.6726798685108655E+00    1.1527932467032402E+01   -9.7952679881727995E+00
Cs   -9.8225999977049749E+00   -6.3561236560417820E+00    8.0368316000084317E+00
Cs   -4.8173670735382270E+00   -5.4463372428079762E+00    7.6090973441446330E+00
Cs   -7.6948526909673785E+00    9.8599855053581127E+00   -6.6127660890158300E+00
Br   -9.2070794171973844E+00   -9.6465712018637095E+00    1.1050930916001933E+01
Br   -7.2216290943975290E+00   -9.0016977298972751E+00    8.0367637568646106E+00
Cs   -1.0102363751312895E+01   -7.7348086373841873E+00   -3.4332327823262090E+00
Cs   -6.7536200618747371E+00    4.2506402379678239E+00   -6.0276820658400991E+00
Br   -7.1298189220190524E+00   -6.0640425331401264E+00    1.0510951518798404E+01
Cs    1.0785882155254066E+01    9.4346468919841797E+00    8.7700132212416442E+00
Br   -1.3098107500622593E+01    8.0558253192610199E+00    8.9431500681866734E+00
Br   -5.5697281429061931E+00   -5.1948248068251823E+00   -1.6080739446618504E+00
Cs    6.2538244958697564E-01    2.3211285862122790E+00    1.0675687176044267E+01
Cs    1.0516050646099876E+01    7.5238452134087792E+00   -1.5126682122781980E+00
Cs   -1.0638587844884828E+01   -7.9431200322839235E+00   -9.7309730444054026E+00
Cs    1.1931569964209013E+01    3.5470331948395590E+00    4.7094610006877486E+00
Cs   -1.2542509366095114E+01    9.3497001739175882E+00   -6.3087209778398767E+00
Cs    1.4383822849592232E+01   -8.4610793801208448E+00    6.3317760595601662E+00
Cs    7.2435367876486767E+00   -7.0011332423023394E+00   -1.1114334200577575E+01
Cs    8.2083728432754697E+00   -9.2716370308519256E+00    6.8971179162835137E+00
Cs   -3.5072048496007642E+00   -1.2538493137193186E+01    1.8523168610288745E+00
Cs    7.2485202768308135E+00   -1.3528022184966323E+01   -9.4558310561101671E+00
Cs    9.6569479607681252E+00    5.2834792382682023E+00   -7.7773891646893913E+00
Cs    1.0349305162864139E+01    1.2517681021432779E+01    3.1899492194766705E+00
Cs    9.7087510506556267E+00    5.5686344861119634E+00   -1.3259796466974972E+01
Cs   -1.2997161315547007E-01   -7.4202980005080930E+00   -1.0140281331967971E+01
Cs   -1.2523760227475856E+01   -1.0985599876677372E+00   -4.9764304029934436E+00
Cs    6.9914276622229812E+00   -2.5194826276973870E+00    1.1492254723858487E+01
Cs    1.3389133732861426E+01   -2.9107916856284186E+00    5.7011256136579735E+00
Cs   -4.2454443789206859E+00   -8.0651382258743407E+00    1.6619660351532264E+01
Cs   -6.4408212226809991E-01   -1.7644687234453240E+00   -1.2882276882579665E+01
Cs   -1.1337188134178975E+00    1.2372076455616753E+01    3.3259178341854927E+00
Cs   -1.7620426295742937E+00    3.8881597478479204E+00   -1.2697925662852620E+01
Cs    5.6036909337129499E+00   -1.2836643144692789E-01   -6.0249228251527507E+00
Cs    6.4349749459256289E+00   -6.3186657016987242E+00   -5.4039745278970583E+00
Cs   -3.1364565508419808E+00   -1.0733634656959865E+01    7.2303565415908668E+00
Cs   -1.0615107176232963E+01   -4.9665085273882598E-01    6.9920590740766695E+00
Cs    6.1582440346035749E+00   -1.2151846333621565E+00   -1.2491481476320239E+01
Cs    3.7404879706863676E+00    9.5840332237266601E+00   -1.4770716363380869E+01
Cs    4.8728401187470666E-01    7.7944658713250989E+00    1.0687178988924876E+01
Cs   -7.9658262166891314E+00    1.1027340569696246E+01    4.4886812202730235E+00
Cs    3.8518580501013897E+00    1.0616764772666222E+01   -8.0806264888899229E+00
Cs    4.2494927270463450E+00    5.8994039633157769E+00   -6.9119575262214425E+00
Cs    5.9754515707041094E+00    4.4203122509322906E-01    3.5396023591478705E-02
Cs    6.5359505853169937E+00   -4.9118367894904100E+00   -4.7234519350657610E-02
Cs    7.5264996064006153E+00   -1.0562981792968676E+01    1.0975191111180342E+00
Cs    3.4734965687979917E+00    4.3380094143262671E+00   -1.2911957333768610E+01
Cs   -6.4194635550714017E+00    6.2448949844207364E+00    5.4279354074099180E+00
Cs   -4.9355117768514765E+00   -8.0769165089827091E+00   -1.0053458143307408E+01
Cs    4.1010458751383672E+00    6.5337755944220639E+00   -1.3046920274686804E+00
Cs    6.3510504749877610E+00    1.4556859056820386E+00    5.7072869090952123E+00
Cs    7.4841207750566268E+00   -3.3506304820987656E+00    6.4215424353413351E+00
Cs   -8.1103350875321976E+00    9.7518752411540746E+00   -3.5347872230095673E-01
Cs    1.0929077127000578E+01    1.9907648171436516E+00   -1.1621859259210361E+00
Cs   -5.6093429196447300E+00   -4.2354773017766473E-01   -5.5925403528147580E-02
Cs   -1.1985671487515914E+01    4.7454317397615267E+00    6.6099120683109813E+00
Cs   -5.1061239053430283E+00    4.9417971775728092E-01    1.1612031210306469E+01
Cs    3.0894881598317201E+00    1.3764714251044905E+01    4.0843378792537210E+00
Cs    5.3275096390333747E+00    7.9294249312355367E+00    4.6387205885647491E+00
Cs    7.3829255503775242E+00    2.6006870279687058E+00    1.0574918876634271E+01
Cs    4.0777822475469430E+00    1.3245889032862188E+01   -1.6062827643664215E+00
Cs    1.1044188237477838E+01    8.0594218825778585E-01   -7.3377215552840491E+00
Cs    1.3136536568544518E+01   -6.3860487804274442E+00   -4.9432793498187415E+00
Cs    9.3732628964467750E+00   -8.2748906075127096E+00    1.2243380280310213E+01
Cs    9.4992748890576433E+00    1.2370773657542234E+01   -2.9981952296783714E+00
Cs   -1.1156404406403793E+01    6.0701545941136672E+00    1.1657644308660148E+01
Cs   -7.2300104810851078E+00    3.5032358248211817E+00   -1.2792645002212511E+01
Cs   -1.3623875245965991E+01    8.7075386633248666E+00   -7.9567563098452698E-01
Cs   -4.1093439177484168E+00   -5.7092890940648306E+00    1.1965351829811738E+01
Cs   -1.9854732154727570E+00   -1.0831971219293836E+01    1.2284487662490816E+01
Cs    5.9565600553801739E+00    8.9594338736740742E+00    1.0619213454765932E+01
Cs    1.1992371052860220E+01   -4.5195198328847948E+00    3.3624669822631553E-01
Cs   -1.0863389511432121E+01   -2.0942407598280544E+00    1.4244608249080601E+00
Cs   -8.3299076399899246E+00    9.3368811286006554E+00   -1.2908671706715754E+01
Cs   -1.2411926661730540E+01    3.0333062407733444E+00    6.6917091340116819E-01
Cs   -9.4121026298193176E+00   -1.3996250353233721E+01   -3.9871121056097345E+00
Cs   -1.0400321755181119E+01   -7.5620708373675907E+00    2.2272261268477309E+00
Cs   -4.9900218616785024E+00   -6.9076848405270210E+00    1.8439530698869777E+00
Cs   -1.0261673596663082E+01   -1.1469718125396936E+01    8.6498093541475320E+00
Cs    1.3080825079532692E+01   -2.1957916585529009E+00    1.1365255496815744E+01
Cs    1.0457984823572440E+01    8.5060510271147667E+00    3.7357812582769978E+00
Cs   -1.3001888191256038E+01    4.0657052539601795E+00   -6.2442326243742947E+00
Cs   -6.6349930083729394E+00   -1.7946430595730951E+00   -4.9344583452953401E+00
Cs   -8.3574275739964428E+00   -1.4040662488599983E+01    3.1530371468306266E+00
Cs    1.3174667166232680E+01   -6.7711898263123231E+00   -1.0742337070821007E+01
Cs   -4.8794864081452554E+00   -1.2634054501806165E+01   -1.0925291159580125E+01
Cs   -2.2795353417080539E+00    9.7251568631233738E+00   -1.1910925939211484E+01
Cs    1.3509142893135793E+00   -1.3032115682549190E+01   -8.9158946041694449E+00
Cs   -1.7424401894667632E+00    1.1026210717169684E+01   -7.2341556806286613E+00
Cs   -7.6031223729517921E+00    1.2254384649534892E+01    9.5856598571660001E+00
Cs    2.7004187061153995E+00   -1.1234596120838923E+01    1.6795588985584531E+00
Cs   -1.1992160095401253E+01   -2.5775690140735397E+00   -9.7529534889608360E+00
Cs   -1.4180516678703643E+01    9.7464155808202637E+00    6.1603390782897174E+00
Cs    7.4328843456299509E+00   -1.1625564801447434E+01   -5.0103554109710888E+00
Cs    1.0538193371000942E+01   -7.3336390613936442E-01   -1.2231672922485613E+01
Cs   -1.5832021633055375E+00    1.2788024715439002E+01    9.1767399085778205E+00
Pb    3.0678329893592307E+00   -2.7463161247295300E+00   -2.7333495740530038E+00
Pb    4.2371914079170692E+00   -8.8688308981396524E+00   -1.8274732829660583E+00
Pb   -8.2054516625007992E+00   -3.9912160732542135E+00    4.1672712924011179E+00
Pb   -1.6753363968429289E+00   -9.8266294592695242E+00   -1.2964266805340037E+00
Pb    1.4270414937901026E+00    8.5713864563265059E+00   -4.7367223156101730E+00
Pb    1.9590965514425420E+00    2.9471202839442876E+00   -3.8787599202490632E+00
Pb    3.6117319745748220E+00   -1.7224040698714673E+00    2.9944129472221617E+00
Pb    4.5839883374886039E+00   -7.4248237874306708E+00    4.5207384218352926E+00
Pb   -4.3723795209269500E+00    8.8452004561532753E+00    2.2127831416840218E+00
Pb    1.6024641882245099E+00    9.7185178061065187E+00    1.1376819847610986E+00
Pb    2.2982434192097640E+00    3.8908786609846335E+00    1.8625278440548820E+00
Pb    4.0094455068315673E+00   -9.2084829979293326E-01    8.9009733677058005E+00
Pb    4.9798739880983192E+00   -6.4605691226179625E+00    1.0411637112533816E+01
Pb   -3.3987349623350762E+00    3.1756336076470917E+00    2.5662314385573355E+00
Pb    1.5217710910168696E+00    1.0640854703579315E+01    7.3083080488728855E+00
Pb    3.0598238404656115E+00    4.8381204760652290E+00    7.7899148096279207E+00
Pb   -1.6163389303280948E+00   -1.8216849882302941E+00    9.4855398288561403E+00
Pb   -7.1865950392264351E+00   -9.4776279862387778E+00    5.1824155913944212E+00
Pb   -9.3071846289083560E+00    9.3724966433723356E-01   -2.1470584912317845E+00
Pb   -2.8159724708498035E+00   -4.5399563322869909E+00   -8.0611743512038139E+00
Pb   -1.3112428758696393E+00   -8.4943472394879418E+00    4.4849996288913072E+00
Pb   -4.1798925880330504E+00    7.8882823788767933E+00   -4.0553951364247309E+00
Pb   -7.9377043645373424E-01   -7.6945823360168779E+00    1.0229706077181953E+01
Pb   -8.4443308439245595E+00   -4.8080647888647441E+00   -1.3915021916367694E+00
Pb   -7.2126365504853576E+00   -1.1030411166747959E+01   -7.9602907099596032E-01
Pb   -3.5905902803081609E+00    1.4026659284458840E+00   -3.1861583376877145E+00
Pb   -6.3971958786218091E+00   -9.3969166727998630E+00    1.0831926668730720E+01
Pb   -8.9456135011457452E+00   -5.1367134616401104E+00   -7.3330928977158418E+00
Pb    9.0543073576467297E+00   -3.5310239155612488E+00   -9.2894499981440148E+00
Pb    9.9752163001287961E+00   -9.3220633749641966E+00   -8.2910342339646981E+00
Pb   -1.9837658722959215E+00   -1.0384166287888169E+01   -7.4869268184825115E+00
Pb   -1.0487570171066411E+01    6.3248423375144602E+00   -9.3632418723399358E+00
Pb    3.0789713453720013E+00   -4.2331813924933979E+00   -8.7745142920232553E+00
Pb    3.9353552366455444E+00   -1.0033976220270899E+01   -7.7209604027941827E+00
Pb   -3.8970630767944598E+00    1.1345493735074903E+00   -9.0209536875475482E+00
Pb    1.1489197665419097E+00    7.4241746979770999E+00   -1.0778649243968285E+01
Pb    1.6880239827762449E+00    1.4024468825074368E+00   -9.4270593385214205E+00
Pb    9.0554033678642618E+00   -3.0369171851925141E+00   -3.4513580735445148E+00
Pb    1.0140880374343570E+01   -8.5747001989193681E+00   -2.4381209750810560E+00
Pb   -8.0251595683142085E+00   -3.1505536908865510E+00    1.0252324697063585E+01
Pb    6.7181913435593499E+00    8.6726744896724952E+00   -1.1395474645153628E+01
Pb   -9.4977979096037295E+00    7.5493410215112278E-01   -8.1672124167269260E+00
Pb   -4.6039686810908380E+00    9.6503621878260688E+00    8.0696716257638865E+00
Pb    7.3911571920417263E+00    9.0316629108151414E+00   -5.3621249653075189E+00
Pb    7.8741445375820520E+00    3.4113882007392236E+00   -4.1983545320304865E+00
Pb    9.6592216084635449E+00   -1.0161142800404164E+00    2.5591261514600996E+00
Pb    1.0229689525274580E+01   -6.7875125324556871E+00    3.5345287828878380E+00
Pb    7.8480684491154440E+00    2.4545154322075402E+00   -1.0605283702554789E+01
Pb   -2.9108019945967238E+00    3.8699792973409779E+00    8.3465965013406560E+00
Pb    7.6027500619578054E+00    1.0596082171774055E+01    3.2813552346325170E-01
Pb    7.9202876328348815E+00    4.7276739033277639E+00    1.8218456499587870E+00
Pb    1.0149706617812164E+01    1.3715082891465100E-01    8.3169485903431983E+00
Pb    1.1212079985915421E+01   -5.7645586491226997E+00    9.2153548776401326E+00
Pb    7.4399615894056952E+00    1.1631711746635251E+01    6.3317357357773396E+00
Pb    8.7398071019332289E+00    5.7074559887192065E+00    7.6153588343267415E+00
Pb   -9.1202517076955907E+00    2.6179625953292280E+00    9.7916197213706671E+00
Pb   -2.3377957472306106E+00   -2.6326679477843422E+00    3.7535231638019377E+00
Pb   -1.0491796089863177E+01    7.6463680841690236E+00    2.8605886826528786E+00
Pb   -9.9202143354838430E+00    6.8588527992930697E+00   -3.2970837889340827E+00
Pb   -7.7680246201480267E+00   -1.1497622333451476E+01   -6.8724265843326711E+00
Pb   -4.6266252098805101E+00    6.9654936964026524E+00   -9.9054701551112778E+00
Pb   -9.0005511845413704E+00    2.0506928118488177E+00    3.5057816304076983E+00
Pb   -1.0300969883577274E+01    8.7660124766871022E+00    8.4689135875075277E+00
Pb   -2.7270945958470572E+00   -4.0394405046016058E+00   -2.1062454459683324E+00
Br    2.3866311444748561E-01   -3.3513999923124986E+00   -2.7902515588188548E+00
Br    3.4585275245475544E+00   -3.6541646363803006E+00   -5.7799105660218562E+00
Br    3.1392978266284430E+00    2.0237392553309358E-01   -3.4683642687796734E+00
Br    1.1704402018968560E+00   -9.8503930552219678E+00   -1.8064781704421926E+00
Br    4.5623706197525493E+00   -9.9043555733740138E+00   -4.8289535043993697E+00
Br    3.6483489173401864E+00   -5.9938884416822242E+00   -2.6843385745810417E+00
Br   -3.0550777238810998E+00   -4.2080450724998073E+00   -4.9068749291422291E+00
Br   -8.5864817874189594E+00   -3.5052653298520502E+00    7.0210149390490315E+00
Br   -3.5235571946093938E+00   -1.3754516784734103E+00   -2.3684984596567040E+00
Br    4.8210532297886743E+00   -1.1446448717261823E+01   -9.4845472212732473E-01
Br    1.2080289989358599E+01   -1.5924430219515825E-01    1.5335518082380681E+00
Br   -4.4881305235170972E+00   -9.8091618348485632E+00   -1.0165933435013852E+00
Br   -1.0861250805716455E+01   -4.3665918495177518E+00    3.9309083650638570E+00
Br   -7.9096392988729054E+00   -4.6716242441799833E+00    1.4769993938417729E+00
Br    1.3085074444321981E+01   -7.2953354556601209E+00    2.5747111782154239E+00
Br   -1.6162015642654228E+00    8.6386591462875710E+00   -4.5478691275831071E+00
Br    1.1557061796438970E+00    8.0842078308469034E+00   -7.7712562624888157E+00
Br    1.0798133353802710E+00    1.1681654020179085E+01   -5.2466829309978600E+00
Br   -8.2726032308848974E-01    1.4455668750319273E+00   -3.7853011117815858E+00
Br    2.1464960777089912E+00    2.4541985531990407E+00   -6.7623818757973178E+00
Br    1.1814240117045260E+00    5.7820724575251301E+00   -3.7890732403160707E+00
Br    7.2688286717387729E-01   -2.0902653256929917E+00    3.7377775180596591E+00
Br    3.7641007722079678E+00   -1.8251670382863352E+00    8.5053283871573144E-03
Br    3.1278970364954599E+00    1.2756521650312984E+00    2.2056374054699157E+00
Br    1.7761706466766269E+00   -8.3564354606613467E+00    3.9930763433260861E+00
Br    3.3985481986408854E+00   -7.9165568478916253E+00    7.0001797668805410E-01
Br    3.9465296794623366E+00   -4.6933937785165893E+00    3.3470616757420282E+00
Br   -7.6462616273656225E+00    6.9689327969124486E+00   -9.2419023427253997E+00
Br   -5.0557139564134976E+00    7.9912102697893665E+00   -1.2615048073380187E+01
Br    4.9107432724143498E+00   -1.0240303676285317E+01    4.0621740688845493E+00
Br   -4.5312125248523660E+00    1.0014210439658399E+01   -9.4523680633007530E+00
Br   -4.5004950629613134E+00    4.1653860091624093E+00   -1.0448879734048143E+01
Br   -8.8962759675223921E+00   -8.5554366631906742E-01    3.9116566762533536E+00
Br   -1.5772084602718803E+00   -1.0898602224007099E+01   -4.6364374874354590E+00
Br   -7.3105351234439304E+00    8.4075239808872251E+00    2.5714793482713194E+00
Br   -3.9371876540687443E+00    8.2754998924840244E+00   -1.0195721821259607E+00
Br   -5.0850119234519360E+00    1.1375294306701059E+01    1.1962640636341610E+00
Br   -1.6129241064087967E+00    9.1094980592683985E+00    2.0503659074688199E+00
Br    1.2406229559515771E+00    9.0359899355516724E+00   -1.7122493127505933E+00
Br    9.2989016226923193E-01    1.2252677233795593E+01    3.0043644409220610E-01
Br   -7.4088391122757835E-01    3.7547593887942510E+00    2.0584077982299540E+00
Br    2.5591333603686914E+00    3.4365729663474238E+00   -8.9934207052827342E-01
Br    1.8559358797919574E+00    6.9838195777783394E+00    1.9717113750891324E+00
Br    1.2572626098959749E+00   -1.8473909324797806E+00    8.9581042886942797E+00
Br    4.0713207319126070E+00   -1.2936615918943093E+00    5.9823492790552706E+00
Br    3.3472223449457692E+00    1.6643352188131180E+00    8.1276383183744816E+00
Br    2.0897232005784772E+00   -6.5071589266513383E+00    1.0411605184531323E+01
Br    4.9671068149336541E+00   -7.5471987335570168E+00    7.4475270206201634E+00
Br    4.4182971384525001E+00   -3.7810854185353904E+00    9.1754305374947691E+00
Br   -1.1675034677507142E+01    1.5723086757525304E+00    4.1385793906748107E+00
Br   -9.5468239167791893E+00    1.1924962838697823E+00    8.7342505802418924E-01
Br    5.4176972802069416E+00   -9.7063511109404175E+00    1.0162687724452020E+01
Br   -9.0864739803569758E+00    5.0698534464980396E+00    3.1217741400566137E+00
Br   -8.5671353563685333E+00   -2.8281699398356913E-01    9.6458998542499330E+00
Br   -1.7388262009486364E+00   -6.9743595274328474E+00   -2.3713390051560990E+00
Br   -6.1321801210672851E+00    2.2233744353921612E+00    2.6695119284544662E+00
Br   -3.1392378581307523E+00    1.7779940301149564E+00   -4.1215014053160520E-01
Br   -4.2542987670522132E+00    5.8003847174398846E+00    2.3240790867255430E+00
Br   -1.2109746650725981E+00    9.6955885877392944E+00    7.4512223776532265E+00
Br    1.2775429131283580E+00    1.0278229928905885E+01    3.9554513522275303E+00
Br    5.8157219408369087E-01    1.3356391571215042E+01    6.4789253265453608E+00
Br    2.1870130017651215E-01    3.9460492898341775E+00    7.7271576515564995E+00
Br    2.6573627225105589E+00    4.3491731063347174E+00    4.8539802686693037E+00
Br    2.2148579840890075E+00    7.8129701296946195E+00    7.6848136716035933E+00
Br   -5.2865995818905374E+00   -1.9910472463839322E+00    9.4350894011375974E+00
Br    3.7792185761440753E+00   -8.1162113415383241E-01    1.2032955415402281E+01
Br   -2.1222653674670977E+00   -1.9175710702264108E+00    6.6009175969373972E+00
Br   -1.9552220481785454E+00    1.1998457134227252E+00    8.6584237246537654E+00
Br   -2.0433010148629918E+00   -1.3152613637051310E+01   -1.2448639394543108E+00
Br    6.4719124055529793E+00   -5.9161900438496788E+00    1.2891377156152192E+01
Br   -1.2147426978602674E+01    1.2147258084262569E+00   -2.1675214948135579E+00
Br   -5.6527844681604156E-01   -1.1044429942633512E+01    5.2552104103139738E+00
Br   -1.1237927586874317E+01   -5.8716078516336294E+00   -1.3385504228448359E+00
Br    1.2510719323817785E+00    1.1309301922324178E+01    1.0109581544864612E+01
Br   -8.4806161426355562E+00   -4.7420610083781938E+00   -4.2929779974452238E+00
Br   -8.4740480617381717E+00   -1.8580358546087516E+00   -1.9795408136543327E+00
Br    3.3287355699701253E+00    5.8385385839133210E+00    1.0423401879237938E+01
Br   -7.0121519727312522E+00    7.6798555086857991E+00   -3.8663528478318252E+00
Br   -4.8446203079737300E+00    6.7265623937573151E+00   -6.8120279650776103E+00
Br   -4.6307857954596523E+00    1.0811921060590617E+01   -4.7651427022211603E+00
Br   -6.4981483244903551E+00    1.3497975194664993E+00   -2.4996262824318953E+00
Br   -1.0304410451274121E+01   -9.9815007653250607E+00    5.2106428746175597E+00
Br   -3.7815841150692404E+00    2.2096162878116345E+00   -6.2614034834261671E+00
Br   -5.8255993686584153E+00   -4.8112529631218166E+00   -8.3567733767290839E+00
Br   -2.9296211760996478E+00   -4.8746508686318535E+00   -1.1146868773151175E+01
Br   -3.2653808281742451E+00   -1.4683406163329615E+00   -8.0808148734544556E+00
Br   -1.4912576984522954E+00    4.9320092996898213E+00    1.1144295733652800E+01
Br   -3.6687922115739857E+00   -8.4651054616223291E+00    1.0067283623592363E+01
Br   -1.3749377550477713E+00   -7.9325545368070882E+00    7.2117139565797856E+00
Br   -1.6706290966082809E+00   -4.6331698495748599E+00    9.6458149702337685E+00
Br   -6.8141246649626055E+00   -9.9682551735952121E+00    2.4899564484639218E+00
Br   -7.1339455029588059E+00   -6.5434580165962704E+00    4.9686470031652723E+00
Br   -9.5934042477212760E+00    9.0151010231014581E+00    1.1301868232304566E+01
Br    1.0490960033125981E+01    1.0454616262748974E+01    3.7595667170122143E-01
Br   -5.3860475156580847E+00   -8.6538233716135391E+00    1.3570298052247525E+01
Br    1.0097332714928784E+01    9.5698381587716703E+00   -4.7191782165133498E+00
Br    1.0773476272775513E+01    5.1246726101454891E+00    2.0905988952574552E+00
Br   -8.2262338771819152E+00    3.9154954293466382E+00    1.1883648679410138E+01
Br   -1.1850246701857513E+01   -5.3949897959660005E+00   -7.8906585406053829E+00
Br    1.3030357371587025E+01   -1.1337749132787259E-01    7.8023687271264901E+00
Br   -4.1380238335897408E+00   -8.7131358014250289E+00    4.8204108873186478E+00
Br    6.0005184859924467E+00   -4.6619388265467352E+00   -8.6308732641872208E+00
Br    8.3323419088123636E+00   -3.8113428506713043E+00   -1.2064873454249055E+01
Br    1.4208639510889480E+01   -5.2649477078674911E+00    8.5560954524469519E+00
Br    8.4366514733376601E+00   -4.9738360050752023E-01   -9.9008356762627283E+00
Br   -4.8232350844793421E+00   -1.1746557454631434E+01    1.1029612437562273E+01
Br   -1.5603609753463432E+00   -9.1642067013429624E+00    1.6251132194353752E+00
Br   -1.5811230028233265E+00   -5.5875046889662547E+00    4.2042486442827611E+00
Br    7.0288468406284021E+00   -9.3246216643163677E+00   -8.0738915344214810E+00
Br   -5.0604282383379058E+00   -1.0021640787583406E+01   -7.1362734122672080E+00
Br    9.5767882830116360E+00   -9.3358673703198960E+00   -1.1212048349715689E+01
Br    9.9414687000163742E+00   -6.4852184515673628E+00   -9.1562152443899709E+00
Br   -1.0284889526195076E-02   -1.0296859730825810E+01    9.7324910703618990E+00