 # Version information for this restart file 
 # current date 2021-06-17 12:38:47.466
 # current working dir /user/ub2042/exercises/2_fitting/MM_MD_workdir/md_settings.003
 # Program compiled at                              Thu Apr 22 21:44:59 EDT 2021
 # Program compiled on                cpn-k07-07-02.compute.cbls.ccr.buffalo.edu
 # Program compiled for                                                    local
 # Source code revision number                                       git:36754bb
 &GLOBAL
   PRINT_LEVEL  LOW
   PROJECT_NAME cp2k
   RUN_TYPE  MD
 &END GLOBAL
 &MOTION
   &MD
     ENSEMBLE  NVT
     STEPS  10000
     TIMESTEP     2.4999999999999996E+00
     STEP_START_VAL  2000
     TIME_START_VAL     4.9999999999997863E+03
     ECONS_START_VAL    -1.4031592531677251E+01
     TEMPERATURE     3.0000000000000000E+02
     &BAROSTAT
       PRESSURE     1.0100000000000000E+00
       TIMECON     9.9999999999999982E+03
     &END BAROSTAT
     &THERMOSTAT
       TYPE  CSVR
       &CSVR
         TIMECON     9.9999999999999982E+03
         &THERMOSTAT_ENERGY
              -6.7965264919712332E-02
         &END THERMOSTAT_ENERGY
         &RNG_INIT
Wiener process for Thermostat # 1        1 F T F  -4.1316006610438311E-01        3467588906.0        2335825785.0        3211720173.0        1531220123.0        1256874348.0        2092146405.0             12345.0             12345.0             12345.0             12345.0             12345.0             12345.0             12345.0             12345.0             12345.0             12345.0             12345.0             12345.0
         &END RNG_INIT
       &END CSVR
     &END THERMOSTAT
     &AVERAGES  T
       &RESTART_AVERAGES
         ITIMES_START  1
         AVECPU     1.7454961979994535E-02
         AVEHUGONIOT     0.0000000000000000E+00
         AVETEMP_BARO     0.0000000000000000E+00
         AVEPOT    -1.4449042575787603E+01
         AVEKIN     4.4482700106560219E-01
         AVETEMP     2.2564673034411757E+02
         AVEKIN_QM     0.0000000000000000E+00
         AVETEMP_QM     0.0000000000000000E+00
         AVEVOL     6.7483345830898648E+06
         AVECELL_A     1.8897261328855916E+02
         AVECELL_B     1.8897261328855916E+02
         AVECELL_C     1.8897261328855916E+02
         AVEALPHA     9.0000000000000000E+01
         AVEBETA     9.0000000000000000E+01
         AVEGAMMA     9.0000000000000000E+01
         AVE_ECONS    -3.3371792826456681E+00
         AVE_PRESS     0.0000000000000000E+00
         AVE_PXX     0.0000000000000000E+00
       &END RESTART_AVERAGES
     &END AVERAGES
     &PRINT
       &ENERGY  SILENT
         &EACH
           MD  10
         &END EACH
       &END ENERGY
     &END PRINT
   &END MD
   &PRINT
     &TRAJECTORY  SILENT
       &EACH
         MD  10
       &END EACH
     &END TRAJECTORY
     &CELL  SILENT
       &EACH
         MD  10
       &END EACH
     &END CELL
     &VELOCITIES  SILENT
       &EACH
         MD  10
       &END EACH
     &END VELOCITIES
     &FORCES  SILENT
       &EACH
         MD  10
       &END EACH
     &END FORCES
     &RESTART  SILENT
       &EACH
         MD  10
       &END EACH
     &END RESTART
   &END PRINT
 &END MOTION
 &FORCE_EVAL
   METHOD  FIST
   &MM
     &FORCEFIELD
       VDW_SCALE14     1.0000000000000000E+00
       EI_SCALE14     1.0000000000000000E+00
       SHIFT_CUTOFF  T
       DO_NONBONDED  T
       IGNORE_MISSING_CRITICAL_PARAMS  T
       &SPLINE
         R0_NB     2.5000000000000000E-01
       &END SPLINE
       &NONBONDED
         &LENNARD-JONES
           ATOMS Br Br
           EPSILON     1.2630795322675199E+02
           SIGMA     3.6900000000000004E+00
         &END LENNARD-JONES
         &LENNARD-JONES
           ATOMS Cs Pb
           EPSILON     8.6920055954630968E+01
           SIGMA     3.6699999999999999E+00
         &END LENNARD-JONES
         &LENNARD-JONES
           ATOMS Cs Cs
           EPSILON     2.2644852172126850E+01
           SIGMA     4.5300000000000002E+00
         &END LENNARD-JONES
         &LENNARD-JONES
           ATOMS Pb Pb
           EPSILON     3.3363415533600227E+02
           SIGMA     5.9000000000000004E+00
         &END LENNARD-JONES
         &LENNARD-JONES
           ATOMS Br Cs
           EPSILON     5.3481070753900497E+01
           SIGMA     3.6300000000000003E+00
         &END LENNARD-JONES
         &LENNARD-JONES
           ATOMS Br Pb
           EPSILON     2.0528187276773045E+02
           SIGMA     2.9800000000000000E+00
         &END LENNARD-JONES
       &END NONBONDED
       &CHARGE
         ATOM Cs
         CHARGE     4.1739999999999999E-01
       &END CHARGE
       &CHARGE
         ATOM Pb
         CHARGE     8.3479999999999999E-01
       &END CHARGE
       &CHARGE
         ATOM Br
         CHARGE    -4.1739999999999999E-01
       &END CHARGE
     &END FORCEFIELD
     &POISSON
       PERIODIC  XYZ
       &EWALD
         EWALD_TYPE  SPME
         GMAX  62 62 62
         O_SPLINE  4
       &END EWALD
     &END POISSON
     &PRINT
       &FF_INFO  LOW
         SPLINE_INFO  F
         SPLINE_DATA  F
       &END FF_INFO
     &END PRINT
   &END MM
   &SUBSYS
     &CELL
       A     1.0000000000000001E+02    0.0000000000000000E+00    0.0000000000000000E+00
       B     0.0000000000000000E+00    1.0000000000000001E+02    0.0000000000000000E+00
       C     0.0000000000000000E+00    0.0000000000000000E+00    1.0000000000000001E+02
       PERIODIC  XYZ
       MULTIPLE_UNIT_CELL  1 1 1
     &END CELL
     &COORD
Cs   -1.4840418536988240E-01   -3.6879081597259339E-01   -5.7579372047768365E+00
Cs    1.6916708955000706E-01   -6.4428720975449156E+00   -5.1894154283018574E+00
Cs    6.3408049610695882E-01   -1.1683158711793443E+01   -5.7300534141128239E+00
Cs   -5.8604181881398132E+00   -6.3042418348386073E+00   -5.3969733735126812E+00
Br   -8.5319259228078881E+00   -1.2624082757153305E+01   -8.0760064169883705E+00
Br    1.1910494095024333E+01   -2.1131117101166095E+00   -8.8868276972432749E+00
Br   -3.0801198824177276E+00    2.6482155718466482E+00   -1.2118139186800461E+01
Cs   -7.7560834158879099E-01    5.2101936734092016E+00   -6.3174710091439792E+00
Cs    1.7157642236739637E-01    1.7006824760217568E-01   -3.9347617600761930E-01
Cs    7.7590110528020373E-01   -6.3059894815428814E+00    3.0575790090374055E-01
Br   -5.5020006806652413E+00   -3.0673201796482021E+00    3.4934711367153573E+00
Cs   -1.1115701223523894E+01   -5.5546042510096481E+00    1.2003929874685994E+01
Cs    1.2595264511970209E+01   -1.0275048399900008E+01    2.4917744625753635E-01
Cs   -6.0828470103265824E+00    6.1842883184575781E+00   -3.7740323675327941E-01
Cs   -6.5909067197558457E-01    1.1039427867984019E+01   -1.4655471383855134E-01
Cs   -8.0887863658602815E-02    5.5502768703700598E+00   -8.6657522903228479E-01
Cs    7.2962327942856975E-01    6.6778328972255052E-01    5.2799887370243850E+00
Cs    3.6708307735379303E-01   -6.5139450281007942E+00    6.5000029517711733E+00
Cs    1.3632590409969014E+00   -1.1769664140075657E+01    6.7529222242631803E+00
Cs   -6.5370971571216376E+00    5.8468168289044087E+00    1.1685690661238469E+01
Cs   -6.4535942679958023E+00   -7.7868481602894057E-01   -1.0887295991106823E+01
Cs   -4.7883072089900418E+00   -1.1673025963785632E+01   -5.8611946748261463E+00
Cs   -5.5724177831364692E+00    4.9188098308809813E-01    6.2902584259513068E+00
Br   -3.4387015959429781E+00   -3.1197086995178540E+00   -1.1484013408932071E-01
Cs   -1.2391200586598256E-01    5.8894443949589119E+00    5.3563824339920396E+00
Br    1.2091323751038857E+01   -9.6639621651824434E+00   -9.7202933015581969E+00
Cs   -4.9720735386255593E-01   -5.7611519900050094E+00    1.0689770933449919E+01
Br   -3.5073171869373381E+00   -1.0222226443239528E-01    3.3540945826570403E+00
Br   -8.9903279423298201E+00   -2.7411189583813727E+00    1.2098417162719407E+01
Cs    1.0597383474726941E+01    1.1678125039372043E+01   -6.6393666285033452E+00
Cs   -1.1806115540331247E+01   -6.4374850389879184E+00    6.7754668026622378E+00
Cs   -5.4172033238451318E+00   -5.7641109447073733E+00    6.1304338825679618E+00
Cs   -5.7132968235460675E+00    1.1909274442187559E+01   -6.5826946675574778E+00
Br   -1.1637934745004513E+01   -9.0493970037318725E+00    9.3925303984591064E+00
Br   -8.3037183404805806E+00   -9.1058979228390111E+00    6.8460639214050838E+00
Cs   -1.1208648678380531E+01   -5.8123293588714322E+00   -5.3247634540246640E+00
Cs   -6.2245441584429608E+00    5.7574193612047813E+00   -6.0984133406266503E+00
Br   -8.8266542775931676E+00   -6.0271526558735671E+00    9.2936997267488710E+00
Cs    1.1738910038518210E+01    6.8945581680405423E+00    1.0846619003899807E+01
Br   -1.1771212536506294E+01    9.4365470229605677E+00    8.8812564445945004E+00
Br   -5.9239724044983877E+00   -3.3276016482790798E+00   -3.2555849064111770E+00
Cs   -8.9190488124698000E-02    2.6826663178528354E-01    1.1400312347191401E+01
Cs    1.1734651157691632E+01    6.4998933896253810E+00   -5.4885162339896831E-01
Cs   -1.1682011381236576E+01   -6.8560726340179130E+00   -1.0326364469436269E+01
Cs    1.1894880143602638E+01   -1.1450679495185610E-01    6.5019006598914251E+00
Cs   -1.0570069628939097E+01    1.1359111781735598E+01   -5.9623528952712084E+00
Cs    1.2303308359238629E+01   -1.0955579198513623E+01    6.8181912864291734E+00
Cs    5.7029701248183766E+00   -6.1325768741551885E+00   -1.1045564656768793E+01
Cs    7.0455463803800242E+00   -1.1002833848664588E+01    5.8146997527582265E+00
Cs   -5.1033997884293587E+00   -1.1858128332064974E+01    7.3671148074705528E-01
Cs    6.0276068322346674E+00   -1.1782453063883516E+01   -1.0711063622273898E+01
Cs    1.1389824033663940E+01    5.7503218799757461E+00   -6.5074152167756871E+00
Cs    1.1394213470651021E+01    1.1553982572568355E+01    5.3027433404442297E+00
Cs    1.0699509340593362E+01    5.5495631638540992E+00   -1.2427658281054853E+01
Cs   -1.8029058897043859E-01   -5.2673786428384313E+00   -1.1190941224460261E+01
Cs   -1.2164579579603668E+01   -2.2651246631104532E-01   -5.7607913057007609E+00
Cs    6.3240253076218202E+00   -5.1599887644995297E+00    1.1415926643460470E+01
Cs    1.2254051629639948E+01   -5.1800571314168762E+00    4.9631043066850209E+00
Cs   -1.2037303861437955E+01   -1.0815065076485656E+01    1.1915811308176089E+01
Cs   -4.9556019009846608E-01   -3.4629199415605161E-01   -1.1600140917451782E+01
Cs   -4.3189235715982122E-01    1.2132160868874882E+01    5.3826812994690645E+00
Cs   -3.4732141280555190E-01    4.8257999053386342E+00   -1.1801533782047501E+01
Cs    6.9366040268764859E+00    6.9809020814436684E-02   -6.0766044922393476E+00
Cs    6.7337930498775345E+00   -5.6170954675504499E+00   -5.5768131549623767E+00
Cs   -4.2619773482754013E+00   -1.2056895337922528E+01    5.9222915705328667E+00
Cs   -1.1656280887029405E+01   -3.4240591703170294E-02    5.7952306737715702E+00
Cs    5.3626591414866631E+00   -4.1125413387841259E-01   -1.1651616699647095E+01
Cs    5.4664629393550674E+00    1.1825398565261212E+01   -1.0911861178429232E+01
Cs   -1.3211948400685164E-01    5.5561967892792063E+00    1.0710082084501867E+01
Cs   -5.5081840584837876E+00    1.1331683573418868E+01    5.5829204336991873E+00
Cs    5.8984624320232406E+00    1.0714145440410782E+01   -6.2164131250690611E+00
Cs    6.3950432737888052E+00    5.7082145960380970E+00   -7.0072720970291087E+00
Cs    5.4459750990605071E+00    5.0814824552314297E-01   -3.6732070481458595E-01
Cs    6.5017898530366844E+00   -5.1805517631442504E+00    6.3580005186270006E-01
Cs    6.3892976808219233E+00   -1.1312810795699953E+01    1.4217925980764570E-01
Cs    5.5996698051049636E+00    5.6100642503258245E+00   -1.1908729244254843E+01
Cs   -6.1455608915099509E+00    5.5002659844239163E+00    5.7492791953917406E+00
Cs   -4.4761982672444391E+00   -5.7157915744982342E+00   -1.1711458312278889E+01
Cs    5.4946010839343860E+00    6.5434760488564541E+00   -1.1042697332717756E-01
Cs    6.3618957487809418E+00   -1.8289530132726239E-01    5.7910608636810608E+00
Cs    5.9040105972755734E+00   -4.9376043629800552E+00    6.2847975559612808E+00
Cs   -6.3687871364154267E+00    1.1501176553835139E+01   -3.1140791108651833E-01
Cs    1.1691327997783670E+01    3.0585353839148688E-01   -2.1175190125859406E-01
Cs   -5.7734851039174870E+00   -2.8515670937434351E-01   -2.3803175735896345E-01
Cs   -1.1317244780356249E+01    5.2089735449643468E+00    6.3407226726712516E+00
Cs   -5.7307985726488546E+00   -2.9517196242550749E-02    1.1099295392800441E+01
Cs    5.3355795202525726E+00    1.1653596430192904E+01    6.2782927495925778E+00
Cs    5.2077558610599217E+00    5.8744439558015547E+00    4.9722285056557931E+00
Cs    5.6650971986283940E+00   -4.4573171497356445E-01    1.2085047502365459E+01
Cs    6.0924618548471878E+00    1.1504096826550338E+01   -6.5070437250344038E-01
Cs    1.1222212755656118E+01    6.6361329121032364E-01   -5.7791498956068326E+00
Cs    1.2109277727065345E+01   -5.5460496643388568E+00   -5.2588756957572631E+00
Cs    5.9893946922224881E+00   -1.0492130784650103E+01    1.1648706814350797E+01
Cs    1.1802094751723677E+01    1.1999091939633132E+01    6.5954829232407294E-02
Cs   -1.1614050620755126E+01    3.1730769976085718E-02    1.1013919209407863E+01
Cs   -7.2195774657200342E+00    5.2775148997113162E+00   -1.2321220197073631E+01
Cs   -1.1907626672632528E+01    1.0791676712979232E+01   -1.5410727726335191E-01
Cs   -5.6120498233152274E+00   -5.8811526562870666E+00    1.1949632175272564E+01
Cs   -4.6957288952100846E+00   -1.1988150817735313E+01    1.2413689888112650E+01
Cs    6.3427817989376374E+00    6.4501386143628814E+00    1.0826358309951386E+01
Cs    1.1921156917160298E+01   -5.3517583565769131E+00    6.3087024681871939E-01
Cs   -1.1349178632105808E+01   -1.9389426198588444E-01   -3.0671572069130115E-01
Cs   -5.1778196201629756E+00    1.1406785653570283E+01   -1.2213287273296945E+01
Cs   -1.1707895802695301E+01    5.8064427312794038E+00    1.1532902554528752E+00
Cs   -1.0316596189361574E+01   -1.2673691307074076E+01   -4.6092205060049913E+00
Cs   -1.0866965094473231E+01   -5.6549807617593135E+00    3.8200503665026531E-01
Cs   -5.6237459843850885E+00   -5.9071164502273321E+00    6.1982107361711047E-01
Cs   -1.0260693673514805E+01   -1.2075736753266948E+01    6.3363399789071311E+00
Cs    1.2753933272754463E+01   -5.1333001030281773E+00    1.0610404183212665E+01
Cs    1.1361231060086920E+01    6.6621567010003515E+00    5.6171683945644713E+00
Cs   -1.1720499754261436E+01    5.6268450323394434E+00   -5.6224314036284166E+00
Cs   -6.2581991353415294E+00   -5.3467837632325022E-01   -5.2091156587868070E+00
Cs   -1.1328223458743901E+01   -1.1144355295611902E+01    7.4351540461048127E-01
Cs    1.1433474808742920E+01   -1.0064263951924659E+01   -1.3480879372869421E+01
Cs   -9.6840783786814022E+00   -1.2234085143944004E+01   -1.1003866632925991E+01
Cs   -1.0016901084313740E-02    1.1379190535957651E+01   -1.1427074571330021E+01
Cs    7.0879383911915661E-01   -1.1513804976244948E+01   -1.0518111700210945E+01
Cs    1.5365897306880003E-01    1.0580602085759356E+01   -6.5902648490479416E+00
Cs   -6.9932396334022640E+00    1.2773169852747255E+01    1.1099633512465907E+01
Cs   -6.0600268899036009E-03   -1.1775307035458408E+01   -3.7991622791815928E-02
Cs   -1.2128265121063995E+01    1.6445251158875218E-01   -1.0673424295262036E+01
Cs   -1.1563666014280733E+01    1.1416323831885849E+01    5.8602361422594482E+00
Cs    7.0929036254530269E+00   -1.0819191745954276E+01   -5.4326613409915696E+00
Cs    1.0808358746983654E+01   -3.0280887446584148E-01   -1.2008727003774958E+01
Cs    4.6787202339042849E-01    1.1263620821843602E+01    1.0870867340391188E+01
Pb    3.2073013643317636E+00   -3.1123266406626087E+00   -2.7635872198279730E+00
Pb    3.3753036943883608E+00   -8.9106346324159897E+00   -2.6412116742191176E+00
Pb   -8.4613586629588919E+00   -3.0242501793228334E+00    3.4540068775015742E+00
Pb   -2.6955512812262907E+00   -9.2229384021410787E+00   -2.7507381384226144E+00
Pb    3.0560776800461453E+00    8.9111567566969487E+00   -3.3674357383529454E+00
Pb    2.8190194485475728E+00    2.7438810947627585E+00   -3.4139286302850111E+00
Pb    3.1232189738947480E+00   -2.7871571400037340E+00    3.3667087313715571E+00
Pb    3.3087944184808253E+00   -8.8831363761760844E+00    3.1349287663204741E+00
Pb   -3.1944925355346299E+00    8.6983664422188216E+00    2.8172729525711850E+00
Pb    2.6515014098283931E+00    9.4871246717455424E+00    2.5564651543838997E+00
Pb    2.5917103749534487E+00    3.0603116710341265E+00    2.5518981656591104E+00
Pb    3.0907589926394268E+00   -2.4939705443210629E+00    9.0393978311142913E+00
Pb    3.4478971568653929E+00   -8.6433860452773104E+00    9.0457661826941145E+00
Pb   -3.1419165129985949E+00    2.7190621130003851E+00    2.7068248574943459E+00
Pb    2.9578437550431911E+00    9.2409831862105332E+00    8.5007093822717099E+00
Pb    2.8743872612965347E+00    3.3683494439014781E+00    8.4223549525046373E+00
Pb   -2.8939524495271987E+00   -3.0540211330161395E+00    8.5129201196839333E+00
Pb   -8.1392214956049234E+00   -8.8385438742106910E+00    3.6697305929309665E+00
Pb   -9.2375551889586927E+00    2.4976476824700025E+00   -2.9186165865155838E+00
Pb   -3.0127063410981028E+00   -2.9428097925245913E+00   -8.8745499276050293E+00
Pb   -2.3233110817460751E+00   -9.0263997997925767E+00    3.3602677239409835E+00
Pb   -3.2149453516761897E+00    8.8424684319129625E+00   -3.4822482327918869E+00
Pb   -2.8854272973420851E+00   -8.9316967721632796E+00    9.2333027381504778E+00
Pb   -8.9618633146789399E+00   -3.4005300358773769E+00   -2.5188275618029392E+00
Pb   -8.8742483219600352E+00   -9.3831049491651122E+00   -2.3170399484679591E+00
Pb   -3.2738178501775588E+00    2.9128512366053565E+00   -3.1991382825366999E+00
Pb   -8.7175328897109061E+00   -9.0640559292147653E+00    9.7242177140891499E+00
Pb   -8.6627743629176823E+00   -3.5553336918427667E+00   -8.3741356343667661E+00
Pb    9.2775473230347192E+00   -3.2354242057483931E+00   -8.9279556017749808E+00
Pb    9.3572481662587705E+00   -9.2657801999858052E+00   -8.9876248048834526E+00
Pb   -2.7546424006652761E+00   -8.8883518500438132E+00   -8.7838106242158425E+00
Pb   -9.4097029368690794E+00    8.4625859867432478E+00   -9.0563821474811501E+00
Pb    3.0038249829069628E+00   -2.9871651729682753E+00   -8.6772974378350707E+00
Pb    3.2637923512171922E+00   -8.9952641967980185E+00   -8.5195796317228538E+00
Pb   -3.6262006013614787E+00    2.8707756790535996E+00   -9.3670683783259054E+00
Pb    2.9602500757717931E+00    8.7182162371477254E+00   -9.2952025309370629E+00
Pb    2.4248503286832821E+00    2.9389339279976641E+00   -9.1627109238659425E+00
Pb    9.0743724454452757E+00   -2.5313610479015867E+00   -2.8261855166734748E+00
Pb    9.7001439805558487E+00   -8.2286683433840135E+00   -2.6611975788506919E+00
Pb   -8.6141465917155493E+00   -3.0919146607241137E+00    9.3330395446630572E+00
Pb    8.6743386144588879E+00    8.6183216952212423E+00   -9.1942246652153177E+00
Pb   -9.2810560440588716E+00    2.3457878589889543E+00   -9.0446058984526303E+00
Pb   -2.9107847711989479E+00    8.8713611892946158E+00    8.9206259982259404E+00
Pb    8.9546339514011244E+00    8.9955144306407764E+00   -3.0563335555896693E+00
Pb    8.8211045341392396E+00    3.2799876693268826E+00   -3.3292384331565117E+00
Pb    9.1925742786218745E+00   -2.4625874101160217E+00    3.0523355714492304E+00
Pb    9.2520797163082769E+00   -8.2961684110930296E+00    3.1968791818650266E+00
Pb    8.5999121411412922E+00    2.7501704891757170E+00   -9.4288730077653682E+00
Pb   -3.1009043328225920E+00    2.9998349035663465E+00    8.5677041281656283E+00
Pb    8.8261196525881278E+00    9.0693203982091077E+00    2.6728876266286590E+00
Pb    8.4990059940895115E+00    3.2430345649332084E+00    2.2428740588096048E+00
Pb    8.9725397894939345E+00   -2.2678158676051745E+00    8.8973422129063220E+00
Pb    9.5630447380228443E+00   -8.1372555025974567E+00    9.3416094004807437E+00
Pb    8.6611367983217349E+00    9.4611658544249657E+00    8.8996678248546406E+00
Pb    8.7983209074420490E+00    3.6262962489573085E+00    7.9419927227839429E+00
Pb   -9.0659632124942640E+00    3.0214138667562827E+00    9.0186310959622151E+00
Pb   -2.7360384222285128E+00   -3.0588014575452664E+00    2.7238975648606134E+00
Pb   -9.1195567138591560E+00    8.4663045007249291E+00    3.0622116437280340E+00
Pb   -8.8633444922488831E+00    8.4323387213583523E+00   -3.0621664541495424E+00
Pb   -8.5361281405003364E+00   -9.6362910721102573E+00   -8.1204984137585043E+00
Pb   -2.9669595005861606E+00    8.6807395528381299E+00   -9.4014901315830777E+00
Pb   -9.0511451854536737E+00    2.6702471363133040E+00    2.9037293741182109E+00
Pb   -8.9984938518497959E+00    9.2121333162787309E+00    8.9534936802482932E+00
Pb   -2.8543178766377872E+00   -3.0386535468972156E+00   -3.1242199784271123E+00
Br   -1.0970077479464314E-01   -2.8600235292889429E+00   -2.6774238855255414E+00
Br    2.6469981392660515E+00   -3.3009240636534498E+00   -5.7266869203774107E+00
Br    3.3726075292173752E+00   -3.5459211940705210E-01   -3.5123407908775950E+00
Br    3.0828014844490859E-01   -9.5505108920922819E+00   -2.5421032402465862E+00
Br    2.6572570166831722E+00   -8.4295848403405351E+00   -5.3518159122583482E+00
Br    2.9031505054289131E+00   -5.9448074718672830E+00   -2.1624274730828690E+00
Br   -2.5587696132357864E+00   -2.9107724807041464E+00   -6.0192860238971981E+00
Br   -8.0884785254146525E+00   -2.6985118524864551E+00    6.3518302909431252E+00
Br   -2.7932666491808988E+00   -2.1261061648542804E-02   -2.4880861693648519E+00
Br    3.3574512732923445E+00   -1.1795072305408558E+01   -3.1363121480018834E+00
Br    1.1986908796109377E+01   -2.4233933927188369E+00    2.7030732909044803E+00
Br   -5.5935446674173859E+00   -9.5044942707845337E+00   -2.9643780682770440E+00
Br   -1.1028160892247618E+01   -4.0353134675238831E+00    3.3402995820223951E+00
Br   -8.2647034676788671E+00   -3.0015072459064860E+00    4.3473119444704006E-01
Br    1.2346822261559817E+01   -8.1773945471577587E+00    3.4189012075403218E+00
Br   -2.0328622102244989E-01    8.8677669688493008E+00   -3.3168333268650696E+00
Br    2.9469450673681692E+00    8.5695425688503679E+00   -6.3536235936436336E+00
Br    3.3981992658951645E+00    1.1698052490159062E+01   -4.0487159274492202E+00
Br   -2.4908314926790912E-01    2.7875767249735297E+00   -2.8922244865122058E+00
Br    2.4005710422349069E+00    2.7177876442736331E+00   -6.3301680142507442E+00
Br    2.6742107750413595E+00    5.5615304043372769E+00   -3.5987899891202257E+00
Br    1.6824452316734759E-01   -2.9779574176664214E+00    2.7334792913056987E+00
Br    3.8684053015108280E+00   -3.1782631506323384E+00    2.6139825276999451E-01
Br    2.2970000881094159E+00    1.0348816831862336E-03    2.4951621874028631E+00
Br    4.7684564066555413E-01   -8.6549505125680124E+00    3.4893853550424967E+00
Br    3.3334893489018453E+00   -9.7870664126552303E+00    2.7167037346983863E-01
Br    3.0485796372803917E+00   -6.1587771908560720E+00    3.1718848447565970E+00
Br   -5.9626339375796995E+00    9.3186317520613944E+00   -9.0177721940432551E+00
Br   -2.8261706451433635E+00    8.7853708572162184E+00   -1.2253273733718622E+01
Br    3.2066460188455270E+00   -1.1664764202618802E+01    4.0110031937287722E+00
Br   -2.2755960805500637E+00    1.1601211833116960E+01   -9.0001373059519096E+00
Br   -3.3209271158435669E+00    5.9123825095645302E+00   -9.6457403655521059E+00
Br   -9.1988888432202067E+00   -2.1100939092047044E-01    3.0582766701895263E+00
Br   -2.5033992404309009E+00   -9.0669334416590299E+00   -5.5351669904310326E+00
Br   -6.3065569988019465E+00    8.6235070785149706E+00    3.0361755665628549E+00
Br   -2.9725764044259626E+00    8.6186999129277684E+00   -1.8647314456864908E-01
Br   -3.4554459050161097E+00    1.1508675467644936E+01    2.4055825854857327E+00
Br   -1.7544584181197423E-01    8.6162113027194334E+00    3.0418181577665777E+00
Br    2.9347780767925702E+00    9.6960182573714029E+00   -2.5803951041918460E-01
Br    1.7569914149049981E+00    1.2188618356452043E+01    2.0011249140812253E+00
Br   -2.9346639062035423E-01    3.3736654510896451E+00    2.2779390787301801E+00
Br    2.7121493363879638E+00    3.0384870334243375E+00   -4.2657674819139318E-01
Br    2.9663355135216829E+00    6.0130251609470253E+00    2.1448117779696667E+00
Br    3.0477720341668846E-01   -2.6722952418575376E+00    8.8773779787373766E+00
Br    3.0558869969022875E+00   -2.7227278033579259E+00    6.1369569337235106E+00
Br    3.6952143302057885E+00    6.6256119355354315E-01    8.2897795025674430E+00
Br    3.1842764341243890E-02   -8.8756128268624011E+00    9.1783465958021626E+00
Br    3.1215655263419100E+00   -8.4190001235037926E+00    6.0166456680212068E+00
Br    2.8693028736848745E+00   -5.5938275658307060E+00    8.7507156007918798E+00
Br   -1.1875529709450854E+01    2.2775817221127377E+00    2.4942393741984867E+00
Br   -9.3443122515810959E+00    3.1564654619012487E+00   -1.1948358215329243E-01
Br    3.7513102763551691E+00   -1.1634356235945148E+01    9.1683807787306151E+00
Br   -9.3838801879229585E+00    5.6301810501125908E+00    3.5102747950627120E+00
Br   -8.6779625949376982E+00   -1.1001918170148314E-01    9.1639000740913552E+00
Br   -2.3875552581995496E+00   -6.4678856802297933E+00   -2.2742557944076305E+00
Br   -6.0779568177718915E+00    3.0767289017979707E+00    2.9441805294986882E+00
Br   -2.9645807563194708E+00    2.9172757042766309E+00   -8.0548136870045570E-02
Br   -3.3564885304016969E+00    5.7092417472163364E+00    2.0496414549203177E+00
Br   -1.4826649651467561E-01    9.0033143604978587E+00    7.9662771932513836E+00
Br    3.2634527780465055E+00    8.9140944706014125E+00    5.3567352240980695E+00
Br    1.9385422113183250E+00    1.2171529536858284E+01    7.8789249083363169E+00
Br   -2.2122622876290673E-01    3.0878364336579454E+00    8.4626379676876056E+00
Br    2.3098022152845048E+00    3.2345824021293756E+00    5.3406829431806777E+00
Br    2.1682718432827834E+00    6.2011207238860235E+00    7.9578140654002674E+00
Br   -5.7703895981538924E+00   -2.9285392113057491E+00    8.9756256878690657E+00
Br    3.4670627751130345E+00   -2.9829694147543102E+00    1.1874398623680712E+01
Br   -1.9796290510917232E+00   -3.2325897295518682E+00    5.6697731192649545E+00
Br   -3.1640728214745764E+00    1.7870276870886402E-02    8.4477246842686160E+00
Br   -2.9447147668768272E+00   -1.2369892772425581E+01   -3.1379369311932721E+00
Br    3.5376575550486744E+00   -8.3564128080499351E+00    1.1879921044980348E+01
Br   -1.2040919235321727E+01    1.9444855593142349E+00   -3.2633432050450191E+00
Br   -1.8541101017650767E+00   -1.2385762710304833E+01    3.0335802267819658E+00
Br   -1.1911187353009964E+01   -3.2074440678712914E+00   -2.3567667751343704E+00
Br    2.2538879718826088E+00    8.6223953596338490E+00    1.1278142310170896E+01
Br   -8.9603628355603142E+00   -3.1661249677804806E+00   -5.3443902575232878E+00
Br   -8.8486026001050941E+00   -4.2518603349813561E-01   -2.2329315407574191E+00
Br    3.0244421801161510E+00    2.9443446647568479E+00    1.1296827195753062E+01
Br   -5.8210483264999180E+00    8.6230590396867353E+00   -2.7049272630550205E+00
Br   -2.6114907211284506E+00    8.3665081825874541E+00   -6.5412478631882438E+00
Br   -3.8974759501348277E+00    1.1566406381031252E+01   -4.0081459807568569E+00
Br   -6.0285857516013532E+00    2.1908892757216170E+00   -2.6004770886960666E+00
Br   -1.0927611251228559E+01   -8.7331389515053282E+00    3.6596345056225585E+00
Br   -3.6764354544996465E+00    2.6886906188909947E+00   -6.3958929435652889E+00
Br   -5.6995347681028559E+00   -3.1589674980386548E+00   -8.1733813508172926E+00
Br   -3.0325107161945248E+00   -2.7319385180108915E+00   -1.1898458741190440E+01
Br   -3.3990855764067383E+00   -2.1510074294937911E-01   -9.0927639642397757E+00
Br   -2.9971945147592902E+00    2.4024414134642282E+00    1.1420425451865576E+01
Br   -5.7553753895442501E+00   -8.7737334529723991E+00    9.7688920662790260E+00
Br   -2.5609191726681355E+00   -9.2422775192976090E+00    6.4246527768975659E+00
Br   -3.0839763390535544E+00   -5.9902755876135299E+00    8.2355111767067175E+00
Br   -8.7683509740311649E+00   -8.7440751454864767E+00    7.8570165234079647E-01
Br   -7.6275021462644279E+00   -5.9713040304217904E+00    3.5523002425340571E+00
Br   -7.9924188531371563E+00    9.6476438427345244E+00    1.1555099944659521E+01
Br    1.1636222465296109E+01    8.8004052102050263E+00    2.6454794409091127E+00
Br   -9.3317039283637087E+00   -8.4002618118784920E+00    1.2323233412592440E+01
Br    1.1886000251335537E+01    9.7005086066906809E+00   -3.1660985636012202E+00
Br    1.1259323380514443E+01    3.2943803217503711E+00    1.5231408765786894E+00
Br   -9.4122005286557524E+00    2.8718556617489255E+00    1.1752432979365572E+01
Br   -1.1549894036994729E+01   -3.5190583725219784E+00   -8.8526036620947899E+00
Br    1.1816945659412882E+01   -2.6690375589373145E+00    8.5575309951492766E+00
Br   -5.2098198037703183E+00   -9.1050961323501483E+00    3.1018392831159973E+00
Br    6.1510690665720462E+00   -2.9156758795353142E+00   -8.5906080553018693E+00
Br    8.6262706885100133E+00   -3.8300258123296360E+00   -1.1745251363837342E+01
Br    1.2206006607940576E+01   -7.6926520843421660E+00    8.4638160468377386E+00
Br    8.9643145106376441E+00   -6.4263676901959041E-02   -9.0195157778295574E+00
Br   -9.3473029470786368E+00   -1.2029895186429611E+01    9.8864886173013371E+00
Br   -2.4538990799323059E+00   -9.4972616366285116E+00    4.4439915387685486E-01
Br   -2.3794317232309425E+00   -6.1073778812127220E+00    2.1405342055829468E+00
Br    6.2844851141888114E+00   -8.7979265376355560E+00   -8.4332719970223717E+00
Br   -5.6005967960750107E+00   -8.9144032841574159E+00   -7.7816171723013952E+00
Br    8.4757597726151737E+00   -9.7060064820130645E+00   -1.2014362849774862E+01
Br    9.3685676018679391E+00   -6.1196038531739907E+00   -9.0976059300859617E+00
Br   -3.3997949629232389E+00   -1.2370851359840938E+01    9.1601565460429537E+00