 # Version information for this restart file 
 # current date 2021-06-17 12:41:07.353
 # current working dir /user/ub2042/exercises/2_fitting/MM_MD_workdir/md_settings.003
 # Program compiled at                              Thu Apr 22 21:44:59 EDT 2021
 # Program compiled on                cpn-k07-07-02.compute.cbls.ccr.buffalo.edu
 # Program compiled for                                                    local
 # Source code revision number                                       git:36754bb
 &GLOBAL
   PRINT_LEVEL  LOW
   PROJECT_NAME cp2k
   RUN_TYPE  MD
 &END GLOBAL
 &MOTION
   &MD
     ENSEMBLE  NVT
     STEPS  10000
     TIMESTEP     2.4999999999999996E+00
     STEP_START_VAL  9970
     TIME_START_VAL     2.4924999999995514E+04
     ECONS_START_VAL    -1.4031592531677251E+01
     TEMPERATURE     3.0000000000000000E+02
     &BAROSTAT
       PRESSURE     1.0100000000000000E+00
       TIMECON     9.9999999999999982E+03
     &END BAROSTAT
     &THERMOSTAT
       TYPE  CSVR
       &CSVR
         TIMECON     9.9999999999999982E+03
         &THERMOSTAT_ENERGY
              -2.7457494396821291E-01
         &END THERMOSTAT_ENERGY
         &RNG_INIT
Wiener process for Thermostat # 1        1 F T F   2.7653048661578805E-01        4127636088.0        4103140563.0        2040976024.0         115846524.0         859054296.0        2160992230.0             12345.0             12345.0             12345.0             12345.0             12345.0             12345.0             12345.0             12345.0             12345.0             12345.0             12345.0             12345.0
         &END RNG_INIT
       &END CSVR
     &END THERMOSTAT
     &AVERAGES  T
       &RESTART_AVERAGES
         ITIMES_START  1
         AVECPU     1.7530902321758676E-02
         AVEHUGONIOT     0.0000000000000000E+00
         AVETEMP_BARO     0.0000000000000000E+00
         AVEPOT    -1.4390615332592049E+01
         AVEKIN     5.0304897084478217E-01
         AVETEMP     2.5518090224329106E+02
         AVEKIN_QM     0.0000000000000000E+00
         AVETEMP_QM     0.0000000000000000E+00
         AVEVOL     6.7483345830912264E+06
         AVECELL_A     1.8897261328855686E+02
         AVECELL_B     1.8897261328855686E+02
         AVECELL_C     1.8897261328855686E+02
         AVEALPHA     9.0000000000000000E+01
         AVEBETA     9.0000000000000000E+01
         AVEGAMMA     9.0000000000000000E+01
         AVE_ECONS    -3.8397727134408490E+00
         AVE_PRESS     0.0000000000000000E+00
         AVE_PXX     0.0000000000000000E+00
       &END RESTART_AVERAGES
     &END AVERAGES
     &PRINT
       &ENERGY  SILENT
         &EACH
           MD  10
         &END EACH
       &END ENERGY
     &END PRINT
   &END MD
   &PRINT
     &TRAJECTORY  SILENT
       &EACH
         MD  10
       &END EACH
     &END TRAJECTORY
     &CELL  SILENT
       &EACH
         MD  10
       &END EACH
     &END CELL
     &VELOCITIES  SILENT
       &EACH
         MD  10
       &END EACH
     &END VELOCITIES
     &FORCES  SILENT
       &EACH
         MD  10
       &END EACH
     &END FORCES
     &RESTART  SILENT
       &EACH
         MD  10
       &END EACH
     &END RESTART
   &END PRINT
 &END MOTION
 &FORCE_EVAL
   METHOD  FIST
   &MM
     &FORCEFIELD
       VDW_SCALE14     1.0000000000000000E+00
       EI_SCALE14     1.0000000000000000E+00
       SHIFT_CUTOFF  T
       DO_NONBONDED  T
       IGNORE_MISSING_CRITICAL_PARAMS  T
       &SPLINE
         R0_NB     2.5000000000000000E-01
       &END SPLINE
       &NONBONDED
         &LENNARD-JONES
           ATOMS Br Br
           EPSILON     1.2630795322675199E+02
           SIGMA     3.6900000000000004E+00
         &END LENNARD-JONES
         &LENNARD-JONES
           ATOMS Cs Pb
           EPSILON     8.6920055954630968E+01
           SIGMA     3.6699999999999999E+00
         &END LENNARD-JONES
         &LENNARD-JONES
           ATOMS Cs Cs
           EPSILON     2.2644852172126850E+01
           SIGMA     4.5300000000000002E+00
         &END LENNARD-JONES
         &LENNARD-JONES
           ATOMS Pb Pb
           EPSILON     3.3363415533600227E+02
           SIGMA     5.9000000000000004E+00
         &END LENNARD-JONES
         &LENNARD-JONES
           ATOMS Br Cs
           EPSILON     5.3481070753900497E+01
           SIGMA     3.6300000000000003E+00
         &END LENNARD-JONES
         &LENNARD-JONES
           ATOMS Br Pb
           EPSILON     2.0528187276773045E+02
           SIGMA     2.9800000000000000E+00
         &END LENNARD-JONES
       &END NONBONDED
       &CHARGE
         ATOM Cs
         CHARGE     4.1739999999999999E-01
       &END CHARGE
       &CHARGE
         ATOM Pb
         CHARGE     8.3479999999999999E-01
       &END CHARGE
       &CHARGE
         ATOM Br
         CHARGE    -4.1739999999999999E-01
       &END CHARGE
     &END FORCEFIELD
     &POISSON
       PERIODIC  XYZ
       &EWALD
         EWALD_TYPE  SPME
         GMAX  62 62 62
         O_SPLINE  4
       &END EWALD
     &END POISSON
     &PRINT
       &FF_INFO  LOW
         SPLINE_INFO  F
         SPLINE_DATA  F
       &END FF_INFO
     &END PRINT
   &END MM
   &SUBSYS
     &CELL
       A     1.0000000000000001E+02    0.0000000000000000E+00    0.0000000000000000E+00
       B     0.0000000000000000E+00    1.0000000000000001E+02    0.0000000000000000E+00
       C     0.0000000000000000E+00    0.0000000000000000E+00    1.0000000000000001E+02
       PERIODIC  XYZ
       MULTIPLE_UNIT_CELL  1 1 1
     &END CELL
     &COORD
Cs   -5.5053289912148543E-02   -1.5565462850306804E+00   -5.9211228520631947E+00
Cs    6.8317336360634917E-01   -7.0205028943593382E+00   -4.2738909268561684E+00
Cs    1.3414381021184407E+00   -1.2101037372659196E+01   -3.8312155809002038E+00
Cs   -5.3144199797277487E+00   -7.0277256702950917E+00   -4.6986509123126039E+00
Br   -6.9043317062360634E+00   -1.4218104262988216E+01   -6.1879285987719763E+00
Br    1.1082198198380105E+01   -2.8620987347769842E+00   -9.1210136986532273E+00
Br   -4.0529326351097215E+00    2.1282285309968271E-01   -1.1827876929995959E+01
Cs   -8.7337406790093997E-01    4.4125834940425381E+00   -7.1107228630340034E+00
Cs    4.8851150967422219E-01   -7.1577987936137266E-01    3.4365011602305162E-01
Cs    6.3128197829167565E-01   -5.5175417686721673E+00    7.7441058777266003E-01
Br   -4.8224628156020719E+00   -3.6527086156312278E+00    3.7913567972638651E+00
Cs   -8.5138711576188832E+00   -6.0810487852984236E+00    1.3892867262128055E+01
Cs    1.4249659010206120E+01   -8.4146539897547719E+00    6.2885702360506179E-01
Cs   -6.2445782448518381E+00    4.4395790670327155E+00    1.1652878822556739E-01
Cs   -2.2355307747703903E+00    1.1659050157645218E+01   -1.5420037290291273E+00
Cs   -1.6092789754417867E+00    5.0828416235052352E+00   -1.4510302690448604E+00
Cs    3.7481423050117313E-01    5.2077093405416142E-01    5.4298634798999421E+00
Cs    2.8721115718594628E+00   -5.3596218818469783E+00    7.3680460895788737E+00
Cs    3.2262023989122213E+00   -1.0333780616027953E+01    7.2602427194193924E+00
Cs   -5.6185550424631998E+00    5.6228110194216558E+00    1.1161763578214876E+01
Cs   -6.3072998992005980E+00   -3.2044686898143975E+00   -1.0603400712611275E+01
Cs   -4.4799028256718092E+00   -1.2284735537511823E+01   -3.3079846680908220E+00
Cs   -5.2401004828676978E+00    4.8687030137483829E-02    5.4420550285658091E+00
Br   -2.3802942743228561E+00   -3.7924470959754699E+00    6.3118422183820611E-01
Cs   -3.1555613899217450E-01    6.6514431550679634E+00    3.7300451263864840E+00
Br    1.2045851894562146E+01   -8.3212822398735877E+00   -9.8052760189105062E+00
Cs    3.3693618423794218E+00   -4.0445964287663818E+00    1.3191914970360518E+01
Br   -2.6240631165189958E+00   -4.4356547496516674E-01    2.4991064344463445E+00
Br   -6.3992028319981165E+00   -2.3091833535510879E+00    1.3598239312293501E+01
Cs    9.0278504611817798E+00    1.1287466276488182E+01   -8.3091900468132636E+00
Cs   -9.7250142420831871E+00   -6.1158824045921225E+00    8.0992368759566844E+00
Cs   -3.6996397008290214E+00   -5.4933900155844935E+00    6.7803302878446354E+00
Cs   -8.4779733773187047E+00    9.2183029956746676E+00   -7.1806184496191232E+00
Br   -8.2971204177642495E+00   -8.9655046123672104E+00    1.2532491919800893E+01
Br   -6.0134346149962017E+00   -9.4880455033228515E+00    8.7073489711718501E+00
Cs   -1.0207796919160996E+01   -9.4184008976815434E+00   -3.1716973493907017E+00
Cs   -8.0784308573606651E+00    3.9647977409303001E+00   -7.0000559449073423E+00
Br   -6.6203503388447471E+00   -6.0448433181312247E+00    1.0467007232936481E+01
Cs    9.9945693320609497E+00    9.9273170648113389E+00    9.3090640894810708E+00
Br   -1.2696339898911306E+01    7.3310440863671138E+00    8.3302872637990042E+00
Br   -5.6623901521617164E+00   -4.7638740746530379E+00   -1.7967976058963862E+00
Cs    1.3528183550889680E-01    1.9963512213377581E+00    1.1112618096106599E+01
Cs    9.5148351628236281E+00    8.1454787925575172E+00   -2.4702659342225570E+00
Cs   -1.0823338457789390E+01   -9.1186252866076440E+00   -9.9673365735512061E+00
Cs    1.1311602504254228E+01    3.3304761902960216E+00    4.8893469218902759E+00
Cs   -1.2972925625392984E+01    8.7866498291785629E+00   -7.8418237313931547E+00
Cs    1.4743322412796173E+01   -7.0239720913915127E+00    7.4289574491610884E+00
Cs    5.2328824748956198E+00   -7.2859760616974940E+00   -1.0654190978622912E+01
Cs    9.8343587575668643E+00   -8.6947521003520993E+00    7.3951639951098072E+00
Cs   -4.3307832726346875E+00   -1.3281084025511353E+01    1.7983915981779999E+00
Cs    6.5174315057155274E+00   -1.2645965505237337E+01   -9.7585490380088054E+00
Cs    1.1933337366120913E+01    7.7718759049971702E+00   -7.3357616040962661E+00
Cs    8.6341425785570447E+00    1.5081100491181077E+01    2.1354537427698057E+00
Cs    1.0093474818145141E+01    6.2524833109691187E+00   -1.2787842931618419E+01
Cs    5.0008045802363132E-01   -7.6906552522406564E+00   -9.5897774107764864E+00
Cs   -1.1808013563513885E+01   -2.9238517152031687E+00   -4.8216504800382038E+00
Cs    7.8750121182606199E+00   -3.3496264487584648E+00    1.1383078794889382E+01
Cs    1.2469407639147141E+01   -1.8988418495609931E+00    6.2321817740029397E+00
Cs   -1.9022337050751272E+00   -7.5454012087647335E+00    1.5182367658086175E+01
Cs   -1.0380456047618756E+00   -1.8107297708834391E+00   -1.1250246783540343E+01
Cs   -2.1396617101558930E+00    1.1959246930873910E+01    4.0625052573782865E+00
Cs   -2.4562976528824891E+00    3.8635359008181345E+00   -1.2797800531715442E+01
Cs    5.9891926559290605E+00    3.2244840238696404E-01   -6.3611916989460306E+00
Cs    6.1006793155996473E+00   -6.5446692814792451E+00   -5.5639035901457641E+00
Cs   -2.6789267400035377E+00   -1.1036291821902450E+01    8.1479173926741808E+00
Cs   -1.0408685348074387E+01   -1.1598283581045059E+00    6.4778600662693444E+00
Cs    4.8610958125032457E+00   -1.1624342986957819E+00   -1.1944144078391263E+01
Cs    3.3780169705844973E+00    1.1616910769799240E+01   -1.3160597850446910E+01
Cs    5.6173455681951388E-02    7.8598027142385742E+00    1.0945138246429110E+01
Cs   -7.4891429532375602E+00    1.0182308827171420E+01    4.1393051861233250E+00
Cs    3.2769484474880324E+00    1.0987625154380799E+01   -8.6905246905746729E+00
Cs    4.8780209158643695E+00    5.9594075059935179E+00   -8.2316611468317991E+00
Cs    6.5937052343090050E+00    8.7156152798134967E-01   -8.9187882890452763E-01
Cs    6.8442389246341069E+00   -5.5674583831712727E+00   -2.0303034804174361E-01
Cs    9.0231718731851522E+00   -1.0885703281946046E+01    1.9658464757750673E+00
Cs    3.6732398677110250E+00    4.9351834643212094E+00   -1.3103957710349608E+01
Cs   -6.8915988872840996E+00    5.3085127212245879E+00    5.3036370118025875E+00
Cs   -5.3703073103246091E+00   -8.4206821667047524E+00   -1.0108458302017896E+01
Cs    4.4008312365849909E+00    6.1737708261036115E+00   -2.2347260007631786E+00
Cs    6.3940051267914493E+00    2.0368260736998556E+00    5.4517167743249058E+00
Cs    7.9041396962890396E+00   -3.6975372884328519E+00    6.2436224665004483E+00
Cs   -6.8373169414558772E+00    9.8527980315789456E+00   -8.1020661673697025E-01
Cs    1.1018759080773412E+01    1.7828859603953007E+00   -1.0122111398239564E+00
Cs   -5.8477814448066674E+00   -1.4900166679035500E+00    9.3852127563394949E-01
Cs   -1.1739671164950826E+01    5.0514173598066145E+00    6.2236866686349011E+00
Cs   -5.2202825535083770E+00    7.4713465198122142E-01    1.1669418919931882E+01
Cs    3.4100337044939968E+00    1.3866227664851467E+01    3.4955697760225912E+00
Cs    5.0006234233982712E+00    7.6018569280755122E+00    4.8996761552091099E+00
Cs    6.5666260277779909E+00    2.4176859257435601E+00    1.1094656376248764E+01
Cs    3.9530992723869200E+00    1.2332415838527936E+01   -2.8410928084360374E+00
Cs    1.0977466457368992E+01    7.9253783288092261E-01   -6.7384672359621884E+00
Cs    1.1306173591108069E+01   -4.6939934197171258E+00   -6.4488864650738194E+00
Cs    1.0072610319030485E+01   -8.1815695156171859E+00    1.2402854687932708E+01
Cs    7.9586734589196428E+00    1.4517840123008844E+01   -3.3671627343990811E+00
Cs   -1.2478765655662853E+01    5.4950799498785114E+00    1.1312130144496683E+01
Cs   -8.4996629670003649E+00    2.3898546631061701E+00   -1.2339650053007148E+01
Cs   -1.2247079178237573E+01    1.0144997624189816E+01   -1.6982260649736873E+00
Cs   -3.0491460324241864E+00   -3.0564407440026753E+00    1.3809228198206908E+01
Cs   -2.0905591747105881E+00   -1.2308585193092272E+01    1.3071877067975759E+01
Cs    5.0684809862835651E+00    8.7055777097941665E+00    1.0010730058969068E+01
Cs    1.1910940851491317E+01   -3.4841321753096137E+00   -7.1257150026908422E-01
Cs   -1.0737400183980146E+01   -1.7805294902506290E+00    1.2319019307282020E+00
Cs   -8.6278812435934125E+00    7.5411774399381786E+00   -1.3128576387029387E+01
Cs   -1.2671000265780336E+01    3.1270471517859981E+00   -5.1974216484160218E-01
Cs   -1.2226825431799446E+01   -1.3129795499203160E+01   -1.2847184344813130E+00
Cs   -9.8897787897614489E+00   -7.8696531231566533E+00    2.2814751356595000E+00
Cs   -4.3309678994785079E+00   -6.8856827529185400E+00    1.6859659374870746E+00
Cs   -8.3231714772134033E+00   -1.1474297647740729E+01    1.0353049011323986E+01
Cs    1.2705297747679085E+01   -9.4086737679075882E-01    1.1527194990573136E+01
Cs    1.0030431392956659E+01    8.8291592050351788E+00    3.9192469488131922E+00
Cs   -1.4738871502553478E+01    1.6123566568461694E+00   -5.6951153042970004E+00
Cs   -7.0353483125386118E+00   -2.2832681389343095E+00   -5.3309201516147908E+00
Cs   -1.0147419405107806E+01   -1.2032241247864583E+01    3.1765555556788736E+00
Cs    9.8467520892291969E+00   -7.4958492055908383E+00   -1.2046956924256429E+01
Cs   -4.3413002805041643E+00   -1.3557369614335757E+01   -8.1844899724781879E+00
Cs   -2.8178997226223830E+00    9.6049615625986107E+00   -1.3374183394201763E+01
Cs    1.0600427475067733E+00   -1.3157226660707876E+01   -8.3436273480051852E+00
Cs   -2.0955322294627878E+00    9.6021857094108611E+00   -8.1153935114810007E+00
Cs   -7.0461060403582616E+00    1.3205929606354786E+01    7.0729916031088198E+00
Cs    2.4393590625895065E+00   -1.0794003238707869E+01    2.1115792954708010E+00
Cs   -1.2808504846557634E+01   -3.2143219560918599E+00   -1.0457663603464530E+01
Cs   -1.2292502959641595E+01    1.0273279602921514E+01    4.7778986326064068E+00
Cs    7.7887593277898883E+00   -1.1149809791167687E+01   -4.0083481073014546E+00
Cs    1.0647322770126266E+01    4.3598415010620360E-02   -1.2092872215705514E+01
Cs   -1.0291446679166281E+00    1.2854420459980672E+01    9.5840817191160710E+00
Pb    3.3976582122373680E+00   -3.6267721808797213E+00   -2.5954553394501629E+00
Pb    4.3974536260792405E+00   -9.2423698107289702E+00   -1.4930023567584565E+00
Pb   -7.7136042125870183E+00   -3.9234620204072645E+00    4.6416003971013033E+00
Pb   -1.3157002301105329E+00   -1.0033357079517472E+01   -8.8727592089140506E-01
Pb    1.0395487228666807E+00    8.4446953897000814E+00   -5.0954040481079632E+00
Pb    2.0384311072194659E+00    2.0535651618620410E+00   -3.7950774786668022E+00
Pb    3.5732731138084937E+00   -2.6295961630027813E+00    3.3561879471216489E+00
Pb    5.3382457922810937E+00   -7.9153202713548740E+00    4.1719248071369668E+00
Pb   -4.1394863953099668E+00    8.4238092053493130E+00    1.7050652312234313E+00
Pb    1.4719841571042471E+00    9.7017755570462594E+00    4.4696435548916352E-01
Pb    2.2812229475801931E+00    3.7743158640567143E+00    1.7032863355286361E+00
Pb    4.2249006855596889E+00   -1.0366016727280285E+00    8.9938605882669194E+00
Pb    5.9561604496843996E+00   -6.8423017824698560E+00    1.0006430677648250E+01
Pb   -3.2580249907961880E+00    2.6073092825685453E+00    2.1381556024615973E+00
Pb    1.9311080534193186E+00    1.0760306064151591E+01    6.5231079604048414E+00
Pb    2.8539733886703038E+00    4.3853150120017208E+00    7.7008585835832983E+00
Pb   -1.5605965251223575E+00   -1.7927734169012102E+00    9.3014405595789036E+00
Pb   -6.9777108542685280E+00   -9.4166610648891744E+00    6.0080241160770491E+00
Pb   -9.6118626968220280E+00    9.5478045590928606E-01   -2.8607585666256408E+00
Pb   -2.8006174969343194E+00   -4.7677028809047695E+00   -8.1683009479721314E+00
Pb   -6.4978299623868585E-01   -8.8844614691999997E+00    4.9300681065674148E+00
Pb   -4.6827342218048109E+00    7.6030765440260408E+00   -4.1462574534418986E+00
Pb   -2.2364716026268838E-02   -7.5251784309471939E+00    1.0520412433073668E+01
Pb   -8.6440798036400999E+00   -4.4444909862547108E+00   -1.2884392807842036E+00
Pb   -7.6450857596883308E+00   -1.0647837032351811E+01   -1.4725969339282402E-01
Pb   -3.8463829002186389E+00    1.5909410146860454E+00   -3.6454359779124745E+00
Pb   -5.5429716606542740E+00   -8.5206817045215484E+00    1.2077924552044525E+01
Pb   -8.9618970727795411E+00   -5.7936495638733136E+00   -7.4865184002333818E+00
Pb    8.4680737574675220E+00   -3.3534855465528630E+00   -9.4566088329146289E+00
Pb    9.3806247488978070E+00   -9.1561547229894824E+00   -7.9227780488161459E+00
Pb   -2.1490991680333886E+00   -1.0451106453788196E+01   -6.8893718617538244E+00
Pb   -1.0974415201019937E+01    5.6441061730801172E+00   -9.8551720685552215E+00
Pb    2.8753816229711133E+00   -3.9217005915052146E+00   -8.6274053336192633E+00
Pb    3.5476407002903745E+00   -9.9186382114044989E+00   -7.1697073211658076E+00
Pb   -3.9916772705270911E+00    9.2413592761843688E-01   -9.1580734305483915E+00
Pb    5.6043641758066676E-01    7.7171364187236167E+00   -1.0897151897763806E+01
Pb    1.7480040714684628E+00    1.9818390604445575E+00   -9.8779280185903087E+00
Pb    8.6918546628020934E+00   -2.1757329405365535E+00   -3.6537772197128517E+00
Pb    1.0267550069948502E+01   -7.8861501432985683E+00   -2.2293482229773267E+00
Pb   -7.4039805739142253E+00   -3.3654048487210995E+00    1.0398526372153809E+01
Pb    6.8022880176138036E+00    8.9038931635853906E+00   -1.1318705008538929E+01
Pb   -1.0090268157094835E+01   -2.1066647600992822E-01   -8.5999355309428385E+00
Pb   -3.7939089774883383E+00    9.4673819205082967E+00    7.4921762773802385E+00
Pb    6.8440447478244995E+00    9.5883607707084852E+00   -5.3011836775140511E+00
Pb    8.2046656014273225E+00    3.8910697411732547E+00   -4.1630454545103950E+00
Pb    9.4266005460637690E+00   -7.6148526536012184E-01    2.7097552381158678E+00
Pb    1.1220698780891604E+01   -6.4658532217923970E+00    3.6483902098496910E+00
Pb    7.8844132468504462E+00    2.7379880983102853E+00   -9.7683150850130236E+00
Pb   -3.1295953831752006E+00    3.4872512842264167E+00    8.1676125136133280E+00
Pb    7.4824334589862076E+00    1.1154856060426242E+01    1.9791817539150081E-01
Pb    8.0088213770172487E+00    4.8265340373858576E+00    1.7003490425623857E+00
Pb    9.6309145451897926E+00    6.3655276967493180E-01    8.4150800961950427E+00
Pb    1.1516451531923195E+01   -4.9455470983596639E+00    9.6118861970213310E+00
Pb    7.4290749053228193E+00    1.2264060977761410E+01    6.0734107229857086E+00
Pb    8.6334331942991334E+00    6.2019129843246255E+00    7.7332415709222806E+00
Pb   -8.9303480035326519E+00    2.4476360455809796E+00    8.9742669034653613E+00
Pb   -2.0622323987569025E+00   -3.2688715503304495E+00    3.5457172602998352E+00
Pb   -1.0247712853984497E+01    7.4891728574737391E+00    1.8768030306770900E+00
Pb   -1.0779676441147027E+01    6.7419467104263795E+00   -3.8692732308571141E+00
Pb   -7.8355751012331485E+00   -1.1704685935364170E+01   -6.0597995953502979E+00
Pb   -5.0210720709193239E+00    6.8804316779379793E+00   -1.0300307729355973E+01
Pb   -9.0292765280857630E+00    1.5832405547041439E+00    3.0606277056388231E+00
Pb   -9.9854070952213796E+00    8.5416869009122696E+00    8.0123936583824271E+00
Pb   -2.4975315436807652E+00   -4.1291770792255420E+00   -2.2830426980768608E+00
Br    5.4543131949363299E-01   -4.1709111930937457E+00   -2.4257888965872265E+00
Br    3.6767315404225722E+00   -3.5580214268330823E+00   -5.5078518910269567E+00
Br    2.7597876132733612E+00   -7.5400329241258623E-01   -3.3553174014430498E+00
Br    1.6466815111590349E+00   -9.8132796323420859E+00   -9.0834747580085640E-01
Br    3.9144101191019880E+00   -1.0062857069679049E+01   -4.2996719040686990E+00
Br    3.6367135418489829E+00   -6.3155320399196642E+00   -2.0023893823048700E+00
Br   -2.6186037592696354E+00   -5.1576013803238139E+00   -4.8753362188831133E+00
Br   -7.6068915759110407E+00   -3.8767521568527812E+00    7.4667674275043510E+00
Br   -3.5054170394685968E+00   -1.3643047656088705E+00   -3.3119187311836047E+00
Br    5.5346064506911823E+00   -1.1643403863322193E+01   -1.1844560638857224E+00
Br    1.2412864433344353E+01   -2.8761509649484268E-01    2.7748984457077075E+00
Br   -4.0661423884826409E+00   -1.0359358236095842E+01   -1.9880505134184667E-01
Br   -1.0449513209934729E+01   -4.0421434571827479E+00    5.3223810601187349E+00
Br   -8.6545149622122963E+00   -4.7467860741450449E+00    1.8817772993124362E+00
Br    1.4320119621581631E+01   -6.9212697826246732E+00    4.0882361438907848E+00
Br   -1.9274899877735996E+00    8.6310488695634646E+00   -4.7360162440897566E+00
Br    2.8407905024358032E-01    7.2404699677934765E+00   -7.8563005700629054E+00
Br    9.3704925549401619E-01    1.1231244167856289E+01   -6.4191219779681328E+00
Br   -7.7485648742743907E-01    1.4241285875849470E+00   -3.5832561160807943E+00
Br    2.4137006810474504E+00    2.0123008281045376E+00   -6.7291438221026478E+00
Br    1.0795777546644110E+00    5.4460668807504637E+00   -4.6857640858764942E+00
Br    6.8381306096984285E-01   -2.5029271610537123E+00    3.7457390071270904E+00
Br    3.2606636448737927E+00   -2.9341878806032149E+00    4.7959332972634855E-01
Br    2.6819694125491900E+00    9.2416078953292347E-01    2.4249658762640047E+00
Br    2.3992083134885478E+00   -8.4599337615803556E+00    4.7828951956218688E+00
Br    4.8823697396226011E+00   -8.2327105481577973E+00    1.1029435558736402E+00
Br    4.1010947890022083E+00   -5.2892180106637952E+00    4.1549038196125654E+00
Br   -8.0777281654909387E+00    5.5884096046597964E+00   -1.0212780572104919E+01
Br   -5.5228706053939502E+00    6.6166324589527736E+00   -1.3192963655226029E+01
Br    5.9065103855470582E+00   -1.0692613546239860E+01    3.6934425584935604E+00
Br   -5.1430359578783884E+00    1.0040808223874278E+01   -1.1075433011478795E+01
Br   -4.5491473578016102E+00    3.9471029296748417E+00   -1.0294422676741583E+01
Br   -8.3469509205349723E+00   -1.2167203322231166E+00    3.9823870114777282E+00
Br   -1.7195598799887859E+00   -9.7572538464149776E+00   -3.9678907406061268E+00
Br   -7.0639942273702472E+00    7.8932114726000000E+00    1.6950099064274102E+00
Br   -4.5435290145016713E+00    7.4701819432946772E+00   -1.1192415567002449E+00
Br   -4.2679787454426199E+00    1.1341004984492058E+01    1.3470798797110179E+00
Br   -1.6343099866400135E+00    8.7632454061471403E+00    7.5077172923988633E-01
Br    8.8467749525279671E-01    1.0109813188189506E+01   -2.5657681709086848E+00
Br    5.8951098726657924E-01    1.2698354008717972E+01    7.3542936271046022E-01
Br   -6.7526753288063379E-01    3.6054186029163757E+00    2.2430350114704187E+00
Br    1.9763009763458699E+00    2.5820489239651381E+00   -1.0896797933499596E+00
Br    1.7015672415446585E+00    6.4093501533586101E+00    7.3163506797694022E-01
Br    1.1809359523626859E+00   -1.2734597143869051E+00    8.8472792663659376E+00
Br    4.1018579645685671E+00   -2.3116987424780793E+00    6.3408118949411119E+00
Br    3.4200145122169885E+00    1.7615659819382787E+00    8.4871809584550828E+00
Br    2.7318241741347351E+00   -7.7265723532616439E+00    1.0361623885515653E+01
Br    5.3352211350101442E+00   -7.6675128235401235E+00    7.2021352365815234E+00
Br    4.8281393236358987E+00   -3.9016625905068096E+00    9.6588428357911020E+00
Br   -1.1764727827300399E+01    7.4443554569900261E-01    3.1076849378605700E+00
Br   -9.6213424209545266E+00    1.6770578960885161E+00    3.1508279673150408E-01
Br    7.7512762542809623E+00   -9.3739739814351530E+00    1.0241386324104944E+01
Br   -9.3340072873493565E+00    4.6043814528585978E+00    2.6021106483833290E+00
Br   -7.5278428355471396E+00   -6.0815665785848338E-01    9.1446943784826669E+00
Br   -2.0070155608732252E+00   -6.9326918053470044E+00   -1.2286946387724267E+00
Br   -6.0007777477695337E+00    1.7842701599245456E+00    2.4861383480887409E+00
Br   -3.0937212295239505E+00    2.1372768678171683E+00   -8.1122971891099005E-01
Br   -4.0423795778683722E+00    5.5758892403292801E+00    2.2445088592702542E+00
Br   -1.0557489485516089E+00    1.0451797170223482E+01    6.8858241880357065E+00
Br    1.4222729237132918E+00    9.5390657071538900E+00    3.3875146509425482E+00
Br    7.0773758074956461E-01    1.3426784972708235E+01    6.2196779918948470E+00
Br   -4.0441146851749467E-02    4.1874159765450027E+00    7.5976058981093049E+00
Br    3.2514449745088383E+00    4.1713362449559774E+00    4.6295778025973595E+00
Br    2.8559916919820458E+00    7.9700541512682817E+00    7.6265933539728801E+00
Br   -4.2400547976915961E+00   -2.2049689899273042E+00    1.0074486032747423E+01
Br    4.4278902363947372E+00   -7.1016563123448917E-01    1.1709405405798632E+01
Br   -2.0779358725496957E+00   -2.2285737096620712E+00    6.3225783432328502E+00
Br   -2.3997284120703641E+00    8.7012504138570468E-01    8.8780500621775111E+00
Br   -1.3395182322016708E+00   -1.2714195384807315E+01   -1.8852124545214020E+00
Br    6.2446507104927145E+00   -6.0208340741126234E+00    1.2796098095771994E+01
Br   -1.2397389606444715E+01    9.2475206727620052E-02   -2.9581219669555727E+00
Br   -8.0667643557258209E-02   -1.1585130667532052E+01    5.8357126688286565E+00
Br   -1.1621299911921080E+01   -3.6347954797130173E+00   -1.3509995599459488E+00
Br    2.2139234806404366E+00    1.1075770379710519E+01    9.6203070541481619E+00
Br   -8.6588965504112085E+00   -5.1437938308581206E+00   -4.2203832927995579E+00
Br   -8.7988921294483848E+00   -1.5524793389233342E+00   -1.6308467086947613E+00
Br    2.0970075996334550E+00    4.7613462908901250E+00    1.0750225707182373E+01
Br   -7.9175345003502615E+00    7.2598723251712922E+00   -4.0380972411420286E+00
Br   -5.1584982324046589E+00    7.7100523740680442E+00   -7.6664249151701620E+00
Br   -4.8374961138591948E+00    1.0539125044296247E+01   -3.4440146475720921E+00
Br   -6.6648731041021909E+00    1.3081411991362750E+00   -3.4048066036266507E+00
Br   -9.4597062911767651E+00   -9.8665014266186848E+00    7.4328247147315256E+00
Br   -4.5162950518802916E+00    1.9264555605569129E+00   -6.6849917394356311E+00
Br   -5.7108046729278694E+00   -5.0393770095451424E+00   -7.5144849319657014E+00
Br   -3.3651897270688362E+00   -5.4674660004205125E+00   -1.0768387554968266E+01
Br   -3.0200650074107158E+00   -1.8771614398841536E+00   -8.7053534921023168E+00
Br   -2.6747136390017037E+00    4.3699187903142338E+00    1.0934339259887290E+01
Br   -2.5017005305707491E+00   -8.5134208925407879E+00    1.1135057629723724E+01
Br    5.1308078594221693E-02   -8.8258853071165220E+00    7.8740111310140746E+00
Br   -4.9368245589712778E-01   -4.6181358118708760E+00    9.3240374264117953E+00
Br   -7.4779931162836890E+00   -1.0002762630635816E+01    2.7578979646379747E+00
Br   -7.7381401176397810E+00   -6.9518036012816715E+00    4.9709409588369375E+00
Br   -9.9789686210968291E+00    8.8283643188284575E+00    1.0788981941955912E+01
Br    9.7770559214450241E+00    1.3286471948910181E+01   -5.5024344006456860E-01
Br   -5.5578836845721717E+00   -7.6001464861548973E+00    1.5102923675244854E+01
Br    9.8231034259567522E+00    1.0002252700428397E+01   -5.5005910179131385E+00
Br    1.0936893215069581E+01    5.0123231283150806E+00    1.2826856537262374E+00
Br   -8.1743303796535383E+00    2.9872473855900514E+00    1.2003496834321785E+01
Br   -1.2291892249366258E+01   -5.9014813943814426E+00   -8.5016372816687138E+00
Br    1.2350235746515075E+01    6.0991446995980281E-01    8.4935767022106212E+00
Br   -3.9715207310071521E+00   -8.9925187359621379E+00    5.5205202529820614E+00
Br    5.5320087997793381E+00   -3.9719299325852044E+00   -9.6176765897810146E+00
Br    8.2613223960532629E+00   -4.2424369191539091E+00   -1.2330674273397811E+01
Br    1.4294823832758325E+01   -3.5658579490053244E+00    9.1772588181984585E+00
Br    7.7608945515497867E+00   -4.7981002195089595E-01   -9.3537730192026149E+00
Br   -4.8055111801582271E+00   -1.1202235016023090E+01    1.1774210199324996E+01
Br   -8.7359480399522660E-01   -9.2204712624762983E+00    2.0374560545858365E+00
Br   -1.6556942870604863E+00   -6.1938276558362064E+00    3.9075252332210892E+00
Br    6.2852924775755961E+00   -9.3983907610446611E+00   -7.2816420741804508E+00
Br   -5.0771939618322346E+00   -1.0401093143609664E+01   -6.2694149126116612E+00
Br    7.9416725115480071E+00   -9.6042484266241512E+00   -1.0474365851115166E+01
Br    8.9675906217384860E+00   -6.3511021004797694E+00   -8.2339414264377844E+00
Br    6.7650430201809908E-01   -9.3196250719930767E+00    1.2984475277939874E+01