 # Version information for this restart file 
 # current date 2021-06-17 12:39:22.287
 # current working dir /user/ub2042/exercises/2_fitting/MM_MD_workdir/md_settings.003
 # Program compiled at                              Thu Apr 22 21:44:59 EDT 2021
 # Program compiled on                cpn-k07-07-02.compute.cbls.ccr.buffalo.edu
 # Program compiled for                                                    local
 # Source code revision number                                       git:36754bb
 &GLOBAL
   PRINT_LEVEL  LOW
   PROJECT_NAME cp2k
   RUN_TYPE  MD
 &END GLOBAL
 &MOTION
   &MD
     ENSEMBLE  NVT
     STEPS  10000
     TIMESTEP     2.4999999999999996E+00
     STEP_START_VAL  4000
     TIME_START_VAL     1.0000000000000160E+04
     ECONS_START_VAL    -1.4031592531677251E+01
     TEMPERATURE     3.0000000000000000E+02
     &BAROSTAT
       PRESSURE     1.0100000000000000E+00
       TIMECON     9.9999999999999982E+03
     &END BAROSTAT
     &THERMOSTAT
       TYPE  CSVR
       &CSVR
         TIMECON     9.9999999999999982E+03
         &THERMOSTAT_ENERGY
              -1.2162335021222037E-01
         &END THERMOSTAT_ENERGY
         &RNG_INIT
Wiener process for Thermostat # 1        1 F T F  -1.2979613312884362E+00        1825527127.0        2808732464.0        4063912891.0        4257845861.0        1604363975.0        1268783381.0             12345.0             12345.0             12345.0             12345.0             12345.0             12345.0             12345.0             12345.0             12345.0             12345.0             12345.0             12345.0
         &END RNG_INIT
       &END CSVR
     &END THERMOSTAT
     &AVERAGES  T
       &RESTART_AVERAGES
         ITIMES_START  1
         AVECPU     1.7432573250494895E-02
         AVEHUGONIOT     0.0000000000000000E+00
         AVETEMP_BARO     0.0000000000000000E+00
         AVEPOT    -1.4434303468929825E+01
         AVEKIN     4.6016400477758007E-01
         AVETEMP     2.3342670937550022E+02
         AVEKIN_QM     0.0000000000000000E+00
         AVETEMP_QM     0.0000000000000000E+00
         AVEVOL     6.7483345830905447E+06
         AVECELL_A     1.8897261328855768E+02
         AVECELL_B     1.8897261328855768E+02
         AVECELL_C     1.8897261328855768E+02
         AVEALPHA     9.0000000000000000E+01
         AVEBETA     9.0000000000000000E+01
         AVEGAMMA     9.0000000000000000E+01
         AVE_ECONS    -3.7014759328838132E+00
         AVE_PRESS     0.0000000000000000E+00
         AVE_PXX     0.0000000000000000E+00
       &END RESTART_AVERAGES
     &END AVERAGES
     &PRINT
       &ENERGY  SILENT
         &EACH
           MD  10
         &END EACH
       &END ENERGY
     &END PRINT
   &END MD
   &PRINT
     &TRAJECTORY  SILENT
       &EACH
         MD  10
       &END EACH
     &END TRAJECTORY
     &CELL  SILENT
       &EACH
         MD  10
       &END EACH
     &END CELL
     &VELOCITIES  SILENT
       &EACH
         MD  10
       &END EACH
     &END VELOCITIES
     &FORCES  SILENT
       &EACH
         MD  10
       &END EACH
     &END FORCES
     &RESTART  SILENT
       &EACH
         MD  10
       &END EACH
     &END RESTART
   &END PRINT
 &END MOTION
 &FORCE_EVAL
   METHOD  FIST
   &MM
     &FORCEFIELD
       VDW_SCALE14     1.0000000000000000E+00
       EI_SCALE14     1.0000000000000000E+00
       SHIFT_CUTOFF  T
       DO_NONBONDED  T
       IGNORE_MISSING_CRITICAL_PARAMS  T
       &SPLINE
         R0_NB     2.5000000000000000E-01
       &END SPLINE
       &NONBONDED
         &LENNARD-JONES
           ATOMS Br Br
           EPSILON     1.2630795322675199E+02
           SIGMA     3.6900000000000004E+00
         &END LENNARD-JONES
         &LENNARD-JONES
           ATOMS Cs Pb
           EPSILON     8.6920055954630968E+01
           SIGMA     3.6699999999999999E+00
         &END LENNARD-JONES
         &LENNARD-JONES
           ATOMS Cs Cs
           EPSILON     2.2644852172126850E+01
           SIGMA     4.5300000000000002E+00
         &END LENNARD-JONES
         &LENNARD-JONES
           ATOMS Pb Pb
           EPSILON     3.3363415533600227E+02
           SIGMA     5.9000000000000004E+00
         &END LENNARD-JONES
         &LENNARD-JONES
           ATOMS Br Cs
           EPSILON     5.3481070753900497E+01
           SIGMA     3.6300000000000003E+00
         &END LENNARD-JONES
         &LENNARD-JONES
           ATOMS Br Pb
           EPSILON     2.0528187276773045E+02
           SIGMA     2.9800000000000000E+00
         &END LENNARD-JONES
       &END NONBONDED
       &CHARGE
         ATOM Cs
         CHARGE     4.1739999999999999E-01
       &END CHARGE
       &CHARGE
         ATOM Pb
         CHARGE     8.3479999999999999E-01
       &END CHARGE
       &CHARGE
         ATOM Br
         CHARGE    -4.1739999999999999E-01
       &END CHARGE
     &END FORCEFIELD
     &POISSON
       PERIODIC  XYZ
       &EWALD
         EWALD_TYPE  SPME
         GMAX  62 62 62
         O_SPLINE  4
       &END EWALD
     &END POISSON
     &PRINT
       &FF_INFO  LOW
         SPLINE_INFO  F
         SPLINE_DATA  F
       &END FF_INFO
     &END PRINT
   &END MM
   &SUBSYS
     &CELL
       A     1.0000000000000001E+02    0.0000000000000000E+00    0.0000000000000000E+00
       B     0.0000000000000000E+00    1.0000000000000001E+02    0.0000000000000000E+00
       C     0.0000000000000000E+00    0.0000000000000000E+00    1.0000000000000001E+02
       PERIODIC  XYZ
       MULTIPLE_UNIT_CELL  1 1 1
     &END CELL
     &COORD
Cs   -1.2070101426721619E-01    1.3245017686740507E-01   -5.8198356576511623E+00
Cs    5.0942317748589899E-02   -6.0881659430941317E+00   -6.1705861243275262E+00
Cs    7.3970097472965435E-01   -1.2670540072538838E+01   -5.0197478409064873E+00
Cs   -5.0416136111743706E+00   -6.9043923236966211E+00   -5.5460666118104047E+00
Br   -8.9019488192796672E+00   -1.3042029949636870E+01   -8.8960051426412967E+00
Br    1.2161659649960551E+01   -3.1956272289061967E+00   -9.2312645934061202E+00
Br   -4.5530375507694210E+00    1.8609586322241338E+00   -1.2010378130902984E+01
Cs   -6.1377941198408759E-01    5.3846623022680786E+00   -6.8358346863319355E+00
Cs   -1.8054779579124414E-01   -8.1257593003378970E-01    5.7096311820841972E-01
Cs   -2.4481754699122585E-01   -5.6019341298906680E+00   -2.0336944097229223E-01
Br   -5.7505248284396053E+00   -3.6135837760887468E+00    3.3384017957192569E+00
Cs   -9.8870518312361071E+00   -5.9502913890249420E+00    1.2699341125445420E+01
Cs    1.2523622479245095E+01   -9.1255230380262535E+00    2.9522156773645036E-01
Cs   -6.1507286279620432E+00    5.3020487986691993E+00    3.5619789553588410E-01
Cs   -1.2913105908884164E+00    1.1234612479559605E+01   -6.8421205005525909E-01
Cs   -1.3623474229132476E-01    5.8379880213590019E+00   -1.0582283677999189E+00
Cs    3.6320088851453164E-01    1.4763653883432637E-01    6.2609854646077068E+00
Cs    3.9134453579843226E-01   -5.7510281751470016E+00    6.5666120040703664E+00
Cs    1.0252384557062633E+00   -1.1132906569697223E+01    7.3503245171626732E+00
Cs   -5.6683970286251650E+00    7.1153346392037848E+00    1.1150004066199202E+01
Cs   -6.7505151998833393E+00   -9.3642171861787138E-01   -1.0933724497295625E+01
Cs   -4.2194761514695980E+00   -1.2689409858166680E+01   -6.1676421714154870E+00
Cs   -5.2670037166208630E+00   -3.2896569052903374E-01    6.7347767111467807E+00
Br   -3.0441173268817074E+00   -3.1461680638708072E+00    2.2841474044841015E-01
Cs   -7.5379679055509896E-01    6.3171191433098901E+00    5.0211348398689948E+00
Br    1.1430777278370293E+01   -8.6251751646050749E+00   -9.7446163470862128E+00
Cs    1.1094970534377502E+00   -5.1754832103798130E+00    1.2148341542035320E+01
Br   -2.6435780169667749E+00   -5.6549516503310492E-02    3.0630624909184747E+00
Br   -8.0776276128299855E+00   -3.0454872023201029E+00    1.2330809706508658E+01
Cs    1.1516385027856082E+01    1.1024266888892480E+01   -6.2322021563280217E+00
Cs   -1.0362638693044039E+01   -6.1172318110841148E+00    6.5244225115005179E+00
Cs   -5.1323744523537824E+00   -5.6668166103302751E+00    6.3798853042219488E+00
Cs   -6.7350738017027698E+00    1.1525423245626881E+01   -6.5386250543897262E+00
Br   -1.0771152249663677E+01   -9.1728406066962869E+00    9.0399309490405617E+00
Br   -8.2219592685001697E+00   -8.8492631452883206E+00    6.3482612402846694E+00
Cs   -1.0966706400341080E+01   -6.6169314050273442E+00   -5.0592626825420819E+00
Cs   -5.9279769046072754E+00    5.3623636115231994E+00   -6.4002726627560591E+00
Br   -7.1851503769644856E+00   -6.1773256548476487E+00    9.2884102861574238E+00
Cs    1.0559616889683641E+01    6.9042288695954870E+00    1.1111903524575817E+01
Br   -1.1657073577185832E+01    8.6965987678054901E+00    8.0103044067976423E+00
Br   -5.9343902298677174E+00   -3.2842835895619120E+00   -2.8197117656939814E+00
Cs    1.2103031890922431E+00    9.6554071884996873E-01    1.1931890502091603E+01
Cs    1.1223057977644071E+01    5.9263691248068504E+00   -1.1464873580745452E+00
Cs   -1.2219654102640146E+01   -7.8988091860824632E+00   -1.0304697648580520E+01
Cs    1.2705730048219273E+01    1.4455878406711611E+00    5.6521863365790654E+00
Cs   -1.2044937697612736E+01    1.0648050124249975E+01   -6.5553259845390395E+00
Cs    1.1939159981625437E+01   -1.0701862425107926E+01    8.2408283552379196E+00
Cs    6.2380037254567871E+00   -6.7882846637184837E+00   -1.0681367295220131E+01
Cs    7.0445530551636013E+00   -9.9096756387284870E+00    7.1278021366760660E+00
Cs   -4.4627248677689115E+00   -1.1597550633190227E+01   -5.1154942251347746E-01
Cs    5.8679834608374017E+00   -1.2537306915605470E+01   -1.0754436875703400E+01
Cs    1.0881471702053513E+01    5.3787018286705939E+00   -6.0263213733206262E+00
Cs    1.1139805741312715E+01    1.2013942024814861E+01    5.2543583662403162E+00
Cs    1.1466988987580349E+01    4.6415526163559671E+00   -1.1452107299657888E+01
Cs    6.5308189311878784E-01   -6.2941762447215748E+00   -1.1690277794455447E+01
Cs   -1.1130658891622902E+01   -3.8783741484621892E-01   -4.9752119909770247E+00
Cs    6.3370498313623465E+00   -4.4440736989131446E+00    1.1084165463025217E+01
Cs    1.2048426229896165E+01   -4.9080615086806603E+00    6.5494831721327458E+00
Cs   -1.0033490245840675E+01   -1.2181973227174964E+01    1.1756067822158196E+01
Cs   -4.4482063977230646E-01   -7.4408704640363299E-01   -1.1469799621712410E+01
Cs   -3.5647908189854172E-01    1.3648468565986036E+01    6.0993613967463975E+00
Cs   -8.6319679627220758E-01    5.7125692488134625E+00   -1.1811805762473570E+01
Cs    5.3114578636428726E+00    3.0963147393957441E-01   -6.1432072134139091E+00
Cs    6.0470892612925411E+00   -6.4407569499808321E+00   -5.6698816890798609E+00
Cs   -5.2876098515399139E+00   -1.1977731334612901E+01    6.3471149497605657E+00
Cs   -1.0357958644639760E+01   -6.9207908719516720E-01    6.4505881285741493E+00
Cs    5.2782724571665334E+00   -1.0147863655809271E+00   -1.1199624782033119E+01
Cs    5.4799268236422609E+00    1.0841639585752695E+01   -1.1278413741674026E+01
Cs    8.8254542396429791E-01    6.6905949352507914E+00    1.0239341833645378E+01
Cs   -5.8940466197778782E+00    1.1393244605364746E+01    5.0006141485617475E+00
Cs    5.3146881278418370E+00    1.1267743948876950E+01   -6.5392699752660670E+00
Cs    5.0745064101155481E+00    6.1747943117832884E+00   -6.1869782569431964E+00
Cs    5.1553863808607661E+00    1.0161697292230103E+00   -9.5520652604226847E-02
Cs    5.8380549530660897E+00   -5.4803062467338517E+00    2.1896246374716732E-01
Cs    7.2881267758451456E+00   -1.1197599297014827E+01    1.0666277868879006E+00
Cs    5.8498357297523356E+00    5.3586407035751717E+00   -1.1176965661659438E+01
Cs   -5.8981239243669918E+00    5.5434819127901660E+00    6.4649584659879249E+00
Cs   -6.5068102824017178E+00   -7.1524067279225791E+00   -1.0849702410922148E+01
Cs    5.7032414963818825E+00    6.6329077657938127E+00   -3.7896097108607169E-01
Cs    6.4852456297314802E+00    1.1081812542400011E+00    5.5876714597237260E+00
Cs    5.8309716479355362E+00   -5.2418294014541074E+00    5.9768667681071062E+00
Cs   -6.7137621055460750E+00    1.0796528614921794E+01   -8.9816921715097409E-01
Cs    1.1116154977835604E+01    5.5413268399935278E-01   -3.5755911573760923E-01
Cs   -5.9905434380085083E+00   -5.0860790062945405E-01    3.9410276716680237E-02
Cs   -1.1230942863541841E+01    5.7788647454854418E+00    5.9652351921856805E+00
Cs   -4.2905545637793683E+00    6.9506492581658619E-01    1.1517290775992409E+01
Cs    6.0927319429935523E+00    1.1928316525256248E+01    4.9169695543004996E+00
Cs    5.6791127110167867E+00    6.6566758789059746E+00    5.0836609370610288E+00
Cs    6.0664684674357972E+00    1.6962652131147289E+00    1.0662653412825051E+01
Cs    4.4186367833974867E+00    1.3611804132231880E+01   -1.4053312791568859E+00
Cs    1.1549694418642073E+01    2.7243543110098989E-01   -5.9053870818497165E+00
Cs    1.1630298769081806E+01   -6.4925582021157764E+00   -6.9358679296996408E+00
Cs    5.5987462806777524E+00   -1.0373376109282987E+01    1.2076843813733088E+01
Cs    1.0550200757562022E+01    1.2115494851803103E+01   -9.6298191111562470E-01
Cs   -1.1816813576883266E+01   -2.4375941687935465E-01    1.1431611055590729E+01
Cs   -7.8487891561740879E+00    4.4040008992576904E+00   -1.2184767260624156E+01
Cs   -1.3103349899166135E+01    9.1983903140532508E+00    3.3745535673997507E-01
Cs   -4.8370507543328323E+00   -5.0754500887950265E+00    1.2089629924913789E+01
Cs   -4.6549696076751275E+00   -1.0633060832973458E+01    1.1908200671812478E+01
Cs    5.5433082640443025E+00    7.3111931423721472E+00    9.8535996422699910E+00
Cs    1.0890267938259347E+01   -5.0210172796588752E+00    3.0575505880294437E-02
Cs   -1.1660492330053973E+01   -7.7390095526464242E-01   -2.4112074291091870E-01
Cs   -6.6461256278997194E+00    1.0528910856117005E+01   -1.1590585624469634E+01
Cs   -1.1618007313276877E+01    4.4699273574814367E+00    2.8371617464440702E-01
Cs   -9.9160265353340424E+00   -1.2230836307340198E+01   -5.2896336840306120E+00
Cs   -1.0764339656362655E+01   -6.8878173132186680E+00   -1.2857664352344349E-02
Cs   -5.4490383643525204E+00   -6.4917134664236835E+00    1.6916020465977907E-01
Cs   -1.0597055068856967E+01   -1.0996401839088641E+01    6.5777077786331617E+00
Cs    1.0654251372841189E+01   -3.3901679681924080E+00    1.3645812301057735E+01
Cs    1.1591793736961018E+01    6.7653888182383159E+00    5.6152795176228922E+00
Cs   -1.1662360311909271E+01    5.3377747782996137E+00   -5.3805387422958635E+00
Cs   -5.7870179542214180E+00   -2.2258223864950827E-01   -5.3293637226181865E+00
Cs   -1.0059182310949341E+01   -1.2274816975297560E+01    7.9491422172085469E-01
Cs    1.0023607287605904E+01   -6.6656068431772670E+00   -1.1881877472225369E+01
Cs   -1.1985343116203778E+01   -1.3836695574387509E+01   -9.5803969459317457E+00
Cs   -6.7182953319417849E-01    1.0984231488639271E+01   -1.2132202091919762E+01
Cs   -7.0999326757400483E-01   -1.1810172655975105E+01   -1.1480047913544579E+01
Cs   -9.5264010757737771E-01    1.0854685486811288E+01   -6.5219111625504507E+00
Cs   -5.7987171756508191E+00    1.1493371861415312E+01    1.0218539150515950E+01
Cs    1.1503662906204297E+00   -1.1607893756525629E+01    3.3785877821586358E-01
Cs   -1.1115205763277405E+01   -1.2643150041031654E+00   -1.0782382259720587E+01
Cs   -1.1076743511666129E+01    1.1699642666476491E+01    5.7897084050730303E+00
Cs    6.3321081262699019E+00   -1.1405725414823527E+01   -5.3539473968783176E+00
Cs    1.0931199769924053E+01   -9.7620846324456012E-01   -1.1553824263003525E+01
Cs    4.2689885426198554E-01    1.2005175517450047E+01    1.1644838642734610E+01
Pb    3.0421484360436586E+00   -2.9472939146018637E+00   -2.7924836750209177E+00
Pb    4.0099060310386809E+00   -9.0442689561998382E+00   -2.5146420928705875E+00
Pb   -8.3985932320368892E+00   -3.7080685315811106E+00    3.2028914681426408E+00
Pb   -1.5861052906717774E+00   -9.0061840384475254E+00   -2.7205929199662764E+00
Pb    2.1491043560234955E+00    9.1164690992128552E+00   -3.6042579617417840E+00
Pb    2.5519899158894948E+00    3.1456074818148476E+00   -3.3768691264880983E+00
Pb    3.0060129909495474E+00   -2.3676739046484405E+00    3.1688506579144886E+00
Pb    3.8919204129615568E+00   -8.4087404107460628E+00    3.4412599846466501E+00
Pb   -3.6472713749257664E+00    8.8505980379936187E+00    2.3225999636562453E+00
Pb    2.0801469356629689E+00    9.6410693954670279E+00    2.1126725614569142E+00
Pb    2.7561745927682386E+00    3.6538199323337213E+00    2.5456528063676154E+00
Pb    3.5803964389994216E+00   -1.8981982297292004E+00    8.9673079217453555E+00
Pb    3.7011153712102964E+00   -7.7067173307692993E+00    9.1210766501369402E+00
Pb   -2.9101229910189681E+00    2.9210906523977229E+00    2.8559576388512973E+00
Pb    2.6634224193738212E+00    9.9509487475364882E+00    7.9951743177201484E+00
Pb    3.3352287525049382E+00    4.0665036380306709E+00    7.9929414848336098E+00
Pb   -2.4586717978246759E+00   -2.7459950257652133E+00    9.0670781825115316E+00
Pb   -8.3456142569539260E+00   -9.4111280737005032E+00    3.4371695975272902E+00
Pb   -8.7544355991559009E+00    2.5608733337712022E+00   -2.3813019894434788E+00
Pb   -3.2809124990468610E+00   -3.7119351377315004E+00   -8.6721288210388945E+00
Pb   -2.1877484682821380E+00   -9.1002594085473838E+00    3.3111133731150981E+00
Pb   -3.4156699369769772E+00    8.2273276640663973E+00   -3.5188051522900241E+00
Pb   -1.8951404334709452E+00   -8.6247157085799326E+00    9.1178962216165278E+00
Pb   -8.8159201867401755E+00   -3.6963633033668968E+00   -2.5609849818812354E+00
Pb   -7.4541545002566094E+00   -9.4236555961315922E+00   -2.4893653020781836E+00
Pb   -3.2031512709695260E+00    2.3902030087242139E+00   -3.1470742992743488E+00
Pb   -7.5760382469402678E+00   -9.0439224113634999E+00    9.1412029262023715E+00
Pb   -9.1970266091999644E+00   -3.7224008064363754E+00   -8.3957063257475202E+00
Pb    8.7204324609555179E+00   -3.3692117164196498E+00   -8.8429145430827880E+00
Pb    9.3221453715122617E+00   -1.0094185320416182E+01   -8.7868425055436123E+00
Pb   -2.5652093174624611E+00   -9.7804473094614028E+00   -8.5018794481035016E+00
Pb   -9.0080328063206530E+00    7.9849904375244716E+00   -9.2745247475993011E+00
Pb    2.6909952520698366E+00   -3.5498688437074786E+00   -8.7053682699840458E+00
Pb    3.1127543407065112E+00   -9.2674593479920144E+00   -8.7877950693820779E+00
Pb   -3.8009072281986156E+00    2.0598487959787728E+00   -9.0234763096875099E+00
Pb    2.7420690695181871E+00    8.5031075402153018E+00   -9.3874699710688176E+00
Pb    2.3406008297263141E+00    2.4588251907018068E+00   -9.3935321293902447E+00
Pb    8.6092197213372685E+00   -2.7193315735386570E+00   -2.9227675868433223E+00
Pb    1.0046431996464118E+01   -8.6965314300500314E+00   -3.0339130198972479E+00
Pb   -8.3557957760111492E+00   -3.3071504362787394E+00    9.3166333297711290E+00
Pb    8.9426308558065148E+00    8.5948345654559901E+00   -9.2436947477529436E+00
Pb   -9.4479100829924807E+00    2.0893151063702846E+00   -8.1300612096427542E+00
Pb   -2.9669761208994321E+00    9.1271290828068690E+00    7.9506821260764058E+00
Pb    8.2475407480954832E+00    8.7154302702842976E+00   -3.4601446623265262E+00
Pb    8.4956647401514598E+00    2.8693337821403109E+00   -3.4970544642132757E+00
Pb    8.7637701325921622E+00   -1.9794807093347411E+00    2.7591929726004678E+00
Pb    9.5712125439745304E+00   -7.9332765224764374E+00    3.3128282731521645E+00
Pb    8.1540563094082597E+00    2.6335560516942769E+00   -9.1552749649413130E+00
Pb   -2.6667928416857758E+00    3.1287023422404698E+00    8.7016428903425318E+00
Pb    8.0415318841867176E+00    9.5774191173336600E+00    2.3289478010909108E+00
Pb    8.6168083697892346E+00    3.8490930977879723E+00    2.3294947475727197E+00
Pb    9.8350819316535407E+00   -1.4170806899589707E+00    8.4508922312422925E+00
Pb    9.7603858620614830E+00   -7.1567248115067317E+00    9.5337716671138732E+00
Pb    8.3788187209788276E+00    9.9119729157589234E+00    8.3429854832732442E+00
Pb    9.1641066262823259E+00    4.1750513481128717E+00    8.5274629433527309E+00
Pb   -9.0286440475758596E+00    2.7719104991232957E+00    9.4401658511715674E+00
Pb   -2.7302656369146883E+00   -3.0681079704925494E+00    3.2784371382183419E+00
Pb   -9.6255919902826435E+00    8.4088530304660587E+00    2.7483902928629989E+00
Pb   -9.4322169160955784E+00    8.8484338693431646E+00   -3.1420390182245317E+00
Pb   -8.5743790528276644E+00   -9.9968676587561855E+00   -8.5471889354713220E+00
Pb   -3.3555507283283434E+00    7.9921210443294690E+00   -9.4500265808404258E+00
Pb   -8.5566627616979396E+00    2.4368279056428492E+00    3.3452932611180595E+00
Pb   -8.8136403166833457E+00    8.9317091007810969E+00    8.6455886303064649E+00
Pb   -2.7416812536771813E+00   -3.2628324028908025E+00   -2.8418725305235824E+00
Br   -5.8508377205260816E-02   -3.3368646978005954E+00   -2.8488223837533146E+00
Br    2.4704013598771080E+00   -3.5735175697613273E+00   -5.5412633041233033E+00
Br    2.3189852535216877E+00    2.7744091935637638E-01   -3.2529828231514473E+00
Br    8.5600269844314947E-01   -8.0406207228831903E+00   -2.8217036726670912E+00
Br    2.9366406905506759E+00   -9.9940134122451560E+00   -6.0145701706628314E+00
Br    4.1976037567802287E+00   -6.0675039768955230E+00   -2.6714916307066203E+00
Br   -2.8567049696267763E+00   -3.6599397218192098E+00   -5.9419797790716116E+00
Br   -8.2475972292681359E+00   -3.6785663849269956E+00    6.4153092610781535E+00
Br   -3.0818311563130352E+00   -4.6799092773957590E-01   -3.1098209539392014E+00
Br    3.2620524050733666E+00   -1.1972795977373728E+01   -2.2845319935614685E+00
Br    1.1461960224632273E+01   -1.8372072462765423E+00    2.2895004221557649E+00
Br   -4.7867160935545563E+00   -9.4825661311534173E+00   -2.9759318083676094E+00
Br   -1.1190472964101231E+01   -4.2048446939803847E+00    4.1708600760767416E+00
Br   -8.1101428391385895E+00   -3.6314395429909028E+00    2.2714266743113326E-01
Br    1.2120201585110868E+01   -6.7577897757012915E+00    2.7659494458326894E+00
Br   -4.6793714900763855E-01    8.2576655083012334E+00   -3.7842475418183978E+00
Br    2.5198700862285448E+00    8.7681598325238888E+00   -6.3196370034299436E+00
Br    2.0567498228531935E+00    1.1976402843213226E+01   -3.5465387399245749E+00
Br   -3.3130367695830193E-01    3.0636046340352121E+00   -3.6764979247083676E+00
Br    2.5641455110830069E+00    2.8940812219375185E+00   -6.3348909181266864E+00
Br    2.7853015923856028E+00    6.1569396974920334E+00   -3.2383433594294693E+00
Br    1.3641252242354196E-01   -3.2964106749802120E+00    3.3926897163191865E+00
Br    2.9107152164933421E+00   -2.7481722598992491E+00    2.0611494116986154E-01
Br    2.5103986523648971E+00    5.9886964016421496E-01    2.5091336550579126E+00
Br    6.1114551177475795E-01   -8.5756870364583015E+00    3.9196799406116742E+00
Br    4.2621297688471129E+00   -9.4826772923340954E+00    7.0512439638408242E-01
Br    3.8958154702372991E+00   -5.4249394858772204E+00    3.2544674187953002E+00
Br   -6.1632710416160688E+00    8.0848055109047277E+00   -8.3166389858889218E+00
Br   -3.1966882341855198E+00    8.1105781888799342E+00   -1.2507742683199028E+01
Br    4.2898075908814688E+00   -1.1016583951832869E+01    4.7421235345194335E+00
Br   -3.5673088751150259E+00    1.1059909512655684E+01   -9.9674577052027420E+00
Br   -3.4739297215326399E+00    4.9882464929965362E+00   -9.5810346770028083E+00
Br   -8.7201355332951564E+00   -6.6112943359533505E-01    3.4718110401119340E+00
Br   -2.2118576901885958E+00   -8.7674580343834467E+00   -5.8605617772782841E+00
Br   -6.5107900669638381E+00    8.8156839645417691E+00    2.4188791318945171E+00
Br   -3.4869130444944423E+00    8.6765640138775026E+00   -5.4876006757992912E-01
Br   -4.4273960626933482E+00    1.1816516825763241E+01    1.2628405768677315E+00
Br   -7.8058899619806377E-01    9.0545211920079520E+00    2.3037962047268286E+00
Br    1.8951137927843151E+00    8.7409849332003944E+00   -5.5954156167756830E-01
Br    1.7114395905552851E+00    1.2429955345438692E+01    1.2349528783162784E+00
Br   -1.9535647598544709E-01    3.3605373557606155E+00    2.5488506913789091E+00
Br    2.5741024001123196E+00    3.5411686544597614E+00   -3.0644625001653136E-01
Br    2.6154615973453277E+00    6.3987256078896149E+00    2.6621699587911256E+00
Br    3.2051386520040348E-01   -2.0784230622375359E+00    9.7974151033248749E+00
Br    2.9995802873033948E+00   -2.1963680458435286E+00    5.9349394327459910E+00
Br    3.0206675391168099E+00    1.2720894252410095E+00    8.7034091169112262E+00
Br    8.3803767235646354E-01   -8.1407145519431552E+00    9.2990965978683349E+00
Br    3.2614000321168328E+00   -7.7202804925159185E+00    6.4397331619358775E+00
Br    3.4442794945069655E+00   -4.8417086720261242E+00    8.9895719383553985E+00
Br   -1.1255088994034379E+01    1.8979929215102038E+00    2.4945252931784530E+00
Br   -8.2983428482979349E+00    2.1057361499292111E+00    3.0288781019141681E-01
Br    4.2439106183906850E+00   -1.0551131263958407E+01    9.1931040109823847E+00
Br   -8.2758532113675560E+00    5.3683388693464700E+00    3.1288591358112896E+00
Br   -8.4207605709874507E+00   -5.2629434230277716E-01    9.3198681299904553E+00
Br   -3.0466913273476903E+00   -6.0754032728089875E+00   -2.3749083948812797E+00
Br   -5.7319033917145825E+00    1.8434765715806807E+00    3.3084805561054016E+00
Br   -3.1445915673246447E+00    2.3752432056950581E+00   -1.6426296118043787E-02
Br   -3.9042783107804309E+00    5.9061461529767998E+00    2.6653308987740636E+00
Br   -1.2040345489651028E-01    9.5325002352410504E+00    7.6993426334702457E+00
Br    2.4850319550713955E+00    9.9089663497782912E+00    4.9812911265750781E+00
Br    1.6795053334306136E+00    1.2762357404727993E+01    8.5595604960956706E+00
Br    1.4558445956435576E-01    3.1639880337361665E+00    7.7252579905838772E+00
Br    3.0943175810128021E+00    3.6791430039187514E+00    5.2876750917715212E+00
Br    3.1693084496954311E+00    6.8801051688287505E+00    7.7773301467227869E+00
Br   -5.2449348631115500E+00   -2.9409059828974491E+00    9.0511682786969629E+00
Br    3.5587223180379066E+00   -1.4204786803416769E+00    1.1783422056550151E+01
Br   -2.6313933944869219E+00   -3.6695667862178039E+00    6.1428897550597661E+00
Br   -2.5425680765878780E+00    6.6000219666264071E-02    8.5178610191529263E+00
Br   -1.8392066692805416E+00   -1.2235287037294691E+01   -2.9450973086289358E+00
Br    3.9760863330271174E+00   -6.8977572560020572E+00    1.2278636322850732E+01
Br   -1.1605723224570522E+01    2.1182650715037248E+00   -2.3191074880692106E+00
Br   -2.5758569717434736E+00   -1.2104054134145549E+01    4.0505138515794270E+00
Br   -1.1714353883036932E+01   -3.8754750469621455E+00   -2.1526745952675488E+00
Br    2.6943356024195393E+00    9.6621427897092786E+00    1.0901610738059079E+01
Br   -9.1647847512299894E+00   -3.5515922666657938E+00   -5.2001192972635240E+00
Br   -8.9371626367791190E+00   -6.0583286311330375E-01   -2.4851799733050495E+00
Br    3.5207936842331082E+00    4.4911250390905177E+00    1.0771617800212749E+01
Br   -6.5887806053833753E+00    8.5211194770389280E+00   -3.9280366790883572E+00
Br   -2.9370207542803812E+00    7.8641291094279806E+00   -6.6372321945706139E+00
Br   -3.3195849425969985E+00    1.0944863431783013E+01   -3.7501252242439471E+00
Br   -5.9594794563417919E+00    2.6582228590281365E+00   -2.3432083774245434E+00
Br   -1.1067910957620457E+01   -9.8749959785462877E+00    3.4375171036406287E+00
Br   -3.4180737824763807E+00    2.1933131344670844E+00   -6.1234468848508996E+00
Br   -6.2294066285557053E+00   -3.3806328828798735E+00   -8.7453593535123204E+00
Br   -2.1343016463410107E+00   -3.9105012736322005E+00   -1.1381820626158886E+01
Br   -3.4866132620168995E+00   -7.6122178060207668E-01   -9.1475929064031369E+00
Br   -1.6912475384127388E+00    3.3841804874817751E+00    1.1869880163333354E+01
Br   -4.8273946139174946E+00   -9.2749946931887841E+00    9.0896772996328696E+00
Br   -2.2702433939740003E+00   -7.9965494154981727E+00    6.0078615492433434E+00
Br   -2.0365441054041509E+00   -5.4103969319418574E+00    9.4204136346621254E+00
Br   -7.7824438278151549E+00   -9.4776157778931385E+00    3.3759725382559197E-01
Br   -8.3791473174978446E+00   -6.5767384679324783E+00    3.1213813997595521E+00
Br   -8.2514612677362482E+00    9.5279024442715521E+00    1.1348614894170426E+01
Br    1.0851070205758104E+01    9.7866914851582365E+00    1.3048159400921742E+00
Br   -7.9794387520434205E+00   -9.5681019834930900E+00    1.1842077359471018E+01
Br    1.1340035769212033E+01    9.2432927544373928E+00   -3.4148061178602811E+00
Br    1.1491894779848977E+01    3.9093658598184398E+00    1.7607727283839867E+00
Br   -8.4267266093390951E+00    2.6724536046367029E+00    1.2183389548702923E+01
Br   -1.1792850757125260E+01   -5.0449557317821530E+00   -8.4841702043156104E+00
Br    1.2563650053042350E+01   -1.6307269457333553E+00    7.2402768524983356E+00
Br   -5.4468646107634964E+00   -9.5194005235253503E+00    3.4739645663047827E+00
Br    5.6043823583235879E+00   -3.2040038114677420E+00   -8.7098643843503591E+00
Br    8.8417211727302938E+00   -3.7396851671086666E+00   -1.1833237201205831E+01
Br    1.2706180576481193E+01   -7.7267586093742358E+00    9.2069903843663230E+00
Br    8.2263250713631777E+00   -4.5763515595934678E-01   -9.0444297398764029E+00
Br   -7.9007124190731455E+00   -1.2084216014100830E+01    8.7458168913914758E+00
Br   -2.2540102439163219E+00   -9.2393314190343094E+00    6.3184744500981382E-02
Br   -2.0896038941247883E+00   -6.0429255323577138E+00    2.9042265792805075E+00
Br    6.2433609644770387E+00   -9.2112658801172582E+00   -8.3045959965457161E+00
Br   -5.6495833910240751E+00   -9.7431717538477276E+00   -8.1284736481915782E+00
Br    7.9811100650910767E+00   -9.2268795419483212E+00   -1.1799914584981048E+01
Br    8.3148312599227179E+00   -5.9839605948917933E+00   -8.3688686859588302E+00
Br   -1.7132978086430986E+00   -1.1413353702226230E+01    9.2567910189435487E+00