 # Version information for this restart file 
 # current date 2021-06-17 12:39:31.307
 # current working dir /user/ub2042/exercises/2_fitting/MM_MD_workdir/md_settings.003
 # Program compiled at                              Thu Apr 22 21:44:59 EDT 2021
 # Program compiled on                cpn-k07-07-02.compute.cbls.ccr.buffalo.edu
 # Program compiled for                                                    local
 # Source code revision number                                       git:36754bb
 &GLOBAL
   PRINT_LEVEL  LOW
   PROJECT_NAME cp2k
   RUN_TYPE  MD
 &END GLOBAL
 &MOTION
   &MD
     ENSEMBLE  NVT
     STEPS  10000
     TIMESTEP     2.4999999999999996E+00
     STEP_START_VAL  4500
     TIME_START_VAL     1.1250000000000349E+04
     ECONS_START_VAL    -1.4031592531677251E+01
     TEMPERATURE     3.0000000000000000E+02
     &BAROSTAT
       PRESSURE     1.0100000000000000E+00
       TIMECON     9.9999999999999982E+03
     &END BAROSTAT
     &THERMOSTAT
       TYPE  CSVR
       &CSVR
         TIMECON     9.9999999999999982E+03
         &THERMOSTAT_ENERGY
              -1.5979352546907144E-01
         &END THERMOSTAT_ENERGY
         &RNG_INIT
Wiener process for Thermostat # 1        1 F T F   4.8942508383968170E-01        1922692901.0         751943800.0        1824698526.0         472050684.0        2743543379.0         537116521.0             12345.0             12345.0             12345.0             12345.0             12345.0             12345.0             12345.0             12345.0             12345.0             12345.0             12345.0             12345.0
         &END RNG_INIT
       &END CSVR
     &END THERMOSTAT
     &AVERAGES  T
       &RESTART_AVERAGES
         ITIMES_START  1
         AVECPU     1.7499878731090573E-02
         AVEHUGONIOT     0.0000000000000000E+00
         AVETEMP_BARO     0.0000000000000000E+00
         AVEPOT    -1.4429150107358966E+01
         AVEKIN     4.6376234857118764E-01
         AVETEMP     2.3525203587262419E+02
         AVEKIN_QM     0.0000000000000000E+00
         AVETEMP_QM     0.0000000000000000E+00
         AVEVOL     6.7483345830906788E+06
         AVECELL_A     1.8897261328855762E+02
         AVECELL_B     1.8897261328855762E+02
         AVECELL_C     1.8897261328855762E+02
         AVEALPHA     9.0000000000000000E+01
         AVEBETA     9.0000000000000000E+01
         AVEGAMMA     9.0000000000000000E+01
         AVE_ECONS    -3.7542259212860176E+00
         AVE_PRESS     0.0000000000000000E+00
         AVE_PXX     0.0000000000000000E+00
       &END RESTART_AVERAGES
     &END AVERAGES
     &PRINT
       &ENERGY  SILENT
         &EACH
           MD  10
         &END EACH
       &END ENERGY
     &END PRINT
   &END MD
   &PRINT
     &TRAJECTORY  SILENT
       &EACH
         MD  10
       &END EACH
     &END TRAJECTORY
     &CELL  SILENT
       &EACH
         MD  10
       &END EACH
     &END CELL
     &VELOCITIES  SILENT
       &EACH
         MD  10
       &END EACH
     &END VELOCITIES
     &FORCES  SILENT
       &EACH
         MD  10
       &END EACH
     &END FORCES
     &RESTART  SILENT
       &EACH
         MD  10
       &END EACH
     &END RESTART
   &END PRINT
 &END MOTION
 &FORCE_EVAL
   METHOD  FIST
   &MM
     &FORCEFIELD
       VDW_SCALE14     1.0000000000000000E+00
       EI_SCALE14     1.0000000000000000E+00
       SHIFT_CUTOFF  T
       DO_NONBONDED  T
       IGNORE_MISSING_CRITICAL_PARAMS  T
       &SPLINE
         R0_NB     2.5000000000000000E-01
       &END SPLINE
       &NONBONDED
         &LENNARD-JONES
           ATOMS Br Br
           EPSILON     1.2630795322675199E+02
           SIGMA     3.6900000000000004E+00
         &END LENNARD-JONES
         &LENNARD-JONES
           ATOMS Cs Pb
           EPSILON     8.6920055954630968E+01
           SIGMA     3.6699999999999999E+00
         &END LENNARD-JONES
         &LENNARD-JONES
           ATOMS Cs Cs
           EPSILON     2.2644852172126850E+01
           SIGMA     4.5300000000000002E+00
         &END LENNARD-JONES
         &LENNARD-JONES
           ATOMS Pb Pb
           EPSILON     3.3363415533600227E+02
           SIGMA     5.9000000000000004E+00
         &END LENNARD-JONES
         &LENNARD-JONES
           ATOMS Br Cs
           EPSILON     5.3481070753900497E+01
           SIGMA     3.6300000000000003E+00
         &END LENNARD-JONES
         &LENNARD-JONES
           ATOMS Br Pb
           EPSILON     2.0528187276773045E+02
           SIGMA     2.9800000000000000E+00
         &END LENNARD-JONES
       &END NONBONDED
       &CHARGE
         ATOM Cs
         CHARGE     4.1739999999999999E-01
       &END CHARGE
       &CHARGE
         ATOM Pb
         CHARGE     8.3479999999999999E-01
       &END CHARGE
       &CHARGE
         ATOM Br
         CHARGE    -4.1739999999999999E-01
       &END CHARGE
     &END FORCEFIELD
     &POISSON
       PERIODIC  XYZ
       &EWALD
         EWALD_TYPE  SPME
         GMAX  62 62 62
         O_SPLINE  4
       &END EWALD
     &END POISSON
     &PRINT
       &FF_INFO  LOW
         SPLINE_INFO  F
         SPLINE_DATA  F
       &END FF_INFO
     &END PRINT
   &END MM
   &SUBSYS
     &CELL
       A     1.0000000000000001E+02    0.0000000000000000E+00    0.0000000000000000E+00
       B     0.0000000000000000E+00    1.0000000000000001E+02    0.0000000000000000E+00
       C     0.0000000000000000E+00    0.0000000000000000E+00    1.0000000000000001E+02
       PERIODIC  XYZ
       MULTIPLE_UNIT_CELL  1 1 1
     &END CELL
     &COORD
Cs    6.7781843987481827E-01   -4.8102241218625796E-01   -6.8197013602753032E+00
Cs    1.9771180469641594E-01   -6.1353112619502159E+00   -6.2287451624472938E+00
Cs    1.5069430537394914E+00   -1.2235591644608593E+01   -5.3523548913902879E+00
Cs   -5.9094406171635256E+00   -6.1480861011944885E+00   -5.4866898213495743E+00
Br   -8.4767937194325231E+00   -1.2545940896080465E+01   -7.5494095507691572E+00
Br    1.1550393516900296E+01   -3.2884049311773209E+00   -9.5082385731087253E+00
Br   -2.6055181594009080E+00    1.3336032399260915E+00   -1.1674823240308221E+01
Cs   -5.4873057288755167E-01    5.4048195121419260E+00   -5.5404242209367416E+00
Cs    2.8033248676335959E-01   -1.5104431766262499E-01   -4.4785938274354553E-01
Cs    1.1128809718324875E+00   -6.1722024450544541E+00    5.5819394362096619E-01
Br   -5.4799211853462610E+00   -3.6178418478228402E+00    2.9127925906507164E+00
Cs   -1.0486865455407669E+01   -5.4132336066639226E+00    1.1648376111177621E+01
Cs    1.2803032537096547E+01   -1.0396414863922230E+01    4.0487720921935927E-01
Cs   -6.3307742273605720E+00    5.7611802795482596E+00   -9.5179114584377600E-01
Cs   -1.2794571569489421E+00    1.1789865375034946E+01   -3.2632662416829022E-01
Cs   -2.3422728603614462E-01    5.6411433844012357E+00   -7.5704772531084319E-02
Cs    4.6507480113734345E-01    6.0267711139544899E-01    5.7522278494550729E+00
Cs    1.2176026785898681E+00   -5.5711343233336263E+00    5.6712658023260643E+00
Cs    1.6377068750896446E+00   -1.0306493613153764E+01    6.1747724677462790E+00
Cs   -6.0499119167694539E+00    6.4689037302184786E+00    1.1432997360560540E+01
Cs   -5.8725099791801192E+00   -7.7176527161625053E-01   -1.1336145687954112E+01
Cs   -5.7723185070109562E+00   -1.2329004096611271E+01   -4.6276042801456692E+00
Cs   -5.7262906524488244E+00    2.8018905775299541E-01    5.5203722997482876E+00
Br   -2.6588703594016225E+00   -3.3729371788771201E+00    2.2481838891213118E-01
Cs    1.6380201877404243E-01    6.8795012035538239E+00    6.0389537255146566E+00
Br    1.2067877035919436E+01   -8.8026717855815910E+00   -8.1523860338080478E+00
Cs    9.1248129190496674E-01   -5.2573032304596241E+00    1.1705877148962776E+01
Br   -3.1394652587959304E+00   -2.4206120488376101E-01    2.7445624202926542E+00
Br   -8.4505321429695233E+00   -2.5933149601580601E+00    1.2328757640713635E+01
Cs    1.1129255872124356E+01    1.0939676145498948E+01   -7.4388534216299336E+00
Cs   -1.0322997245381190E+01   -6.0841147611205795E+00    6.6125125792111836E+00
Cs   -5.2365994239118239E+00   -5.9597537385811261E+00    6.9984416371174465E+00
Cs   -6.3539945397381095E+00    1.0356486416369577E+01   -6.9993369765542885E+00
Br   -1.1228741346640637E+01   -8.6851500920886835E+00    1.0496606576083531E+01
Br   -7.8520350160647068E+00   -9.1503348314184798E+00    6.9776125288739310E+00
Cs   -1.0878557371416459E+01   -6.8152360185973144E+00   -4.5913898864363141E+00
Cs   -6.1814248459860295E+00    5.5275344648239226E+00   -6.0362925975373676E+00
Br   -7.9713989230312086E+00   -5.8599161575940029E+00    9.2319798847835770E+00
Cs    1.1586950243271840E+01    7.1344199070647170E+00    1.0251568925821070E+01
Br   -1.2244803875319819E+01    8.2328122046249366E+00    7.9083884241338467E+00
Br   -6.0773317478179294E+00   -3.4344076521574651E+00   -2.9695173899371357E+00
Cs    3.3009640207513002E-01    9.6569835438879004E-01    1.0383301347054285E+01
Cs    1.1364704175649761E+01    6.9241673332945259E+00   -8.8063739982171263E-01
Cs   -1.1849184006546050E+01   -7.2395003001370286E+00   -1.0175869643145390E+01
Cs    1.1680570302903964E+01    6.5180007856623279E-01    5.9007399119516615E+00
Cs   -1.1399403493956198E+01    1.0653879361767599E+01   -6.2934902726734876E+00
Cs    1.2368881038206572E+01   -9.7373505639259719E+00    6.0439076398427840E+00
Cs    5.2338328077914058E+00   -6.8091643033410820E+00   -1.1300641757600202E+01
Cs    6.4782809118929405E+00   -1.0405744431337027E+01    6.5355957608818249E+00
Cs   -4.1717539880521093E+00   -1.2453484036425788E+01    4.1758678726020593E-01
Cs    6.8444436639836841E+00   -1.0981660982128094E+01   -1.1781219739962822E+01
Cs    1.0437071569425358E+01    6.2653080043578875E+00   -6.6848343290708563E+00
Cs    1.1808325402463062E+01    1.2196754417789153E+01    5.0792458187612999E+00
Cs    1.2033588675169534E+01    4.9425389265034854E+00   -1.2490457702196515E+01
Cs   -7.6832630641521860E-01   -5.3940667116109209E+00   -1.1934164780302256E+01
Cs   -1.2094779858631915E+01   -9.2687841336392818E-01   -5.4958206887067425E+00
Cs    5.8804246173441834E+00   -4.3906344118094704E+00    1.1326034185507545E+01
Cs    1.1631669327644726E+01   -4.7133555801226992E+00    6.0919167797979696E+00
Cs   -1.1445272130798203E+01   -1.1653730113942014E+01    1.2696380529156231E+01
Cs   -1.8618722708119051E-01   -7.5995726245387651E-01   -1.1718133171784952E+01
Cs   -6.9384246775286729E-01    1.1306924014799293E+01    5.7149643235044572E+00
Cs   -8.6944253174758268E-01    4.4850884457228037E+00   -1.1660125803040740E+01
Cs    6.1570674874401927E+00   -3.7800381080988460E-01   -6.4033231362989413E+00
Cs    6.5080243158123556E+00   -5.6819526190457745E+00   -5.4271714813209737E+00
Cs   -4.2622010119102773E+00   -1.2071192660658452E+01    6.5851521174277146E+00
Cs   -1.1554390285923608E+01    1.5825305078387913E-01    6.4112283872225335E+00
Cs    5.9099145286059418E+00   -6.9163140847738325E-01   -1.1567900136535958E+01
Cs    5.7308152749629810E+00    1.1217935469128197E+01   -1.2405561444272371E+01
Cs   -4.4273579735955787E-01    6.0347706127032792E+00    1.2172197504839016E+01
Cs   -6.5897482973162145E+00    1.0362531111917322E+01    5.8731593182829256E+00
Cs    4.9994600945981098E+00    1.1351927529417189E+01   -6.4271357638930109E+00
Cs    6.0428284993591594E+00    6.1070810504829032E+00   -6.5632533264581419E+00
Cs    6.2647956282160830E+00    1.9870782772081075E-01    3.6207908624955470E-01
Cs    7.0148405432451071E+00   -5.9425689533154440E+00    4.1511699838013072E-01
Cs    7.3491006025184999E+00   -1.0822526238401599E+01    9.0980427948056997E-01
Cs    4.6885558738756146E+00    5.4348525193169666E+00   -1.2725085508693201E+01
Cs   -6.1756879884558025E+00    5.7469560063894489E+00    5.8255642378752297E+00
Cs   -7.2119311368849424E+00   -6.8209397056048227E+00   -1.1419793759916761E+01
Cs    5.6311996377783844E+00    6.5401883507732173E+00   -1.8997521845129850E-01
Cs    6.0525769323783516E+00    1.2771227963988234E+00    5.8786910600493298E+00
Cs    6.5718754847287437E+00   -5.0054965775192324E+00    6.4163430191477406E+00
Cs   -6.2843637929261815E+00    1.1354276079562560E+01   -3.3025515205499073E-01
Cs    1.2070013810380487E+01    8.7705894422572106E-01   -1.2674721269123765E+00
Cs   -5.8292718203208320E+00   -2.8840065174124063E-01   -2.5530624317802249E-03
Cs   -1.1665163836984222E+01    5.1469282766992306E+00    6.4860614784233102E+00
Cs   -6.2608400008961667E+00   -1.8092602776156860E-01    1.1780895579205326E+01
Cs    4.8073115162804223E+00    1.2274060533448955E+01    5.2773106547738484E+00
Cs    5.7307319869207403E+00    6.2704853497834510E+00    5.4803431366895090E+00
Cs    7.0176311409095860E+00    1.4140229518225558E+00    1.1284003230158353E+01
Cs    4.4369028651623639E+00    1.1800515586806588E+01   -7.6538854844261517E-01
Cs    1.1062786463349303E+01   -1.3902513024567353E-01   -6.6646244647660220E+00
Cs    1.1151172701139341E+01   -5.9959725510853445E+00   -5.8459632488007944E+00
Cs    6.6465001155283687E+00   -9.4724796841012964E+00    1.2005722617624743E+01
Cs    1.0091632767861427E+01    1.2764327803162448E+01   -9.9738827954123033E-01
Cs   -1.0736383664647731E+01    1.8238814552183285E+00    1.2475307375295721E+01
Cs   -7.2865511987012264E+00    4.5765834615384176E+00   -1.1126328663362539E+01
Cs   -1.3039117448583704E+01    9.5550750270594200E+00   -1.1422601701488240E+00
Cs   -4.5230517398412591E+00   -5.1281912177942477E+00    1.1565297130816250E+01
Cs   -3.9777982822743096E+00   -1.0934327838624368E+01    1.2841144315563591E+01
Cs    6.2787969569307664E+00    8.1615963015824136E+00    1.0988099077953454E+01
Cs    1.2092372133121945E+01   -4.6065180782216961E+00   -2.6682300622618299E-01
Cs   -1.1182872303814998E+01   -5.6865165215601221E-01    1.6362101496522035E+00
Cs   -6.7875200986150803E+00    9.1459901227996028E+00   -1.2782201459401476E+01
Cs   -1.2844058534178329E+01    5.0105479873760004E+00    7.9371405026737141E-01
Cs   -1.0185872900232097E+01   -1.3667665168876839E+01   -4.2735178464951655E+00
Cs   -1.0950440184656454E+01   -6.1998136135786854E+00    1.2937688175412116E+00
Cs   -5.3593643524797780E+00   -6.3476864216473041E+00    8.5309668212846590E-01
Cs   -1.0505483946008225E+01   -1.2142145549636950E+01    6.3659747317093753E+00
Cs    1.1991414975022034E+01   -4.4181642179726524E+00    1.1378043209252235E+01
Cs    1.0196873101296756E+01    7.3731193288701453E+00    5.0769586895125567E+00
Cs   -1.1618895161733624E+01    5.6461871555223198E+00   -6.3498899629047090E+00
Cs   -6.3908694939172568E+00   -9.2506779228755776E-01   -5.8909634911345945E+00
Cs   -9.9472516971170482E+00   -1.1788932259738493E+01    1.3301549048382968E+00
Cs    1.2053110234675827E+01   -6.7428562774932344E+00   -1.0801494853947311E+01
Cs   -1.0347874719025047E+01   -1.2659067441464481E+01   -1.0828145864704478E+01
Cs   -9.1626182326403005E-01    9.3204944026615184E+00   -1.3047751970324091E+01
Cs    1.1150438658199602E+00   -1.2525624430464344E+01   -1.0617681865527226E+01
Cs   -7.2210725966508493E-01    1.1127678303438026E+01   -7.1662601762130889E+00
Cs   -6.6279427118835104E+00    1.1575016677972028E+01    1.0592707148393673E+01
Cs    9.8634124418889679E-01   -1.1976491297099477E+01   -5.9412976059160372E-01
Cs   -1.1998743965202403E+01   -9.6047316087750501E-01   -1.1100429576418600E+01
Cs   -1.2220847227828649E+01    1.1062226080971636E+01    6.1090143167169542E+00
Cs    8.9051735461213166E+00   -1.2189684416613147E+01   -4.6383390040815273E+00
Cs    1.1526350368110968E+01   -1.5387691538005138E-01   -1.0907398306859831E+01
Cs   -4.1594960274856263E-02    1.1636649673665470E+01    1.1790348949673076E+01
Pb    3.2782169249190765E+00   -2.9756483434808247E+00   -3.0037938603618892E+00
Pb    3.7027575932525147E+00   -8.8140818951702880E+00   -2.8227359944245021E+00
Pb   -8.3597468034703475E+00   -3.4529459510368512E+00    3.4746034537412620E+00
Pb   -2.2936524249742072E+00   -9.2485613017435035E+00   -2.4071612513793936E+00
Pb    2.4863079877035092E+00    8.5078515661064174E+00   -3.3307301123427244E+00
Pb    2.6206594790879256E+00    2.6989858761629102E+00   -3.4489631383775929E+00
Pb    3.8532257093677913E+00   -2.7826063734049082E+00    2.7801142233430132E+00
Pb    4.2594048581306092E+00   -8.7246868728557470E+00    3.3875654063913263E+00
Pb   -3.5138333064215641E+00    8.7070628244149848E+00    2.7346078007174697E+00
Pb    2.3618200780035088E+00    8.9757676778905093E+00    2.4764501708171469E+00
Pb    2.8423010557024053E+00    3.2503989843169308E+00    2.3813963800985070E+00
Pb    3.5873353504563137E+00   -1.9264354783691551E+00    8.3721575518524389E+00
Pb    3.8685467438625123E+00   -7.7750714677944543E+00    9.2599465061022510E+00
Pb   -3.1367160655400217E+00    2.8196932081638013E+00    2.7896472106570198E+00
Pb    2.7932723187386661E+00    1.0057621102090055E+01    8.5665261268827990E+00
Pb    3.1091695541658484E+00    3.9145598441313285E+00    8.3839774713911783E+00
Pb   -2.2260115724514340E+00   -2.4603580176278772E+00    8.8023168464833450E+00
Pb   -8.0380736640953927E+00   -9.2753099442215916E+00    4.0998808998992136E+00
Pb   -9.9119077006370127E+00    2.3586362313156508E+00   -2.7113616944488119E+00
Pb   -3.3318406680330881E+00   -3.8789387084381786E+00   -8.4901757081745171E+00
Pb   -2.0993964152677318E+00   -8.7377428203998715E+00    3.4444666200570531E+00
Pb   -3.3707942758927070E+00    8.3608807416150572E+00   -3.6134202229779415E+00
Pb   -2.0281515063170081E+00   -8.5189243847165468E+00    9.4220265058683008E+00
Pb   -8.7646190958804642E+00   -3.4301834549984176E+00   -2.4414871117045034E+00
Pb   -8.3146699934456354E+00   -9.6116781070499417E+00   -1.6940605021568855E+00
Pb   -3.8241977596360814E+00    2.4778364746298829E+00   -3.2092700477824860E+00
Pb   -8.3725691425763458E+00   -9.2679846536714710E+00    1.0114995277697769E+01
Pb   -9.2741527587924679E+00   -3.9485844592536061E+00   -8.2700747073462892E+00
Pb    8.6495862648403072E+00   -3.2511671509005722E+00   -9.4735608278237091E+00
Pb    9.0299326647845763E+00   -8.8204932618684246E+00   -8.3181212653421035E+00
Pb   -2.8358511641695925E+00   -9.7435487113899786E+00   -7.9652903628180374E+00
Pb   -9.6892174794590158E+00    7.9551557016443271E+00   -9.6230622603912295E+00
Pb    2.7496599197695475E+00   -3.7289380993514429E+00   -9.0925015322343672E+00
Pb    2.9708173963326772E+00   -9.4344155792236020E+00   -8.3375990267111053E+00
Pb   -3.6951601912122434E+00    1.9427285870798148E+00   -9.1206065826552667E+00
Pb    2.5106218165366352E+00    8.6641251507305910E+00   -9.5519927355290637E+00
Pb    2.7581857068751670E+00    2.7720464113453405E+00   -9.3170978795043933E+00
Pb    9.2267138375453897E+00   -2.8391320750946867E+00   -3.1465815756057616E+00
Pb    1.0065257718692649E+01   -8.3988351801070529E+00   -2.5540104889769588E+00
Pb   -8.1908553264490607E+00   -2.7963575513151171E+00    9.2365969240722094E+00
Pb    8.6414615733799067E+00    8.4905649057494070E+00   -1.0397109811505521E+01
Pb   -9.5795255068247087E+00    1.7555745993938718E+00   -8.9715749768124446E+00
Pb   -3.0400498034261392E+00    9.0051849076012420E+00    8.5834987013105888E+00
Pb    8.3448865007614028E+00    8.8947872575541869E+00   -3.7264579312782131E+00
Pb    8.4075419273922662E+00    3.0666686828783005E+00   -3.5500204439152894E+00
Pb    9.5233077712985548E+00   -2.4099932079104636E+00    2.7771864603098786E+00
Pb    1.0515362866736188E+01   -7.9965910877946094E+00    3.3109647468208014E+00
Pb    8.5881437009149177E+00    2.6597036688401876E+00   -9.3196190585650491E+00
Pb   -3.0008082809950314E+00    3.2063229418318580E+00    8.4851098740060777E+00
Pb    8.0426559706101415E+00    1.0165524410004148E+01    2.0223440883536741E+00
Pb    8.6634710710815028E+00    3.8142515523874509E+00    2.4827495215690858E+00
Pb    9.4235677812808891E+00   -1.7960849269213497E+00    8.9584515976206838E+00
Pb    9.8239894867480917E+00   -7.5299186888521161E+00    8.9867520674952264E+00
Pb    8.9533910833516845E+00    1.0803381765617733E+01    8.1597189620182604E+00
Pb    8.9454875680501758E+00    4.5155785520335519E+00    8.1272297206280992E+00
Pb   -8.8455516547117323E+00    3.0625362303993344E+00    9.2804025562349981E+00
Pb   -2.4670994975814180E+00   -3.0133676316694702E+00    3.0516755645337148E+00
Pb   -9.5429369426392405E+00    8.7147490124235105E+00    2.3134458534835085E+00
Pb   -9.2465083684031679E+00    7.9536484496718778E+00   -3.6377862436207393E+00
Pb   -8.4996581494425527E+00   -9.6197145528596373E+00   -7.4345406426354694E+00
Pb   -3.4000281636025891E+00    7.7440811030377086E+00   -9.5250118821045078E+00
Pb   -9.1827301363388063E+00    2.6752636378225381E+00    3.1401132243739940E+00
Pb   -9.7143446728193705E+00    8.7023558430686503E+00    8.8877472884234816E+00
Pb   -2.8027884853823379E+00   -3.5395078321237810E+00   -2.6417001564661931E+00
Br   -1.9631535879381565E-01   -2.9343892524837254E+00   -3.5870095219273530E+00
Br    3.0047584779984366E+00   -2.7114926784701248E+00   -6.2184904132683494E+00
Br    3.3887151622895639E+00   -3.8166307248883723E-02   -2.9246339035568791E+00
Br    6.6387244632604814E-01   -8.7218851278592808E+00   -1.9705438386936778E+00
Br    3.4309569397871265E+00   -8.1752879452927978E+00   -5.5466773101635072E+00
Br    3.0945358362092361E+00   -5.7192529119083257E+00   -3.1481946215013461E+00
Br   -3.0771211653087582E+00   -4.2993197501465934E+00   -5.8177209538040398E+00
Br   -7.5068519298122123E+00   -2.9934445969690024E+00    6.3067310450800207E+00
Br   -3.4817595732464670E+00   -2.7052261523115778E-01   -2.2935904875402526E+00
Br    4.1195170464621107E+00   -1.1708932492999173E+01   -3.3180257345717461E+00
Br    1.2609817078117397E+01   -2.1571532217708902E+00    2.8357799468471043E+00
Br   -5.4710961647600822E+00   -9.8732131678244262E+00   -1.5214108296535300E+00
Br   -1.1114863679000440E+01   -3.2681400386843680E+00    4.3625568865198270E+00
Br   -8.6674173707482502E+00   -3.6308284905420996E+00    5.3693877466803086E-01
Br    1.3234472050567742E+01   -8.2226592361153070E+00    3.5251966650815030E+00
Br   -5.2671806563476997E-01    8.7914341738212105E+00   -3.8024863364388017E+00
Br    2.8647202406435275E+00    8.1069053979853365E+00   -6.4529015743112481E+00
Br    2.8589024107313770E+00    1.1471037133101383E+01   -3.5231602640926067E+00
Br   -3.4725663481308511E-01    2.7466613953293657E+00   -3.9010403800412830E+00
Br    2.7179395053071196E+00    2.0584005615170797E+00   -6.5007350697428796E+00
Br    2.2724996875303716E+00    5.6195713774789695E+00   -3.1626148227296573E+00
Br    6.5480527265932753E-01   -2.7083101634794549E+00    3.2261770428708134E+00
Br    2.9698679610431755E+00   -3.1888591543294655E+00   -5.3908137137977472E-02
Br    3.3107066157085527E+00    2.1834376369302386E-01    2.9608961238918745E+00
Br    1.0719409214857210E+00   -8.2135383591137927E+00    3.4350499450818650E+00
Br    3.9908293525488583E+00   -9.2415964934321977E+00    3.8016882904924115E-01
Br    4.0173541614227188E+00   -5.8022405876446070E+00    2.9208024745492591E+00
Br   -6.3056389634601260E+00    7.5571969365720468E+00   -9.6193779229065655E+00
Br   -3.5015698107181907E+00    7.1401712167626030E+00   -1.2505799923666387E+01
Br    4.3655976820688274E+00   -1.1462711007654027E+01    3.8465849297041270E+00
Br   -3.9478569664026151E+00    1.0732147928933426E+01   -9.2849013295278571E+00
Br   -3.1637342302392240E+00    4.9329766959832622E+00   -9.4846669409591069E+00
Br   -8.5714475225757987E+00   -2.2227381811842142E-01    3.6285657825219446E+00
Br   -2.9770772245695105E+00   -8.4694772177305886E+00   -5.1687241867669815E+00
Br   -6.7759475400899021E+00    9.2321454346304677E+00    2.6611593343332598E+00
Br   -3.6967018040062607E+00    9.0651464778863122E+00   -5.2015791554330171E-01
Br   -3.8363820766980044E+00    1.1621071159996649E+01    2.4216646170671141E+00
Br   -4.0482170858790839E-01    8.9241382057517669E+00    3.1043387008430452E+00
Br    1.8419895987562653E+00    8.4909897074076959E+00   -6.5950926211456928E-01
Br    1.9694225876321649E+00    1.1779350339647703E+01    2.2700451796710857E+00
Br    2.9793670865836744E-02    2.7304297149936461E+00    2.1980272488668153E+00
Br    2.9867222510597289E+00    3.0573147819739237E+00   -5.6515600210654693E-01
Br    2.9845510525662768E+00    5.8744401996964859E+00    2.5007093303695709E+00
Br    6.6530508629969898E-01   -2.2957462286653580E+00    8.1886759188449201E+00
Br    3.8853333941089203E+00   -2.5906498466966554E+00    5.6427682331306785E+00
Br    3.8721283720950748E+00    1.1771706016705983E+00    8.2093436096818539E+00
Br    7.5325428409560768E-01   -8.2136363060212876E+00    9.2409722173565267E+00
Br    4.0657727256054024E+00   -8.0464407959874311E+00    6.4495605215666929E+00
Br    3.2027793696017701E+00   -4.8740965124897331E+00    9.1048833976148593E+00
Br   -1.2337520443403259E+01    2.0936880675690110E+00    3.1205674754927313E+00
Br   -9.9389561611862796E+00    2.3401772409198469E+00    1.0536644879215387E-01
Br    3.6436460679702232E+00   -1.0637671270000935E+01    9.2523014783108923E+00
Br   -1.0114718684348768E+01    5.3403013099303065E+00    2.9174230264451446E+00
Br   -8.8116981568303885E+00    1.3495072345315906E-01    9.3716411787712985E+00
Br   -3.2685999539282000E+00   -6.4630444181192663E+00   -1.9011295665443979E+00
Br   -6.1856239812381935E+00    3.1401318873040589E+00    2.7366868823795523E+00
Br   -3.9041151535499266E+00    2.7663326850475962E+00   -3.4917629005691464E-01
Br   -2.6452761944714882E+00    5.7717022501333277E+00    2.3998430593970785E+00
Br   -2.8921983228209425E-01    9.2789441756253570E+00    8.4828266521820943E+00
Br    2.5273253345680962E+00    9.2745638376119857E+00    5.5713065506596191E+00
Br    1.8247821092162864E+00    1.2691134314861815E+01    8.5618573666669207E+00
Br    4.6704335961889221E-02    3.9066853330825531E+00    7.9528810258883205E+00
Br    2.7966043754251628E+00    3.0939749331309194E+00    5.4994272019667543E+00
Br    3.0565164173048935E+00    6.8543020085673536E+00    8.4081086098028841E+00
Br   -5.2853872932859742E+00   -2.6199475215153600E+00    9.7012808902524608E+00
Br    3.2712804014972550E+00   -1.0207494851277268E+00    1.0973703171411332E+01
Br   -3.2830041321174757E+00   -2.6453200623080892E+00    6.0626288771174206E+00
Br   -2.2983639196052583E+00    5.0190753050969650E-01    8.1522758171999214E+00
Br   -1.7770624806365911E+00   -1.2247468341894184E+01   -2.4357115239681564E+00
Br    3.9509790292441682E+00   -7.2387613961548052E+00    1.2222566765440364E+01
Br   -1.2748220605742793E+01    2.8731999529920458E+00   -2.8807651785366248E+00
Br   -1.4355145325254635E+00   -1.1420863264456427E+01    4.1723405698310421E+00
Br   -1.1386368994859700E+01   -3.9109562657875321E+00   -1.6895312665288162E+00
Br    1.9506502946182573E+00    9.1025320851593534E+00    1.1471143888513472E+01
Br   -8.8022232176564490E+00   -4.1785434274486519E+00   -5.1112010243582873E+00
Br   -9.5004655885067990E+00   -5.5730450929518338E-01   -2.6936833011959296E+00
Br    2.5130374765125039E+00    3.8242014090594960E+00    1.1388475101398623E+01
Br   -6.4416691489662075E+00    8.0555400425441253E+00   -3.4033669027103897E+00
Br   -3.5965789733414368E+00    7.7873345341654483E+00   -6.5792044384431811E+00
Br   -4.1932224329116687E+00    1.1044165887012081E+01   -4.1508738546522590E+00
Br   -6.8341193366349007E+00    2.1594026379579967E+00   -3.0787258008816147E+00
Br   -1.1053488960246602E+01   -9.2294466262031580E+00    4.6005212622556098E+00
Br   -3.9410714841756320E+00    2.0098512179153247E+00   -6.2207117857210763E+00
Br   -6.3851402686170360E+00   -3.9493316192153971E+00   -8.7438800635323233E+00
Br   -3.5795329429368490E+00   -3.5538270587774488E+00   -1.1207250082816095E+01
Br   -3.9130801907709554E+00   -9.0202897833276086E-01   -8.4308863107603358E+00
Br   -3.1970163414580699E+00    2.2078436740130178E+00    1.1731486901642896E+01
Br   -4.9278032863516676E+00   -8.6380564422638866E+00    1.0021588857098173E+01
Br   -2.1142869061226270E+00   -8.3239107476179282E+00    6.3909948769223890E+00
Br   -2.2294255431716263E+00   -5.4961146087469679E+00    9.2043648562504128E+00
Br   -7.8822238466192900E+00   -9.3689293917186980E+00    1.2146046437599141E+00
Br   -8.1507910580231133E+00   -6.4035139790429305E+00    3.8598879868988716E+00
Br   -8.6682756440533648E+00    8.9770211820916241E+00    1.1792316537120049E+01
Br    1.0540130718392094E+01    1.1871539052106712E+01    2.1747913120019731E+00
Br   -8.4459290796979651E+00   -1.0371100540268726E+01    1.2804015352515774E+01
Br    1.1199514536628735E+01    8.6384255916518633E+00   -3.9303033019363909E+00
Br    1.1406021651586428E+01    4.6409648640776160E+00    1.8544684544618626E+00
Br   -8.0210939874598317E+00    3.4050365383698020E+00    1.2016013142546601E+01
Br   -1.2050047964349897E+01   -4.2276641842267590E+00   -7.5111587245527938E+00
Br    1.2319601861851785E+01   -1.5352425209365619E+00    8.4892041066788124E+00
Br   -4.9050892626560678E+00   -9.4814735155583243E+00    4.1732046087669303E+00
Br    5.6711158464253710E+00   -3.5574733564895249E+00   -9.5010880667280961E+00
Br    8.4978466171298290E+00   -2.4188643380775572E+00   -1.2204176436919427E+01
Br    1.2643106390455273E+01   -7.0933900101302649E+00    8.8625093527268461E+00
Br    8.6020835618413543E+00   -3.4662532252560901E-01   -8.9881105290890382E+00
Br   -9.3371896060208854E+00   -1.1899102503296474E+01    9.4869204521688477E+00
Br   -1.8483246785479117E+00   -9.3297043366641130E+00    5.9836851184842310E-01
Br   -2.2430332245734790E+00   -5.7755526900828933E+00    3.1287110762968533E+00
Br    5.9580739732489221E+00   -8.7871302257995438E+00   -8.8052488166520053E+00
Br   -5.7623646656912042E+00   -9.5487155102108243E+00   -7.8206133894666818E+00
Br    9.2963983210217052E+00   -8.2046938002963703E+00   -1.1303807105946378E+01
Br    8.3295134747287563E+00   -6.0747821189583586E+00   -8.4861661602523526E+00
Br   -2.5444555257551147E+00   -1.1376725450338677E+01    9.9717385682127837E+00