 # Version information for this restart file 
 # current date 2021-06-17 12:40:24.207
 # current working dir /user/ub2042/exercises/2_fitting/MM_MD_workdir/md_settings.003
 # Program compiled at                              Thu Apr 22 21:44:59 EDT 2021
 # Program compiled on                cpn-k07-07-02.compute.cbls.ccr.buffalo.edu
 # Program compiled for                                                    local
 # Source code revision number                                       git:36754bb
 &GLOBAL
   PRINT_LEVEL  LOW
   PROJECT_NAME cp2k
   RUN_TYPE  MD
 &END GLOBAL
 &MOTION
   &MD
     ENSEMBLE  NVT
     STEPS  10000
     TIMESTEP     2.4999999999999996E+00
     STEP_START_VAL  7500
     TIME_START_VAL     1.8749999999998061E+04
     ECONS_START_VAL    -1.4031592531677251E+01
     TEMPERATURE     3.0000000000000000E+02
     &BAROSTAT
       PRESSURE     1.0100000000000000E+00
       TIMECON     9.9999999999999982E+03
     &END BAROSTAT
     &THERMOSTAT
       TYPE  CSVR
       &CSVR
         TIMECON     9.9999999999999982E+03
         &THERMOSTAT_ENERGY
              -2.2427559420106080E-01
         &END THERMOSTAT_ENERGY
         &RNG_INIT
Wiener process for Thermostat # 1        1 F T F   1.2027761634983569E+00         410547301.0        2880645229.0         554475243.0         200345305.0        3532470403.0        3188192634.0             12345.0             12345.0             12345.0             12345.0             12345.0             12345.0             12345.0             12345.0             12345.0             12345.0             12345.0             12345.0
         &END RNG_INIT
       &END CSVR
     &END THERMOSTAT
     &AVERAGES  T
       &RESTART_AVERAGES
         ITIMES_START  1
         AVECPU     1.7553323447983629E-02
         AVEHUGONIOT     0.0000000000000000E+00
         AVETEMP_BARO     0.0000000000000000E+00
         AVEPOT    -1.4405668751376192E+01
         AVEKIN     4.8754260676286221E-01
         AVETEMP     2.4731501202927831E+02
         AVEKIN_QM     0.0000000000000000E+00
         AVETEMP_QM     0.0000000000000000E+00
         AVEVOL     6.7483345830910886E+06
         AVECELL_A     1.8897261328855703E+02
         AVECELL_B     1.8897261328855703E+02
         AVECELL_C     1.8897261328855703E+02
         AVEALPHA     9.0000000000000000E+01
         AVEBETA     9.0000000000000000E+01
         AVEGAMMA     9.0000000000000000E+01
         AVE_ECONS    -3.8702682222227591E+00
         AVE_PRESS     0.0000000000000000E+00
         AVE_PXX     0.0000000000000000E+00
       &END RESTART_AVERAGES
     &END AVERAGES
     &PRINT
       &ENERGY  SILENT
         &EACH
           MD  10
         &END EACH
       &END ENERGY
     &END PRINT
   &END MD
   &PRINT
     &TRAJECTORY  SILENT
       &EACH
         MD  10
       &END EACH
     &END TRAJECTORY
     &CELL  SILENT
       &EACH
         MD  10
       &END EACH
     &END CELL
     &VELOCITIES  SILENT
       &EACH
         MD  10
       &END EACH
     &END VELOCITIES
     &FORCES  SILENT
       &EACH
         MD  10
       &END EACH
     &END FORCES
     &RESTART  SILENT
       &EACH
         MD  10
       &END EACH
     &END RESTART
   &END PRINT
 &END MOTION
 &FORCE_EVAL
   METHOD  FIST
   &MM
     &FORCEFIELD
       VDW_SCALE14     1.0000000000000000E+00
       EI_SCALE14     1.0000000000000000E+00
       SHIFT_CUTOFF  T
       DO_NONBONDED  T
       IGNORE_MISSING_CRITICAL_PARAMS  T
       &SPLINE
         R0_NB     2.5000000000000000E-01
       &END SPLINE
       &NONBONDED
         &LENNARD-JONES
           ATOMS Br Br
           EPSILON     1.2630795322675199E+02
           SIGMA     3.6900000000000004E+00
         &END LENNARD-JONES
         &LENNARD-JONES
           ATOMS Cs Pb
           EPSILON     8.6920055954630968E+01
           SIGMA     3.6699999999999999E+00
         &END LENNARD-JONES
         &LENNARD-JONES
           ATOMS Cs Cs
           EPSILON     2.2644852172126850E+01
           SIGMA     4.5300000000000002E+00
         &END LENNARD-JONES
         &LENNARD-JONES
           ATOMS Pb Pb
           EPSILON     3.3363415533600227E+02
           SIGMA     5.9000000000000004E+00
         &END LENNARD-JONES
         &LENNARD-JONES
           ATOMS Br Cs
           EPSILON     5.3481070753900497E+01
           SIGMA     3.6300000000000003E+00
         &END LENNARD-JONES
         &LENNARD-JONES
           ATOMS Br Pb
           EPSILON     2.0528187276773045E+02
           SIGMA     2.9800000000000000E+00
         &END LENNARD-JONES
       &END NONBONDED
       &CHARGE
         ATOM Cs
         CHARGE     4.1739999999999999E-01
       &END CHARGE
       &CHARGE
         ATOM Pb
         CHARGE     8.3479999999999999E-01
       &END CHARGE
       &CHARGE
         ATOM Br
         CHARGE    -4.1739999999999999E-01
       &END CHARGE
     &END FORCEFIELD
     &POISSON
       PERIODIC  XYZ
       &EWALD
         EWALD_TYPE  SPME
         GMAX  62 62 62
         O_SPLINE  4
       &END EWALD
     &END POISSON
     &PRINT
       &FF_INFO  LOW
         SPLINE_INFO  F
         SPLINE_DATA  F
       &END FF_INFO
     &END PRINT
   &END MM
   &SUBSYS
     &CELL
       A     1.0000000000000001E+02    0.0000000000000000E+00    0.0000000000000000E+00
       B     0.0000000000000000E+00    1.0000000000000001E+02    0.0000000000000000E+00
       C     0.0000000000000000E+00    0.0000000000000000E+00    1.0000000000000001E+02
       PERIODIC  XYZ
       MULTIPLE_UNIT_CELL  1 1 1
     &END CELL
     &COORD
Cs   -4.9827149502061940E-01   -1.3258006304500340E+00   -5.9226418491816597E+00
Cs    8.1789982199214628E-01   -7.3864009112303819E+00   -5.5582813514052152E+00
Cs    2.5817214392091161E+00   -1.3407335143274917E+01   -3.8650287582710070E+00
Cs   -5.4243273635749434E+00   -7.2979759246079361E+00   -4.1967198902006340E+00
Br   -7.5009265394985771E+00   -1.3738931799811095E+01   -7.0496174027335101E+00
Br    1.1557454183581781E+01   -3.2166322718851781E+00   -1.0495581214188524E+01
Br   -5.0643543273796539E+00    1.1126755231205467E+00   -1.1584640481220390E+01
Cs   -1.3750901254739156E+00    4.6617978055606324E+00   -5.7585335445828498E+00
Cs    8.0660872198358446E-01    2.4940457863035495E-01    6.1344020293014512E-01
Cs    1.5807848115797904E+00   -5.4399395621015207E+00    5.7017890103478597E-01
Br   -5.4317889797144794E+00   -3.0413953246122882E+00    3.8083273020943493E+00
Cs   -9.2034011342840429E+00   -4.1202789118949861E+00    1.3508931806216980E+01
Cs    1.3259639422727485E+01   -8.8271400656250449E+00    4.9509534627006452E-01
Cs   -6.1053027205802204E+00    4.6759159800130954E+00    1.0035601796964010E-02
Cs   -1.5796234861424969E+00    1.0902520296491558E+01   -1.4565083325901291E+00
Cs   -4.7220836229114815E-01    5.9189429116691059E+00   -7.6530904763270724E-01
Cs   -2.7788808767697365E-01    9.1102267925285640E-01    6.2211520717345374E+00
Cs    9.5804607546225695E-01   -5.7282196574511230E+00    6.8224937442046967E+00
Cs    2.0800417887470535E+00   -1.0710817914921774E+01    6.8652758326440875E+00
Cs   -6.2271095877753071E+00    5.9564447158624256E+00    1.1149030277761991E+01
Cs   -6.2286048270207202E+00   -1.9562353020898693E+00   -1.0738908147955796E+01
Cs   -4.3602232142604747E+00   -1.3697308958401861E+01   -4.0506309472597550E+00
Cs   -5.6926602048489041E+00    1.5606969382380242E-01    5.9214234134707722E+00
Br   -2.4002070967029940E+00   -3.5025796110673477E+00    5.8762937282473227E-01
Cs   -1.0213690277277390E+00    6.6990007682002224E+00    5.4745364502960365E+00
Br    1.2131558153450966E+01   -7.3633053232569647E+00   -8.7627223862672334E+00
Cs    2.0815418966272046E+00   -4.9650554856608311E+00    1.2343563475995932E+01
Br   -2.7340572402204089E+00   -6.7272486273363782E-02    3.4204222584856252E+00
Br   -7.0693809347889536E+00   -1.4831930429310534E+00    1.2668872900133751E+01
Cs    9.2312450041356673E+00    1.2250548241454327E+01   -8.7205002005765095E+00
Cs   -1.0366740724305110E+01   -5.6943156739563614E+00    7.9975623636059350E+00
Cs   -4.7241926496586570E+00   -5.9675902027269867E+00    6.7177013509718426E+00
Cs   -8.0485878546308847E+00    9.6138660536263920E+00   -6.7733481853408062E+00
Br   -1.0289072317845626E+01   -9.1992091492144610E+00    9.5489548588280346E+00
Br   -7.3523061936727920E+00   -8.6533918382667174E+00    7.6270322829084138E+00
Cs   -1.2231515118557327E+01   -8.0476400896494660E+00   -5.0833689723305140E+00
Cs   -6.8006018527333492E+00    4.2788367323110403E+00   -6.3314612419090048E+00
Br   -7.3131742698005411E+00   -5.2262143385975675E+00    1.0163216303629147E+01
Cs    1.1321791158901725E+01    8.7359647200993766E+00    9.0912099545512248E+00
Br   -1.1855874327071840E+01    8.5051856580441125E+00    8.2296113984636747E+00
Br   -5.1295128989359551E+00   -4.7238524377138402E+00   -1.5300584253013223E+00
Cs    8.3371349498822700E-01    1.0182560341243774E+00    1.1089670249159395E+01
Cs    1.0160003286989950E+01    7.6428445530628544E+00   -1.0364726673186742E+00
Cs   -1.0460459842262184E+01   -8.6452768159965903E+00   -1.0558814743410544E+01
Cs    1.2153941502388875E+01    2.1310180099199840E+00    4.8679495229169865E+00
Cs   -1.3135171868765255E+01    9.0000720222491850E+00   -7.2063498136567841E+00
Cs    1.2917966397701198E+01   -9.4060895044636013E+00    6.2724347825902020E+00
Cs    5.8595578430529969E+00   -7.0333265044855739E+00   -1.0106424044555565E+01
Cs    7.4219077465996168E+00   -9.8574241333116355E+00    7.0546352164056696E+00
Cs   -5.6009454927950770E+00   -1.2102719369332316E+01    1.5232284686937210E+00
Cs    6.6317013954744892E+00   -1.2110047845733074E+01   -9.0642897083763518E+00
Cs    1.0047826525696237E+01    6.8950781663687071E+00   -7.3421384918590684E+00
Cs    1.0391935991137801E+01    1.3829054214644696E+01    3.3746052048240567E+00
Cs    9.5709742125770525E+00    6.9732313269130195E+00   -1.3701004411883341E+01
Cs    2.9611017672287361E-02   -7.4331605456497432E+00   -1.0709489018507169E+01
Cs   -1.1479763982004300E+01   -2.0186418568167652E+00   -4.9018577415828224E+00
Cs    7.0507437011712728E+00   -4.4182731542789089E+00    1.2459038723285447E+01
Cs    1.2248715462235582E+01   -3.7369569477312092E+00    5.7621319284113293E+00
Cs   -1.0750421768965458E+01   -1.2269164976362180E+01    1.1932786897917000E+01
Cs   -8.6144235751799059E-01   -2.4367128364130091E+00   -1.1385068497968833E+01
Cs    2.3463184177810364E-01    1.1782892551769455E+01    4.4685388299256559E+00
Cs   -2.3649212818424807E+00    4.0456212446185962E+00   -1.2681589203088421E+01
Cs    5.9751075390791435E+00    7.3769039777627687E-01   -6.1777735324115861E+00
Cs    6.3123028988816081E+00   -5.2109069850796539E+00   -5.4904734552083658E+00
Cs   -4.1686200411280527E+00   -1.0630043133855677E+01    7.4771019672938621E+00
Cs   -1.1122636122853738E+01    4.6856546075514255E-01    6.6019208511517640E+00
Cs    5.0421301538228604E+00   -1.1584892195216487E+00   -1.2533734047043753E+01
Cs    3.6502953307140631E+00    1.0470360644673359E+01   -1.2779338847090463E+01
Cs   -6.9535290271892800E-02    6.2043450806192313E+00    1.1060936134375199E+01
Cs   -5.7997607510449711E+00    1.1629199712944526E+01    5.0831033129717156E+00
Cs    3.4124693630514709E+00    1.1624572368821081E+01   -7.6332351128011267E+00
Cs    4.4126734274306774E+00    5.3616726380283435E+00   -7.7234831561746233E+00
Cs    5.2930066857230669E+00    9.4699859284283439E-01   -1.9277526409302212E-01
Cs    6.8712628786063519E+00   -4.9837254605850214E+00    1.8062410034556659E-01
Cs    7.1795077093008981E+00   -9.8700204567871523E+00    1.0290202090122522E+00
Cs    5.0177040869439420E+00    4.9742058106556257E+00   -1.2318514557957840E+01
Cs   -6.0047781535633433E+00    5.8086392403322655E+00    5.1848986482323260E+00
Cs   -5.2296696951194681E+00   -8.1126827415258767E+00   -9.3885665310052406E+00
Cs    4.8969756385507939E+00    6.4662472549892218E+00   -2.1831764230869519E-01
Cs    6.4174023518794066E+00    1.9787715184897465E+00    5.2442028357431036E+00
Cs    6.7042273826792371E+00   -3.5755683695743388E+00    5.8395632909050326E+00
Cs   -7.0693258600877229E+00    9.9132363470980085E+00   -8.3469957457126431E-01
Cs    1.1423211145661742E+01    1.8553388173716532E+00   -7.9646089109661278E-01
Cs   -5.6690932049475320E+00   -1.5516415975694784E+00   -3.5941710919881253E-01
Cs   -1.1186464567157140E+01    5.1838595516477630E+00    5.5844307461565306E+00
Cs   -4.9980454184877239E+00    1.0431997922437741E+00    1.1836537316290970E+01
Cs    4.7999498029590004E+00    1.3278025783102523E+01    4.6499046954713918E+00
Cs    4.9459665703232742E+00    7.1502846170013994E+00    4.5122330794251138E+00
Cs    8.1763833346324954E+00    2.3304605016526554E+00    1.1426259343627583E+01
Cs    4.0218166383301295E+00    1.2574953084505987E+01   -1.7492104081096842E+00
Cs    1.0888067391903965E+01    1.2536047587479828E+00   -6.5573669007710151E+00
Cs    1.2201364431891180E+01   -4.1195183494951531E+00   -7.5399529925946291E+00
Cs    8.4000226545567482E+00   -1.0791442791546832E+01    1.1973190519909609E+01
Cs    9.4674276796436576E+00    1.3545566040121900E+01   -2.8590699438753195E+00
Cs   -1.1241444572961463E+01    6.5577594432001050E+00    1.1151495730806557E+01
Cs   -8.0188428578138460E+00    3.5754551059653323E+00   -1.2064803951039307E+01
Cs   -1.2835640278722211E+01    1.0089616215203911E+01   -1.1875499955477598E+00
Cs   -4.8189867870580168E+00   -4.1527602786382509E+00    1.3152763733022336E+01
Cs   -3.8957876971428123E+00   -1.0625456514630173E+01    1.2568770858045207E+01
Cs    6.1215084120833598E+00    8.0209477457469820E+00    1.0518452385391035E+01
Cs    1.2086944530234394E+01   -3.4923230428060852E+00   -6.8728657639537794E-01
Cs   -1.1709386106905201E+01   -1.1998689380818366E+00    5.7287403664889813E-01
Cs   -7.7894575667818229E+00    8.8859050944253539E+00   -1.2570499076531794E+01
Cs   -1.1561660651047173E+01    4.9274058417126545E+00   -1.0574523626145274E-01
Cs   -1.1115366125607460E+01   -1.4220995562849362E+01   -5.6268510133639325E+00
Cs   -1.0890622500648641E+01   -6.5454745186339096E+00    1.4669971630450247E+00
Cs   -5.6670779262560416E+00   -6.7402068434293883E+00    9.7819348803437922E-01
Cs   -8.9041800943052856E+00   -1.1821677712462664E+01    7.8359558826603273E+00
Cs    1.2773348246944083E+01   -3.1540085696456566E+00    1.1162748395977987E+01
Cs    1.1281528585208312E+01    8.1599066979014694E+00    4.1659417628206459E+00
Cs   -1.2548111839840033E+01    3.4550325038696936E+00   -5.2911147903930065E+00
Cs   -5.0103927936460018E+00   -1.4654654028552758E+00   -5.8475908402354726E+00
Cs   -9.7708704041714896E+00   -1.2408448106886288E+01    3.0404025471671789E+00
Cs    1.1066309313544533E+01   -6.4893668874835582E+00   -1.1580164640487981E+01
Cs   -5.1856258691931565E+00   -1.4347866466083818E+01   -1.0149940129281843E+01
Cs   -2.2826902525342598E+00    9.9175027080108382E+00   -1.1947628099386430E+01
Cs    1.2041688578284229E+00   -1.2902046256618055E+01   -9.7915652996099265E+00
Cs   -1.4550237308290097E+00    9.6274747028371124E+00   -6.6147020400063408E+00
Cs   -6.1175116864359840E+00    1.1267665390280918E+01    1.1284848571875743E+01
Cs    1.4441158165604890E+00   -1.1690245843280373E+01    3.1972086636228020E-01
Cs   -1.1619592096461092E+01   -2.7742191274578802E+00   -9.8804987766044832E+00
Cs   -1.1778745077922165E+01    1.0968712306188253E+01    5.4499796407209056E+00
Cs    8.0383053043674231E+00   -1.0275171956681614E+01   -4.2253917426193164E+00
Cs    1.1088343122857427E+01   -4.0180096020087502E-01   -1.1619582409547718E+01
Cs   -6.9458575749360610E-02    1.2057195506359392E+01    1.0486587236915407E+01
Pb    3.2381667368222935E+00   -2.9948784084236477E+00   -2.5481928027577552E+00
Pb    4.1383713085371916E+00   -8.7262258092093390E+00   -1.7566231762858819E+00
Pb   -8.3932079122572052E+00   -3.4271739417051910E+00    3.8409888138428241E+00
Pb   -2.0058022518837504E+00   -1.0506875553090271E+01   -1.9578164050881615E+00
Pb    1.7309033934736666E+00    8.5610100456578522E+00   -3.9048685432739818E+00
Pb    2.4543984463289057E+00    2.6481394095368094E+00   -3.4723059479788381E+00
Pb    3.6526779286644921E+00   -2.3644372239978897E+00    3.1665393299110525E+00
Pb    4.2621155788900520E+00   -8.0567155681847424E+00    3.8162795594918673E+00
Pb   -3.5401456514179679E+00    8.9660990372260336E+00    1.9996392449287665E+00
Pb    2.2446594468720389E+00    9.4909091958146519E+00    1.8408528514336511E+00
Pb    2.7497164714786644E+00    3.4933098924366472E+00    2.8071891291895659E+00
Pb    4.0844718517323768E+00   -2.0153919728199434E+00    9.1686863882022429E+00
Pb    4.5427980475490850E+00   -7.9293827063180551E+00    9.8645665120777313E+00
Pb   -3.1039405636926976E+00    2.7664056734335980E+00    2.5211772659141842E+00
Pb    2.5506415764418775E+00    9.5591959954339565E+00    7.7992301543910099E+00
Pb    3.4720842949443145E+00    4.0492627150729010E+00    8.9180119917203093E+00
Pb   -1.7976503655537972E+00   -1.8773429911625701E+00    9.4305503874333318E+00
Pb   -7.6236451318150653E+00   -9.1505736332130940E+00    4.6602627738055453E+00
Pb   -9.2329775346199767E+00    1.2336125893784091E+00   -2.8392121049381713E+00
Pb   -3.0169251095148160E+00   -4.6445905268557004E+00   -8.4139991255541879E+00
Pb   -1.6906438213513411E+00   -8.9897600528381769E+00    3.8336475313389466E+00
Pb   -4.1060938675713627E+00    7.5179850832333797E+00   -3.7173609273335169E+00
Pb   -1.5039717486114852E+00   -8.0176790190471667E+00    9.9619139035624826E+00
Pb   -8.3353481818180786E+00   -4.5362666864106425E+00   -2.0757080978134375E+00
Pb   -8.3764418460934120E+00   -1.0647691367671769E+01   -1.2105387758745050E+00
Pb   -3.3947077292982084E+00    1.6310847860769380E+00   -3.2062851855375567E+00
Pb   -7.7372086552991410E+00   -8.1786002523950589E+00    1.0709542297893385E+01
Pb   -8.9510464656182478E+00   -5.2115621903319180E+00   -7.9674737070264641E+00
Pb    8.2857346523508113E+00   -2.4470256693088817E+00   -9.3775848664869255E+00
Pb    9.4532045320638876E+00   -8.4430562940674214E+00   -8.0562498461496226E+00
Pb   -2.1235849092202224E+00   -1.0513061858071923E+01   -7.9922796704348054E+00
Pb   -1.0376851124676616E+01    6.1801425516782516E+00   -9.2831126833248465E+00
Pb    2.8411325570395722E+00   -4.1165897267235323E+00   -8.3784524968582641E+00
Pb    3.4767846226177106E+00   -9.8084597892651182E+00   -7.4458270302455105E+00
Pb   -3.5969620581217967E+00    1.1362112389550421E+00   -9.0962620627807436E+00
Pb    1.6214640430031881E+00    7.5504787536531088E+00   -9.8594959212369311E+00
Pb    2.2954035597010094E+00    1.6277298172223005E+00   -9.3690951343964723E+00
Pb    9.0483737639579047E+00   -1.9901141682358401E+00   -3.5306985198221721E+00
Pb    1.0223372722235037E+01   -7.5700085506520338E+00   -2.2212994920025841E+00
Pb   -7.6413490586527129E+00   -2.3712616903126809E+00    9.9287245084243487E+00
Pb    7.1144253169558800E+00    9.3543384791404485E+00   -1.0749761630170088E+01
Pb   -9.6161452560930432E+00    6.8020000826241178E-01   -8.7128894819041847E+00
Pb   -3.1705016798422196E+00    9.5955711593136446E+00    7.8649055288460232E+00
Pb    7.6056821576407438E+00    9.8240681254180728E+00   -4.6600999128713889E+00
Pb    8.0972567795241179E+00    4.2939886880197777E+00   -4.0516227585865296E+00
Pb    9.3117228803472472E+00   -1.5269218887017579E+00    2.2676219473675414E+00
Pb    9.8931207611190235E+00   -7.1768781624296860E+00    3.9031663714798692E+00
Pb    8.1136256372442883E+00    3.5390711272684658E+00   -1.0026101552962619E+01
Pb   -3.0518854485374773E+00    3.9070455392268419E+00    8.5506003841786953E+00
Pb    7.8958563456645141E+00    1.0700251301958001E+01    1.0144607325017150E+00
Pb    8.4553009536359909E+00    4.3812115688298006E+00    1.7004720127957349E+00
Pb    9.4589187573817668E+00   -8.7822876202929789E-01    8.0094121222575279E+00
Pb    1.0670587018450567E+01   -6.8560322533907643E+00    9.7124216583607232E+00
Pb    7.9924920516817508E+00    1.1004198550521833E+01    6.8808817303346235E+00
Pb    9.2156952323488017E+00    5.1733395869608589E+00    7.5989283375373198E+00
Pb   -9.0828487361303889E+00    3.0708248460932035E+00    8.9307200708244245E+00
Pb   -2.6831867106054346E+00   -3.1019259051143480E+00    3.5665090990312178E+00
Pb   -9.5319056943532949E+00    8.1636572399624576E+00    2.2349585182651390E+00
Pb   -9.8874267143447465E+00    7.3218119996937103E+00   -3.2567823898070962E+00
Pb   -7.9285926932861468E+00   -1.0989831950557342E+01   -7.3270342955139167E+00
Pb   -4.3464813341497539E+00    6.7818797946400631E+00   -9.3790732388615314E+00
Pb   -8.9518705654456525E+00    2.5060982921968571E+00    2.8039714880887510E+00
Pb   -9.0415479596433226E+00    8.9948432955132827E+00    8.3016695349296743E+00
Pb   -2.3583018117493633E+00   -4.6371573397913437E+00   -2.6292379757555215E+00
Br    5.7948537419257007E-01   -3.8744534994925210E+00   -2.4101985251252711E+00
Br    2.7864486225473040E+00   -3.7140884929391187E+00   -5.4992780532297454E+00
Br    2.2711193254994457E+00   -3.1742080263984368E-01   -2.9518897981840415E+00
Br    1.1936883227745094E+00   -9.7326283745177573E+00   -2.5188434815280760E+00
Br    4.3243618134421551E+00   -9.4144937515323690E+00   -4.7410999090806536E+00
Br    4.0107078675315764E+00   -5.9182640024545012E+00   -2.2902891359248914E+00
Br   -3.4627865347234859E+00   -4.3921844519143161E+00   -5.2267400653627458E+00
Br   -7.9527030739769424E+00   -2.6675904878673924E+00    7.1475534175098749E+00
Br   -2.9282183316276829E+00   -1.5101887232125042E+00   -3.2312563476158473E+00
Br    4.7787835935689182E+00   -1.1342849984556006E+01   -1.6664835092994106E+00
Br    1.2223359340769305E+01   -1.3736227447322953E+00    2.5735488584178592E+00
Br   -5.3899500113262890E+00   -1.0840494340494018E+01   -1.4824615419523837E+00
Br   -1.1172312381967936E+01   -3.4653196172238094E+00    3.6364254454590466E+00
Br   -8.1114996479195831E+00   -4.0038171251539207E+00    8.4455319447936694E-01
Br    1.3071674838633852E+01   -6.7506135223275168E+00    3.8170695047905485E+00
Br   -9.2829702231001932E-01    7.6808342718294762E+00   -3.8583273803604903E+00
Br    1.5952641580325930E+00    7.9461501729819499E+00   -7.0889154182588463E+00
Br    1.1220349972616819E+00    1.1128494358773207E+01   -4.5099652038423068E+00
Br   -5.8312860405828526E-01    2.9756888314153569E+00   -2.9867629992372366E+00
Br    2.5762714409356628E+00    1.6878298313835969E+00   -6.3815152459588189E+00
Br    2.4236961525885308E+00    5.7197379745762165E+00   -3.3245444671632520E+00
Br    9.3886326079411431E-01   -3.0547442268329168E+00    3.4831082038711960E+00
Br    3.3117303634125412E+00   -2.5253967264476755E+00    2.0732783770715246E-01
Br    3.3498660542421175E+00    5.8729051924371267E-01    2.5881816645586646E+00
Br    1.3154597258624774E+00   -8.4100150947166341E+00    3.9879198115995913E+00
Br    3.9633194373346674E+00   -8.4709577232896418E+00    9.6954351220344470E-01
Br    4.3471340492957582E+00   -5.2002861892949817E+00    2.8008672800994439E+00
Br   -7.4807056678142079E+00    6.5719983086616276E+00   -9.2936786899407782E+00
Br   -5.2697659190348745E+00    5.8696641416142015E+00   -1.2576810791112647E+01
Br    4.3266360788638929E+00   -1.0815328010936236E+01    4.4748524371736478E+00
Br   -5.1559110945125415E+00    9.6716551512971840E+00   -1.0096558784543449E+01
Br   -4.0364196235049485E+00    4.0533225245960924E+00   -8.5634650515337558E+00
Br   -9.4051956334000533E+00   -4.2125017772878076E-01    3.2414701115895772E+00
Br   -2.6930829494355222E+00   -1.0960378853444677E+01   -4.6391816244774953E+00
Br   -6.4969604503017626E+00    8.4321994660015154E+00    2.3624656314232970E+00
Br   -3.4575972165180890E+00    8.0397045497561628E+00   -7.6017225213751971E-01
Br   -4.2280884541064641E+00    1.1427674720569808E+01    5.2370226936862851E-01
Br   -6.4161152134434418E-01    9.3365087195128780E+00    1.7239124630263229E+00
Br    1.7487392597546667E+00    9.9142968834792082E+00   -1.1728347531985361E+00
Br    2.3888143645663265E+00    1.2172982985952373E+01    2.0289193872886333E+00
Br   -3.1747110560913944E-01    2.8898841914083384E+00    2.2398768329438941E+00
Br    2.4059427365511414E+00    3.0606588490397635E+00   -6.4273705972975903E-01
Br    2.1725241535825681E+00    6.0534928327048565E+00    1.8362248620005908E+00
Br    8.9556601921314705E-01   -1.8242662578413451E+00    9.3999567075081742E+00
Br    3.6067794847332961E+00   -2.3340570103445484E+00    6.4012760165788585E+00
Br    3.3092630296893608E+00    1.4755905232432980E+00    7.4591621704035509E+00
Br    1.6864343888143798E+00   -8.0835493399598519E+00    9.5537263798928080E+00
Br    4.3525672216057734E+00   -7.8084666445600401E+00    6.9984530607061375E+00
Br    4.0922986404792576E+00   -5.0961914376324842E+00    9.5914934828199119E+00
Br   -1.1739905939274465E+01    2.9048489608280805E+00    2.9390665667635227E+00
Br   -9.0992127799652884E+00    2.0681573653350491E+00   -1.0193553879761008E-01
Br    4.5238257894043317E+00   -1.0774619273438841E+01    9.0625969842946947E+00
Br   -9.3075891444371042E+00    5.3176079490353851E+00    2.7387229323214863E+00
Br   -8.4450775310072501E+00    3.2380985682469537E-01    9.3565532378223608E+00
Br   -2.6077582899972414E+00   -7.7244224652631850E+00   -2.5541733114525949E+00
Br   -6.1818381947751808E+00    2.6513097383512432E+00    3.0641251673361176E+00
Br   -3.7313275441650493E+00    2.2715138342515466E+00   -3.5821065471510860E-01
Br   -3.1331640978525543E+00    5.9186090458087603E+00    2.2468870592987424E+00
Br   -2.6792976523446965E-01    9.5744615140905029E+00    8.2593612538079437E+00
Br    2.0788305622504017E+00    8.8822330304741861E+00    4.9801278082767748E+00
Br    2.4296050318604943E+00    1.2545543734967925E+01    7.2873738041662408E+00
Br    9.9352494224202295E-02    3.8250602045845685E+00    8.5716853453254416E+00
Br    3.6344968597506737E+00    4.3754179157633857E+00    5.5057458313373600E+00
Br    2.9292054734478135E+00    6.8056170650978780E+00    8.1706235382296555E+00
Br   -4.7469152772610688E+00   -1.9340612485626338E+00    9.6863187672297837E+00
Br    4.4855773219081598E+00   -1.7774554082893765E+00    1.2118884241541394E+01
Br   -2.3967030394087669E+00   -2.6602252080084838E+00    6.4274877240270190E+00
Br   -2.8659125036701334E+00    1.0208114758142011E+00    8.3351128368649956E+00
Br   -2.0964694001168014E+00   -1.3302174539862227E+01   -1.5711153295427602E+00
Br    4.2760798802609106E+00   -7.3400607526039865E+00    1.2680706526370859E+01
Br   -1.1961404486226211E+01    5.2837220831718401E-01   -2.3679620375324424E+00
Br   -1.8983640893897751E+00   -1.1766139606413855E+01    4.1550362353827097E+00
Br   -1.1297464122498933E+01   -4.5686723786007519E+00   -1.7243321606611839E+00
Br    2.2287620447541028E+00    9.7880811313041232E+00    1.0554073169838802E+01
Br   -9.1581266981175666E+00   -4.6866953742027357E+00   -4.7928880954504516E+00
Br   -8.6960280786791433E+00   -1.6462476040846294E+00   -2.5751632708703682E+00
Br    2.7983812939709316E+00    3.6781768297134874E+00    1.1515080350521405E+01
Br   -7.0181424509287842E+00    7.5096806874721631E+00   -4.1223959399543384E+00
Br   -4.0283074625222213E+00    7.4173043609680507E+00   -6.6408169196987670E+00
Br   -4.0154609832366264E+00    1.0260345375856996E+01   -4.1456737623803201E+00
Br   -6.1915431524036917E+00    1.3746058483396661E+00   -3.4030528888739080E+00
Br   -1.0336374236002037E+01   -9.6963745012825093E+00    5.2642841923686303E+00
Br   -2.2704081004857537E+00    1.4560246428402355E+00   -6.2536606278226250E+00
Br   -5.9370293147363586E+00   -4.7175379057545506E+00   -8.1191767340678815E+00
Br   -2.9641191822908417E+00   -5.7818239542194148E+00   -1.1160975575460498E+01
Br   -3.3878139978435704E+00   -1.8034438855371460E+00   -8.7473733566503604E+00
Br   -2.5074551021469365E+00    3.6908753204140821E+00    1.1261030094473647E+01
Br   -4.7789881906572633E+00   -8.2902365185524829E+00    1.0604377292267531E+01
Br   -1.9385413870038837E+00   -7.7919562319297535E+00    7.1194832520173073E+00
Br   -1.7036211340970502E+00   -5.0996356501679712E+00    9.7557295767887311E+00
Br   -7.8040461030851151E+00   -9.9668446952506198E+00    1.7448735310736563E+00
Br   -8.1730613132417176E+00   -6.3669693923157853E+00    4.6838660535058469E+00
Br   -8.3239951906322389E+00    8.6536234730669417E+00    1.1368894906047240E+01
Br    1.0970726838098093E+01    1.0767040636716866E+01    1.5821991885038924E+00
Br   -8.5229952763091585E+00   -7.5706716831845524E+00    1.3306481427112654E+01
Br    9.8479511097765169E+00    1.1284318447939711E+01   -5.9319909649368778E+00
Br    1.1416219637548686E+01    4.7982957857206889E+00    1.0856799519440281E+00
Br   -7.9182596032533272E+00    3.4689866324731162E+00    1.1600051393695027E+01
Br   -1.1656754822995044E+01   -5.9347404872733103E+00   -8.4393842211890036E+00
Br    1.2031867271898784E+01   -9.7420039673473313E-01    7.3290495571048160E+00
Br   -4.8786287269361237E+00   -9.2981961320996174E+00    4.3761704811543032E+00
Br    5.4616391829927551E+00   -3.4488599503544677E+00   -9.0329409359765052E+00
Br    8.3419051444807248E+00   -2.4351749671547469E+00   -1.2141215673454028E+01
Br    1.3014661212714742E+01   -5.1548990511149908E+00    8.4764680719191698E+00
Br    8.5692758764173682E+00    5.5287808561988350E-01   -9.0149558144698059E+00
Br   -7.0789870476170629E+00   -1.1380287402928696E+01    1.0894737577565486E+01
Br   -1.7770264851118336E+00   -9.6606935297862542E+00    7.5738647836351580E-01
Br   -2.5858993699419193E+00   -6.0554800789070464E+00    3.2363861088953878E+00
Br    6.6706055172894434E+00   -9.3317594373945045E+00   -7.6587738211148189E+00
Br   -5.1065334925414572E+00   -1.1075692676675944E+01   -7.4817703344923210E+00
Br    8.9770554487297005E+00   -9.3637154774500004E+00   -1.0799441561111900E+01
Br    8.8091477655082517E+00   -5.5783552882218430E+00   -9.0825416336077271E+00
Br   -1.7300035035846193E+00   -1.0809675307574217E+01    9.9401028530671542E+00