 # Version information for this restart file 
 # current date 2021-06-17 12:38:29.891
 # current working dir /user/ub2042/exercises/2_fitting/MM_MD_workdir/md_settings.003
 # Program compiled at                              Thu Apr 22 21:44:59 EDT 2021
 # Program compiled on                cpn-k07-07-02.compute.cbls.ccr.buffalo.edu
 # Program compiled for                                                    local
 # Source code revision number                                       git:36754bb
 &GLOBAL
   PRINT_LEVEL  LOW
   PROJECT_NAME cp2k
   RUN_TYPE  MD
 &END GLOBAL
 &MOTION
   &MD
     ENSEMBLE  NVT
     STEPS  10000
     TIMESTEP     2.4999999999999996E+00
     STEP_START_VAL  1000
     TIME_START_VAL     2.5000000000000191E+03
     ECONS_START_VAL    -1.4031592531677251E+01
     TEMPERATURE     3.0000000000000000E+02
     &BAROSTAT
       PRESSURE     1.0100000000000000E+00
       TIMECON     9.9999999999999982E+03
     &END BAROSTAT
     &THERMOSTAT
       TYPE  CSVR
       &CSVR
         TIMECON     9.9999999999999982E+03
         &THERMOSTAT_ENERGY
              -2.9435187618334580E-02
         &END THERMOSTAT_ENERGY
         &RNG_INIT
Wiener process for Thermostat # 1        1 F T F   1.0152681475302341E+00        4151329329.0        2923023059.0        3467513410.0         632595511.0         113404566.0        2008274716.0             12345.0             12345.0             12345.0             12345.0             12345.0             12345.0             12345.0             12345.0             12345.0             12345.0             12345.0             12345.0
         &END RNG_INIT
       &END CSVR
     &END THERMOSTAT
     &AVERAGES  T
       &RESTART_AVERAGES
         ITIMES_START  1
         AVECPU     1.7334593816893139E-02
         AVEHUGONIOT     0.0000000000000000E+00
         AVETEMP_BARO     0.0000000000000000E+00
         AVEPOT    -1.4458113374752134E+01
         AVEKIN     4.3732033701022566E-01
         AVETEMP     2.2183883604851522E+02
         AVEKIN_QM     0.0000000000000000E+00
         AVETEMP_QM     0.0000000000000000E+00
         AVEVOL     6.7483345830898909E+06
         AVECELL_A     1.8897261328856308E+02
         AVECELL_B     1.8897261328856308E+02
         AVECELL_C     1.8897261328856308E+02
         AVEALPHA     9.0000000000000000E+01
         AVEBETA     9.0000000000000000E+01
         AVEGAMMA     9.0000000000000000E+01
         AVE_ECONS    -3.1692871593034635E+00
         AVE_PRESS     0.0000000000000000E+00
         AVE_PXX     0.0000000000000000E+00
       &END RESTART_AVERAGES
     &END AVERAGES
     &PRINT
       &ENERGY  SILENT
         &EACH
           MD  10
         &END EACH
       &END ENERGY
     &END PRINT
   &END MD
   &PRINT
     &TRAJECTORY  SILENT
       &EACH
         MD  10
       &END EACH
     &END TRAJECTORY
     &CELL  SILENT
       &EACH
         MD  10
       &END EACH
     &END CELL
     &VELOCITIES  SILENT
       &EACH
         MD  10
       &END EACH
     &END VELOCITIES
     &FORCES  SILENT
       &EACH
         MD  10
       &END EACH
     &END FORCES
     &RESTART  SILENT
       &EACH
         MD  10
       &END EACH
     &END RESTART
   &END PRINT
 &END MOTION
 &FORCE_EVAL
   METHOD  FIST
   &MM
     &FORCEFIELD
       VDW_SCALE14     1.0000000000000000E+00
       EI_SCALE14     1.0000000000000000E+00
       SHIFT_CUTOFF  T
       DO_NONBONDED  T
       IGNORE_MISSING_CRITICAL_PARAMS  T
       &SPLINE
         R0_NB     2.5000000000000000E-01
       &END SPLINE
       &NONBONDED
         &LENNARD-JONES
           ATOMS Br Br
           EPSILON     1.2630795322675199E+02
           SIGMA     3.6900000000000004E+00
         &END LENNARD-JONES
         &LENNARD-JONES
           ATOMS Cs Pb
           EPSILON     8.6920055954630968E+01
           SIGMA     3.6699999999999999E+00
         &END LENNARD-JONES
         &LENNARD-JONES
           ATOMS Cs Cs
           EPSILON     2.2644852172126850E+01
           SIGMA     4.5300000000000002E+00
         &END LENNARD-JONES
         &LENNARD-JONES
           ATOMS Pb Pb
           EPSILON     3.3363415533600227E+02
           SIGMA     5.9000000000000004E+00
         &END LENNARD-JONES
         &LENNARD-JONES
           ATOMS Br Cs
           EPSILON     5.3481070753900497E+01
           SIGMA     3.6300000000000003E+00
         &END LENNARD-JONES
         &LENNARD-JONES
           ATOMS Br Pb
           EPSILON     2.0528187276773045E+02
           SIGMA     2.9800000000000000E+00
         &END LENNARD-JONES
       &END NONBONDED
       &CHARGE
         ATOM Cs
         CHARGE     4.1739999999999999E-01
       &END CHARGE
       &CHARGE
         ATOM Pb
         CHARGE     8.3479999999999999E-01
       &END CHARGE
       &CHARGE
         ATOM Br
         CHARGE    -4.1739999999999999E-01
       &END CHARGE
     &END FORCEFIELD
     &POISSON
       PERIODIC  XYZ
       &EWALD
         EWALD_TYPE  SPME
         GMAX  62 62 62
         O_SPLINE  4
       &END EWALD
     &END POISSON
     &PRINT
       &FF_INFO  LOW
         SPLINE_INFO  F
         SPLINE_DATA  F
       &END FF_INFO
     &END PRINT
   &END MM
   &SUBSYS
     &CELL
       A     1.0000000000000001E+02    0.0000000000000000E+00    0.0000000000000000E+00
       B     0.0000000000000000E+00    1.0000000000000001E+02    0.0000000000000000E+00
       C     0.0000000000000000E+00    0.0000000000000000E+00    1.0000000000000001E+02
       PERIODIC  XYZ
       MULTIPLE_UNIT_CELL  1 1 1
     &END CELL
     &COORD
Cs    4.2128285515168201E-01   -6.6543581696924359E-01   -5.3581033487806424E+00
Cs   -3.6691213271887763E-01   -5.7432150484555882E+00   -5.3432894075679895E+00
Cs    3.5925482654551665E-02   -1.1404333022702314E+01   -5.2870363864701817E+00
Cs   -5.7578209867762578E+00   -5.5536906935805952E+00   -6.8777436795691846E+00
Br   -8.4922464606788601E+00   -1.2180731530633734E+01   -7.7435856481608045E+00
Br    1.1831208838326225E+01   -2.4484612413331206E+00   -8.7638715943583350E+00
Br   -2.1473810971233824E+00    2.3209021913517516E+00   -1.2245465385342163E+01
Cs   -1.8493677314825890E-01    5.6462918754765390E+00   -5.6932900360256875E+00
Cs    8.1670565774465090E-02    5.4188176620961870E-02    2.4164049114895048E-01
Cs    3.7694824673543043E-01   -5.6130589936029436E+00    1.6277261447972238E-01
Br   -6.1347542570740865E+00   -3.4400738394424875E+00    2.5334909691150824E+00
Cs   -1.0378205844201011E+01   -6.0298483192934187E+00    1.2494063148388260E+01
Cs    1.0836446442413605E+01   -1.2425990813669774E+01    5.1220283290052149E-01
Cs   -5.9345949424127369E+00    5.3822675923007326E+00   -2.4814973221468234E-01
Cs    4.0126808384970697E-01    1.1342777090769038E+01   -6.1712566903619503E-01
Cs   -7.3409808791001785E-02    5.6870669968210743E+00    5.3038144635181272E-01
Cs    3.9551114796007475E-01   -1.5085316951974523E-01    6.3531049080305797E+00
Cs    2.5154580254774872E-01   -5.3561981177445501E+00    5.6379701001536233E+00
Cs    5.1174081645021163E-01   -1.1171376396302433E+01    6.1862405014548445E+00
Cs   -6.1826628293686312E+00    6.4551133946362853E+00    1.2020192065961210E+01
Cs   -4.6586493964224216E+00   -3.4756165704556086E-01   -1.1624144794669272E+01
Cs   -5.2457866982041921E+00   -1.1231931723416242E+01   -6.2804976231755765E+00
Cs   -5.2775694171980350E+00    7.1877806821909673E-01    6.0317159149269024E+00
Br   -3.3084475689383508E+00   -2.8707851665125048E+00   -3.8984582077255539E-02
Cs   -4.5424383629908127E-01    6.2085377940225728E+00    5.5540233938819314E+00
Br    1.1748276562625952E+01   -8.5947257767381551E+00   -8.5318789109970812E+00
Cs    4.1407664927507089E-03   -5.4101345254598572E+00    1.1373793498748379E+01
Br   -2.5246062145865000E+00   -2.7796442393743498E-01    2.9346998857566460E+00
Br   -7.8321303616716822E+00   -3.0902033569149499E+00    1.2010384531140526E+01
Cs    1.0740623360074741E+01    1.1928227259686121E+01   -6.1146390425253143E+00
Cs   -1.0170517385931458E+01   -5.9932167635949831E+00    6.0048267788559562E+00
Cs   -5.6935879203905699E+00   -5.7802411468121093E+00    6.0990182527150472E+00
Cs   -6.6503923686435247E+00    1.1221150780109356E+01   -6.2156231395333172E+00
Br   -1.1554659901407485E+01   -8.9780606331411015E+00    9.2213510504721334E+00
Br   -9.0004165706797998E+00   -9.0155219235345285E+00    5.6405993216149453E+00
Cs   -1.1908389012287456E+01   -6.1044183194047390E+00   -5.6340173830260030E+00
Cs   -6.7876153430191586E+00    5.5897114741776184E+00   -6.6065150526740712E+00
Br   -8.1942065338831505E+00   -5.6794198673097940E+00    9.1246229702870512E+00
Cs    1.0827211777963170E+01    6.0925479855680544E+00    1.1791847611090807E+01
Br   -1.1783578360580409E+01    8.9040035153273820E+00    7.9107547767158675E+00
Br   -5.8362771694042781E+00   -3.3805036022057346E+00   -3.2643778086254556E+00
Cs    5.3697980235664733E-01    6.3378208052545904E-01    1.1763663953350239E+01
Cs    1.1725725065500569E+01    5.4479543359961378E+00   -1.8010792129323053E-01
Cs   -1.1035642497813798E+01   -6.3794452825358352E+00   -1.1130238740225614E+01
Cs    1.1985966850387371E+01    1.2239079742690859E-01    5.6462708243823521E+00
Cs   -1.1558801582048755E+01    1.0657332302795119E+01   -6.3865942749831914E+00
Cs    1.1697568611805687E+01   -1.1478310112576148E+01    7.2331937662189025E+00
Cs    5.0513233924540053E+00   -6.0681293463851027E+00   -1.1785841006006805E+01
Cs    5.7060808546910762E+00   -1.1294345218066621E+01    5.5717731763360527E+00
Cs   -5.7028748257780419E+00   -1.1944115486773056E+01   -5.7031007537253409E-01
Cs    6.6255119896391372E+00   -1.1502754354930874E+01   -1.1324673728304051E+01
Cs    1.1742465037296901E+01    6.4801006541317996E+00   -5.4873256450266732E+00
Cs    1.1498380275689735E+01    1.1731228593140537E+01    5.4866687248858312E+00
Cs    1.1000714225098902E+01    5.0786445005220653E+00   -1.2201130705520555E+01
Cs   -1.5907275955740174E-01   -5.7956493222295711E+00   -1.1047146066821117E+01
Cs   -1.1893846510432597E+01   -1.6697994550708892E+00   -5.8855840240999742E+00
Cs    6.0944981564152743E+00   -5.4214920818728247E+00    1.0976297676468327E+01
Cs    1.1272416723711464E+01   -5.9762152472441077E+00    6.3019510754000354E+00
Cs   -1.0412985397176689E+01   -1.1472075267083044E+01    1.1960647720444209E+01
Cs   -2.3530308249527905E-02    2.1244129361975239E-01   -1.1130153769768375E+01
Cs    4.1550840265209127E-01    1.2665511136435688E+01    6.6380918742123622E+00
Cs   -2.3559363274202072E-01    5.6600224482692045E+00   -1.1049999976124436E+01
Cs    6.2113547059435330E+00   -2.1497970040213410E-01   -5.7983017396012864E+00
Cs    5.7633956790155079E+00   -6.3889384626700885E+00   -6.4508006820845321E+00
Cs   -5.2616846412451865E+00   -1.1870869078910008E+01    6.0454213633635936E+00
Cs   -1.1344731322867208E+01    2.9004446548132307E-01    6.7559018482323108E+00
Cs    5.7078301920129286E+00    7.3618983239506539E-02   -1.1201548319748177E+01
Cs    5.1735956327891879E+00    1.0313086686769221E+01   -1.1569640586253488E+01
Cs    1.6076101763262285E-01    6.5771973210098711E+00    1.1187073230152954E+01
Cs   -5.1097236403185100E+00    1.1718262661379443E+01    6.1361493117109420E+00
Cs    5.3071725284131661E+00    1.0899663041287551E+01   -5.2637409599559994E+00
Cs    5.5922399699457745E+00    5.3114544255880354E+00   -6.6275883736817951E+00
Cs    6.5032349041119799E+00   -1.6605095049250108E-02   -4.6798242008361401E-01
Cs    5.9806724370175326E+00   -5.4170402407953020E+00    1.2771451134591263E-01
Cs    6.1346149489585518E+00   -1.0820609506307640E+01    1.3807235601245837E-01
Cs    5.7270200326615077E+00    5.7170844052240790E+00   -1.1498205736527011E+01
Cs   -5.9632793189019226E+00    6.3234779140906427E+00    5.7370089151297234E+00
Cs   -5.6435825863645528E+00   -6.7902091606917852E+00   -1.2538621859673089E+01
Cs    5.5690074584333118E+00    6.3448288134384807E+00   -3.7296210336291169E-01
Cs    6.6843310868479735E+00    2.8021479423812623E-01    6.3546867240260463E+00
Cs    5.9831020150080967E+00   -5.7673700430549122E+00    5.7353827402094675E+00
Cs   -6.2906876126478526E+00    1.1034501265756417E+01   -5.4879327971316749E-01
Cs    1.1396645471333274E+01    2.2885052276973353E-01    3.6724063108436611E-01
Cs   -6.2791715918504094E+00   -2.8552067472139736E-01    2.6017232458092732E-01
Cs   -1.1661769908538000E+01    6.0353160535652313E+00    6.1270181817143357E+00
Cs   -5.1957592812593871E+00   -4.5502109091565457E-01    1.2080493387529213E+01
Cs    5.3571762611829108E+00    1.2473622806710900E+01    6.5677985805346992E+00
Cs    6.5507630935464709E+00    5.7840621010116928E+00    5.6965302881988489E+00
Cs    6.4717345182122390E+00    9.4321698573457979E-01    1.1326905437497944E+01
Cs    6.1300614605691983E+00    1.1598106009921134E+01    2.8160626344790474E-01
Cs    1.1112945625535534E+01   -4.9647630280724392E-01   -6.2344502645819855E+00
Cs    1.1952857291684612E+01   -6.0356911991995359E+00   -6.4900076966371953E+00
Cs    6.1296425265674470E+00   -1.1026157051812607E+01    1.1146835933490875E+01
Cs    1.2122540935604798E+01    1.1233492886916238E+01   -1.9091399601544909E-01
Cs   -1.0118592028405018E+01   -1.9089913988173360E-01    1.2653446264714448E+01
Cs   -6.2111696926988991E+00    5.3968252488872555E+00   -1.1651224756743163E+01
Cs   -1.1938624144688333E+01    1.1268997953011674E+01   -6.6103547539324889E-02
Cs   -5.5930894143745604E+00   -5.4117992737239549E+00    1.1303563378720625E+01
Cs   -5.0920749630881295E+00   -1.0982425655825878E+01    1.1464719276198176E+01
Cs    6.1344002421961434E+00    7.3004261068068805E+00    1.1701890735416386E+01
Cs    1.1416799491743909E+01   -5.9428688905025728E+00   -1.2711008738501699E+00
Cs   -1.1530759145787862E+01   -5.3074360953450195E-01   -4.6213822256402837E-01
Cs   -6.4282797533222009E+00    1.0875599676055577E+01   -1.1739719716409141E+01
Cs   -1.1390357919194749E+01    5.3691334745695318E+00   -1.3888135825406706E-01
Cs   -1.1863785821691117E+01   -1.1341267876268384E+01   -6.3501808369717860E+00
Cs   -1.1899118793513940E+01   -5.9208595886584776E+00    9.1547860995161479E-01
Cs   -5.9481604779990036E+00   -5.9077256315451239E+00   -2.4256981453431667E-01
Cs   -1.1976893999846203E+01   -1.1289233203704665E+01    6.7504832897692939E+00
Cs    1.1773253223970551E+01   -5.9883686080210348E+00    1.1927745883212198E+01
Cs    1.1038300268958523E+01    6.2962723063191390E+00    5.4616278745228417E+00
Cs   -1.1434456378811085E+01    4.9106361328215264E+00   -5.7912275515330727E+00
Cs   -6.0188602413782784E+00   -2.2907325994385075E-01   -5.8637372249278892E+00
Cs   -1.0597729777227110E+01   -1.1835651104998362E+01    1.5482749107112256E-01
Cs    1.2463238363931355E+01   -1.1464203854546199E+01   -1.0339943907199727E+01
Cs   -1.0836942026916754E+01   -1.1617446169634835E+01   -1.2883120261415048E+01
Cs   -6.1330286952888380E-01    1.1185754303544156E+01   -1.1097221260725354E+01
Cs    4.6623700047961358E-01   -1.1142195983898500E+01   -1.1014695464043758E+01
Cs   -5.0969739126258362E-01    1.0621939946591104E+01   -6.2629140226715618E+00
Cs   -1.1595784720027840E+01    1.0986536174247735E+01    1.0674553140506811E+01
Cs    3.5739462734293570E-01   -1.1529380023800595E+01    6.0206460623527525E-01
Cs   -1.2017236396615569E+01    2.8055932500903330E-01   -1.1228224092912317E+01
Cs   -1.0857281823352590E+01    1.1788280771283246E+01    5.2843798221005400E+00
Cs    5.8919539439245767E+00   -1.1878323053078816E+01   -5.1868104852763661E+00
Cs    1.1548087748957123E+01   -8.0786023643358695E-01   -1.1291732586306638E+01
Cs    6.8639471186603218E-01    1.1398891113327601E+01    1.1856434128556970E+01
Pb    3.1602349551530020E+00   -2.9778764877234662E+00   -3.0176660560778727E+00
Pb    3.1610982705936124E+00   -8.7687262498702001E+00   -2.8454134741343018E+00
Pb   -8.9446979388097390E+00   -3.0206672251446443E+00    2.8548050342500311E+00
Pb   -2.6607090985983386E+00   -9.2376627374679696E+00   -2.8681353595999863E+00
Pb    3.0206410714073968E+00    8.8410230412717112E+00   -2.8022548820625572E+00
Pb    3.1312852173350136E+00    3.0110737992508310E+00   -3.1603641283312367E+00
Pb    3.3746813384152072E+00   -2.7952805113349952E+00    3.2075635325288934E+00
Pb    3.2018003562373045E+00   -8.6168548275383383E+00    3.0513585676583941E+00
Pb   -2.9329624807937931E+00    9.3716096300567617E+00    3.1580011396500534E+00
Pb    3.0222301815282271E+00    8.8652032856290681E+00    3.0091272746458593E+00
Pb    3.3779802552272020E+00    3.0442370624886603E+00    2.9716216234192769E+00
Pb    3.0526565749736143E+00   -2.8445117080335089E+00    9.0820732767711529E+00
Pb    3.1583992216401695E+00   -8.6185904411906087E+00    8.7993421154538503E+00
Pb   -2.8957774582830780E+00    3.1340321540434557E+00    3.1078669234445329E+00
Pb    3.1133449673037163E+00    9.4922078458261279E+00    8.6982843482754042E+00
Pb    3.0912382926787214E+00    3.4892045442251671E+00    9.1260892543606271E+00
Pb   -2.6357612733865765E+00   -2.4698634527040371E+00    8.7163658333982461E+00
Pb   -8.3917844371743495E+00   -9.0003659327310022E+00    2.7942802780311693E+00
Pb   -8.9711961197460646E+00    2.5087752264573675E+00   -2.7781576279241698E+00
Pb   -2.8003831108751456E+00   -3.1117970874493279E+00   -8.9979770554961291E+00
Pb   -2.5560547720637947E+00   -9.1211235328455036E+00    3.2071601965795127E+00
Pb   -3.0605625716289309E+00    8.6288295700215851E+00   -2.8989676290907718E+00
Pb   -2.6645791799915806E+00   -8.6700572998043928E+00    8.9942421377267650E+00
Pb   -9.4604914598114984E+00   -3.2193235464505272E+00   -3.3764946980972756E+00
Pb   -8.5071278355567070E+00   -8.8406701607724703E+00   -3.0877276627118051E+00
Pb   -2.9309397889959898E+00    2.7478580223413931E+00   -2.8178912516780472E+00
Pb   -8.4520637469502020E+00   -8.9448629635929855E+00    8.9454110573445007E+00
Pb   -8.9529064520559185E+00   -3.3929473157916616E+00   -9.2774516331035475E+00
Pb    8.9561731494479879E+00   -3.0901918717587926E+00   -9.3667683975660676E+00
Pb    9.0759116069788757E+00   -8.9671997031214072E+00   -9.0472308363555722E+00
Pb   -2.8828280328560756E+00   -9.1010409916378165E+00   -8.9179090849239309E+00
Pb   -9.1275608102307402E+00    8.4174262474396020E+00   -9.1431189419506467E+00
Pb    3.0186145518821905E+00   -3.0651842998623451E+00   -8.7857900641203646E+00
Pb    2.9917146928516729E+00   -8.9587345918040029E+00   -8.7340286147412183E+00
Pb   -3.0510722766224543E+00    2.9019160314798045E+00   -8.8530500500067042E+00
Pb    2.8915966713930912E+00    8.7774317833774358E+00   -8.6748117305978933E+00
Pb    2.9260663942836085E+00    2.6612644973486148E+00   -9.2048146105296418E+00
Pb    8.8454030403672110E+00   -2.9855073083909329E+00   -3.1380369309915883E+00
Pb    9.0383167369650241E+00   -8.8692086263451682E+00   -2.9488722198042305E+00
Pb   -8.5356849654770155E+00   -2.8183393229993428E+00    8.9399172988731657E+00
Pb    9.0635866814912553E+00    9.0968524942901503E+00   -9.2852184015336512E+00
Pb   -8.8570041161365083E+00    2.2482820446104124E+00   -8.6975648375690753E+00
Pb   -3.1425608094337552E+00    9.3685293162501999E+00    9.3054722493128974E+00
Pb    8.7991681174244540E+00    9.0920917040114055E+00   -3.2586822038209085E+00
Pb    9.3656679614647285E+00    3.1104468323101613E+00   -2.9929231959386877E+00
Pb    9.0558165158500739E+00   -2.5623456822730826E+00    2.7503298641105887E+00
Pb    9.0980799712407627E+00   -8.8349702981350990E+00    3.1141758467050664E+00
Pb    9.0664498478378075E+00    2.8736412166607979E+00   -8.8602190948120523E+00
Pb   -2.9944944258384512E+00    3.5336080847184812E+00    9.0344849765681534E+00
Pb    8.7222389519023427E+00    9.1280565255767421E+00    2.6367967176695450E+00
Pb    8.9995233671370176E+00    3.2296471023486659E+00    2.9151107930480746E+00
Pb    9.2471443488402070E+00   -2.6111625902775577E+00    8.9246393308573158E+00
Pb    8.8153991554044353E+00   -8.5173114899828679E+00    8.9359798238159645E+00
Pb    9.0916423264052533E+00    9.1139994452913893E+00    8.6417980005953510E+00
Pb    9.4200979939898648E+00    3.4278264777425314E+00    8.7700388408776160E+00
Pb   -8.8855366730865164E+00    3.1381886273047139E+00    9.0222387343721717E+00
Pb   -3.0325483391260017E+00   -3.0221389992874257E+00    2.7734417713364454E+00
Pb   -9.0362588885189776E+00    9.1852013956650467E+00    2.5222711193547518E+00
Pb   -8.9106211524300676E+00    8.4429920176753299E+00   -3.1794521073657398E+00
Pb   -8.8221467709266292E+00   -9.7801256173770490E+00   -9.1474756794874761E+00
Pb   -3.1785543808767804E+00    8.6957351150951947E+00   -8.7383580327678381E+00
Pb   -8.9360384278806908E+00    2.9886323371935979E+00    3.1020671321293780E+00
Pb   -8.8354553206261439E+00    9.2460073630041855E+00    8.4840645425934618E+00
Pb   -3.1128396544598367E+00   -3.1132735376918457E+00   -2.9237843966146304E+00
Br   -2.1672963995096819E-01   -2.9555807327969594E+00   -2.4560739272698990E+00
Br    3.1074715334333614E+00   -2.6262517670461905E+00   -5.8295886651887940E+00
Br    3.3819227424726983E+00   -4.6566019939684497E-02   -3.1874501230969052E+00
Br    2.5540062171865285E-01   -8.9557476973638224E+00   -2.8468660753065689E+00
Br    3.2902603855163788E+00   -8.6761018599374502E+00   -5.6707464242408721E+00
Br    2.6275078098119535E+00   -5.8964388576288611E+00   -3.4145420742933079E+00
Br   -2.7028502004441912E+00   -2.9806058933994928E+00   -5.7697719973950061E+00
Br   -8.4424067678647923E+00   -3.3226583473417501E+00    6.0879658307610462E+00
Br   -2.9557826061979902E+00   -1.5372410135722844E-01   -3.1676105165801336E+00
Br    3.0403277388392937E+00   -1.1578772404023189E+01   -3.3368751088910131E+00
Br    1.1917041580162017E+01   -1.6997456664139083E+00    3.0021878059894829E+00
Br   -5.6881071861248804E+00   -8.7937851117143673E+00   -2.5655154734723311E+00
Br   -1.1512880956126677E+01   -3.5296163578282123E+00    3.7015454677332498E+00
Br   -9.7367130528265378E+00   -3.5897310398520372E+00   -3.4104137687651032E-01
Br    1.1767032013475019E+01   -9.5091492055713509E+00    3.3605578851058322E+00
Br   -2.6706730148627073E-01    8.8321191420340490E+00   -2.9327066845559608E+00
Br    2.5797485815612773E+00    9.3785512338200174E+00   -5.6395304622523330E+00
Br    3.4061178537545911E+00    1.1774675751746308E+01   -2.8236774068257842E+00
Br    3.0020725434123968E-03    2.9012416913035342E+00   -2.6072313815701782E+00
Br    2.9235853781644687E+00    2.8374157900751875E+00   -6.2720140901619343E+00
Br    3.2902485198646723E+00    5.8369007905479986E+00   -3.7183424054244765E+00
Br    3.7949748549543122E-01   -2.5079680089453196E+00    2.7542939484784457E+00
Br    3.0404358049360876E+00   -2.7810280913150387E+00   -1.4460427866687545E-01
Br    3.7717977521941846E+00    1.8643852086863671E-01    2.7854796650433427E+00
Br    4.3279329499532843E-01   -8.8992713794735554E+00    3.4343152066652731E+00
Br    3.0833080652600517E+00   -8.4541851709639690E+00    1.2717509055857901E-01
Br    3.0601109692008004E+00   -5.6593876658090387E+00    2.5729321170557440E+00
Br   -6.3025832835324387E+00    8.4668119978865537E+00   -8.4277493241524848E+00
Br   -3.4908060938580179E+00    8.9890637479041100E+00   -1.1561892121596124E+01
Br    3.5152580003446601E+00   -1.1517565651579686E+01    2.8049249926125892E+00
Br   -3.0969399181573403E+00    1.1479391332785747E+01   -8.1217321454777398E+00
Br   -3.5084522875461062E+00    5.6465635529459552E+00   -9.3965045064560346E+00
Br   -8.9387749660462354E+00    6.8059580428876817E-02    2.4678720740456792E+00
Br   -3.0491668442912405E+00   -8.4475353340014614E+00   -5.7944809074354673E+00
Br   -6.1098097572815337E+00    9.6886940184531962E+00    3.1344562037876580E+00
Br   -3.2336091368218165E+00    8.8334795928451246E+00    1.4470167288099831E-01
Br   -2.9411197283212087E+00    1.2271152886221120E+01    3.7935192832968956E+00
Br    4.3899130521420998E-02    9.0175830234832812E+00    3.2784810855811410E+00
Br    2.6859059884048619E+00    8.1873600598970491E+00    5.7744850488517498E-02
Br    3.3341962977222033E+00    1.1604578451361455E+01    1.9717050604197794E+00
Br    1.3561024906974856E-01    3.4219583344961961E+00    3.2088483153876615E+00
Br    3.2435519711087011E+00    3.3484334801866673E+00   -2.1744085295102597E-01
Br    3.3246560388002120E+00    5.9486373828617989E+00    3.7533047957419834E+00
Br    1.3510044813775079E-01   -2.5205847116361104E+00    8.8480001833715445E+00
Br    2.7774599950940724E+00   -2.4808942443791002E+00    5.8898846076005604E+00
Br    3.1607427713442457E+00    7.9274368240532675E-02    9.1282231548989756E+00
Br    2.0752599547236161E-01   -8.0768489080235106E+00    9.0550609634569490E+00
Br    3.3130984538462416E+00   -8.5736679219866172E+00    5.9102818791870870E+00
Br    2.8565415925707964E+00   -5.6100142678446590E+00    8.3245382356760196E+00
Br   -1.1903722757736716E+01    2.7751674525032390E+00    3.5109580268813017E+00
Br   -9.0537193027232217E+00    2.8120024244587478E+00    1.1585862180226068E-01
Br    3.2202883757858194E+00   -1.1473778621817793E+01    8.9016057693316508E+00
Br   -9.3446012405867727E+00    5.7680684163632696E+00    2.7550221433219853E+00
Br   -8.9516343643431036E+00    9.5473538015913198E-02    9.1237634210654566E+00
Br   -2.6569253209396377E+00   -6.0553741427886631E+00   -2.5275320718274430E+00
Br   -6.0963642714227317E+00    2.5679720790204348E+00    2.9135830813231012E+00
Br   -2.9897180172745577E+00    2.8830264382912381E+00    1.4101950534709387E-01
Br   -2.7155075389758241E+00    6.2999388026682066E+00    2.8790280592449951E+00
Br    3.5102821428339509E-01    9.1172439620410000E+00    9.1750282300299233E+00
Br    2.7372731891796160E+00    9.9002357066755433E+00    5.9394648617750905E+00
Br    2.9040510961022381E+00    1.2327741672137678E+01    9.1281206425872252E+00
Br    4.6276252382105525E-02    2.7274647679473643E+00    9.3555796790165822E+00
Br    3.0725154337587428E+00    2.8218462703232157E+00    6.0129852954768657E+00
Br    2.5503952351104258E+00    6.1870936192823613E+00    8.4457683647685879E+00
Br   -5.6304190000632293E+00   -2.4702937603452333E+00    8.7235046722427736E+00
Br    3.3145785803935359E+00   -3.8251277740340686E+00    1.1787864394276445E+01
Br   -3.3937488379980114E+00   -2.6937410330776701E+00    5.6028802087088456E+00
Br   -2.8522931032388827E+00    3.4619897152984025E-01    8.2068501867391941E+00
Br   -3.3371410373774371E+00   -1.2086337008476704E+01   -3.3445198537083063E+00
Br    3.3280215845901306E+00   -7.9708082625963383E+00    1.1568573053538964E+01
Br   -1.1730203827398270E+01    2.3529184152498606E+00   -2.9444976956315858E+00
Br   -2.5930265930317544E+00   -1.1906082645100570E+01    3.8442595883459822E+00
Br   -1.2413326909927827E+01   -3.7778321168707367E+00   -3.1068755541209514E+00
Br    3.0306536150896246E+00    8.9519647289444002E+00    1.1754286792559231E+01
Br   -9.3449860352199288E+00   -3.5713806176423089E+00   -6.0810058210696081E+00
Br   -9.0397560674869446E+00   -4.3312913523278024E-01   -2.8672351231593503E+00
Br    3.5008004537054567E+00    3.2223776859030671E+00    1.1914909513535695E+01
Br   -5.9009304940247809E+00    8.3385596695258624E+00   -3.3624050661469957E+00
Br   -2.6462749141607596E+00    8.0030539743467806E+00   -5.9120915478792391E+00
Br   -3.3026446408692034E+00    1.1343709495180931E+01   -3.6440870529677487E+00
Br   -5.8263044703384068E+00    2.4808744266518405E+00   -2.7060805707044167E+00
Br   -1.1134138479446596E+01   -9.7380504848043383E+00    2.4570894947115600E+00
Br   -3.1932856431099554E+00    3.5610471336736791E+00   -6.0571296838435229E+00
Br   -5.6807767538717284E+00   -2.7159002470554507E+00   -8.7205365310792384E+00
Br   -3.2752398825804634E+00   -3.7773547962465015E+00   -1.1960884191993840E+01
Br   -2.9175721727576431E+00   -2.2865811045895593E-01   -9.0280533099302431E+00
Br   -3.5949244370038471E+00    3.1348196167109763E+00    1.2056184636191567E+01
Br   -5.5560827033018390E+00   -8.6517931855404679E+00    8.6540030473427674E+00
Br   -2.2011026236489433E+00   -9.1452413499933520E+00    6.1269346539737244E+00
Br   -2.6529936466065021E+00   -5.5808789229553328E+00    8.3936917315202209E+00
Br   -8.8655264217859955E+00   -8.7908811924197430E+00   -1.5527539727602610E-01
Br   -8.9068100569802287E+00   -6.0799952279850746E+00    2.9873020594583810E+00
Br   -9.3025723843746029E+00    8.7095225995238952E+00    1.1414566022463964E+01
Br    1.1917654094197355E+01    9.3454597394379917E+00    2.7160221119052053E+00
Br   -8.3418326117285648E+00   -9.0825355458167767E+00    1.1894726401490326E+01
Br    1.1748547495887712E+01    9.2259058883827318E+00   -3.3440576075612372E+00
Br    1.1876292941067756E+01    3.0029981743567524E+00    2.7853677558623047E+00
Br   -8.6024614417404006E+00    2.7601960351626880E+00    1.2100345304623424E+01
Br   -1.1780567517335660E+01   -3.9369939985229903E+00   -9.0396925073352445E+00
Br    1.1917470852924836E+01   -3.5100124053236064E+00    8.4834107901614662E+00
Br   -5.3763830303811497E+00   -8.5091073159971398E+00    3.6494337137647772E+00
Br    5.9001544405089978E+00   -3.4655820468192289E+00   -8.9152643390621087E+00
Br    8.5837825669244605E+00   -3.0854914035331684E+00   -1.2101964216091300E+01
Br    1.1937010717977110E+01   -8.6003524998319598E+00    9.3209735669897320E+00
Br    8.7472304231244244E+00    2.9521742437546971E-02   -9.5085206949041510E+00
Br   -8.8750131269631094E+00   -1.1902031362851250E+01    8.8391515507155525E+00
Br   -2.0849607627293065E+00   -9.0916785072569812E+00    3.0911126563153912E-01
Br   -2.2789913045526085E+00   -5.8015175552728451E+00    2.9408599147363996E+00
Br    5.7596184575655887E+00   -8.5869806354015861E+00   -8.9376437289579407E+00
Br   -5.7182004397083226E+00   -9.4897170374590694E+00   -9.3385591250473450E+00
Br    9.5219837023925749E+00   -9.6135752183400047E+00   -1.1770450847966551E+01
Br    8.8964288219878096E+00   -6.0091381903249168E+00   -9.1924915871811184E+00
Br   -2.7898193471258783E+00   -1.1470262467608748E+01    8.9849451670302489E+00