 # Version information for this restart file 
 # current date 2021-06-17 12:40:15.301
 # current working dir /user/ub2042/exercises/2_fitting/MM_MD_workdir/md_settings.003
 # Program compiled at                              Thu Apr 22 21:44:59 EDT 2021
 # Program compiled on                cpn-k07-07-02.compute.cbls.ccr.buffalo.edu
 # Program compiled for                                                    local
 # Source code revision number                                       git:36754bb
 &GLOBAL
   PRINT_LEVEL  LOW
   PROJECT_NAME cp2k
   RUN_TYPE  MD
 &END GLOBAL
 &MOTION
   &MD
     ENSEMBLE  NVT
     STEPS  10000
     TIMESTEP     2.4999999999999996E+00
     STEP_START_VAL  7000
     TIME_START_VAL     1.7499999999998578E+04
     ECONS_START_VAL    -1.4031592531677251E+01
     TEMPERATURE     3.0000000000000000E+02
     &BAROSTAT
       PRESSURE     1.0100000000000000E+00
       TIMECON     9.9999999999999982E+03
     &END BAROSTAT
     &THERMOSTAT
       TYPE  CSVR
       &CSVR
         TIMECON     9.9999999999999982E+03
         &THERMOSTAT_ENERGY
              -2.0640189659180552E-01
         &END THERMOSTAT_ENERGY
         &RNG_INIT
Wiener process for Thermostat # 1        1 F T F  -9.6117049849395275E-01        4292059355.0        1034014718.0        2730869498.0        3644692507.0         585491445.0        2739155311.0             12345.0             12345.0             12345.0             12345.0             12345.0             12345.0             12345.0             12345.0             12345.0             12345.0             12345.0             12345.0
         &END RNG_INIT
       &END CSVR
     &END THERMOSTAT
     &AVERAGES  T
       &RESTART_AVERAGES
         ITIMES_START  1
         AVECPU     1.7534761705868138E-02
         AVEHUGONIOT     0.0000000000000000E+00
         AVETEMP_BARO     0.0000000000000000E+00
         AVEPOT    -1.4409383404686332E+01
         AVEKIN     4.8439026141230745E-01
         AVETEMP     2.4571592649812951E+02
         AVEKIN_QM     0.0000000000000000E+00
         AVETEMP_QM     0.0000000000000000E+00
         AVEVOL     6.7483345830910429E+06
         AVECELL_A     1.8897261328855717E+02
         AVECELL_B     1.8897261328855717E+02
         AVECELL_C     1.8897261328855717E+02
         AVEALPHA     9.0000000000000000E+01
         AVEBETA     9.0000000000000000E+01
         AVEGAMMA     9.0000000000000000E+01
         AVE_ECONS    -3.8718616340974279E+00
         AVE_PRESS     0.0000000000000000E+00
         AVE_PXX     0.0000000000000000E+00
       &END RESTART_AVERAGES
     &END AVERAGES
     &PRINT
       &ENERGY  SILENT
         &EACH
           MD  10
         &END EACH
       &END ENERGY
     &END PRINT
   &END MD
   &PRINT
     &TRAJECTORY  SILENT
       &EACH
         MD  10
       &END EACH
     &END TRAJECTORY
     &CELL  SILENT
       &EACH
         MD  10
       &END EACH
     &END CELL
     &VELOCITIES  SILENT
       &EACH
         MD  10
       &END EACH
     &END VELOCITIES
     &FORCES  SILENT
       &EACH
         MD  10
       &END EACH
     &END FORCES
     &RESTART  SILENT
       &EACH
         MD  10
       &END EACH
     &END RESTART
   &END PRINT
 &END MOTION
 &FORCE_EVAL
   METHOD  FIST
   &MM
     &FORCEFIELD
       VDW_SCALE14     1.0000000000000000E+00
       EI_SCALE14     1.0000000000000000E+00
       SHIFT_CUTOFF  T
       DO_NONBONDED  T
       IGNORE_MISSING_CRITICAL_PARAMS  T
       &SPLINE
         R0_NB     2.5000000000000000E-01
       &END SPLINE
       &NONBONDED
         &LENNARD-JONES
           ATOMS Br Br
           EPSILON     1.2630795322675199E+02
           SIGMA     3.6900000000000004E+00
         &END LENNARD-JONES
         &LENNARD-JONES
           ATOMS Cs Pb
           EPSILON     8.6920055954630968E+01
           SIGMA     3.6699999999999999E+00
         &END LENNARD-JONES
         &LENNARD-JONES
           ATOMS Cs Cs
           EPSILON     2.2644852172126850E+01
           SIGMA     4.5300000000000002E+00
         &END LENNARD-JONES
         &LENNARD-JONES
           ATOMS Pb Pb
           EPSILON     3.3363415533600227E+02
           SIGMA     5.9000000000000004E+00
         &END LENNARD-JONES
         &LENNARD-JONES
           ATOMS Br Cs
           EPSILON     5.3481070753900497E+01
           SIGMA     3.6300000000000003E+00
         &END LENNARD-JONES
         &LENNARD-JONES
           ATOMS Br Pb
           EPSILON     2.0528187276773045E+02
           SIGMA     2.9800000000000000E+00
         &END LENNARD-JONES
       &END NONBONDED
       &CHARGE
         ATOM Cs
         CHARGE     4.1739999999999999E-01
       &END CHARGE
       &CHARGE
         ATOM Pb
         CHARGE     8.3479999999999999E-01
       &END CHARGE
       &CHARGE
         ATOM Br
         CHARGE    -4.1739999999999999E-01
       &END CHARGE
     &END FORCEFIELD
     &POISSON
       PERIODIC  XYZ
       &EWALD
         EWALD_TYPE  SPME
         GMAX  62 62 62
         O_SPLINE  4
       &END EWALD
     &END POISSON
     &PRINT
       &FF_INFO  LOW
         SPLINE_INFO  F
         SPLINE_DATA  F
       &END FF_INFO
     &END PRINT
   &END MM
   &SUBSYS
     &CELL
       A     1.0000000000000001E+02    0.0000000000000000E+00    0.0000000000000000E+00
       B     0.0000000000000000E+00    1.0000000000000001E+02    0.0000000000000000E+00
       C     0.0000000000000000E+00    0.0000000000000000E+00    1.0000000000000001E+02
       PERIODIC  XYZ
       MULTIPLE_UNIT_CELL  1 1 1
     &END CELL
     &COORD
Cs   -5.3265338393445916E-01   -6.1522345940757717E-01   -6.1586455998818241E+00
Cs    1.3751498622891845E-01   -5.7601681968441438E+00   -4.9106296256192845E+00
Cs    1.1055793298624383E+00   -1.1622956764689711E+01   -3.6241008320052610E+00
Cs   -5.0983722967725491E+00   -8.2658957846270678E+00   -5.1733467481658506E+00
Br   -7.7035684551964341E+00   -1.3741490794760061E+01   -5.9676057969664216E+00
Br    1.1345853449378982E+01   -1.7412180868487344E+00   -9.5573793201223580E+00
Br   -3.4658985937124545E+00    6.4967451010357546E-01   -1.1855396102436091E+01
Cs   -8.8826768905587561E-01    4.3310905596693425E+00   -7.2320557657425839E+00
Cs   -5.2391230283895873E-01   -4.0105599171331596E-01   -3.4599507019693776E-01
Cs    1.3366686085301152E+00   -6.3507598750336678E+00    9.3052702452897595E-01
Br   -5.0899588819320458E+00   -3.4381644260833046E+00    3.7154845356573984E+00
Cs   -9.8390924513120783E+00   -4.6941769490843201E+00    1.2980784284868722E+01
Cs    1.2720572432494116E+01   -9.0918764441116267E+00   -4.2543559325993574E-01
Cs   -6.4635523822176015E+00    5.6100963892492981E+00   -6.8956233647667764E-01
Cs   -1.9145086709708699E+00    1.0925962516046066E+01   -1.8210555825370522E+00
Cs   -5.5637142361099157E-01    5.5836284836378338E+00   -1.6976944644626197E+00
Cs   -2.2149008073998125E-01    3.6045731029003808E-01    5.5058012629280961E+00
Cs    9.8820420433142298E-01   -6.1337315931284930E+00    6.1290544188387033E+00
Cs    1.3276312324885495E+00   -1.0956549787946049E+01    7.7997884683996421E+00
Cs   -5.7591313434563691E+00    6.9409135994270859E+00    1.0854848693445708E+01
Cs   -7.3473977420642838E+00   -2.6078225558603441E+00   -1.0290760663513703E+01
Cs   -5.4444338248736388E+00   -1.2488892726438532E+01   -3.8882787814336619E+00
Cs   -5.3678921067984957E+00    3.8198692254774286E-01    6.0595717625786163E+00
Br   -2.4456302063338300E+00   -3.2919437827929960E+00    4.3139810501704984E-01
Cs    9.9954776838768089E-01    5.8872392158380968E+00    5.5461314328000686E+00
Br    1.2573535574911960E+01   -8.0310001132181199E+00   -8.1015332830578668E+00
Cs    1.1427801425978565E+00   -4.7716831302564318E+00    1.1519705035619600E+01
Br   -2.9472694794753234E+00   -7.8826543709958383E-02    2.4430400964384047E+00
Br   -7.2714982759850590E+00   -2.6128821506666919E+00    1.2947926454986131E+01
Cs    9.8035672819158588E+00    1.1500598396789828E+01   -7.7615968902503711E+00
Cs   -1.1198246384158832E+01   -5.5532962726691508E+00    7.8783152681693620E+00
Cs   -4.6763888828970979E+00   -5.7856417600646974E+00    6.8841199824660935E+00
Cs   -7.3383813033481484E+00    9.3429534230000346E+00   -7.5527359655573498E+00
Br   -1.1080535234362285E+01   -8.8545516302629661E+00    9.6636434293536606E+00
Br   -7.3220730611312526E+00   -8.3382857480793042E+00    7.1415340881256979E+00
Cs   -1.1281230436865492E+01   -7.2571947328222102E+00   -3.4401791119383600E+00
Cs   -7.6618518937934361E+00    4.5147494218774940E+00   -6.7550973456839332E+00
Br   -8.0486981296931841E+00   -5.8865442291123662E+00    1.0448982772442484E+01
Cs    1.2563313911667839E+01    7.5806068179224262E+00    9.3039277892165586E+00
Br   -1.1786780985680233E+01    9.3642847117680503E+00    8.3164961121140184E+00
Br   -6.1474117644306556E+00   -4.7907014756457516E+00   -2.7393559852177711E+00
Cs    1.1912140935414122E+00    1.7205095019690351E+00    1.1422115793151431E+01
Cs    1.0664209095478105E+01    7.0555660537353679E+00   -1.5268202329776930E+00
Cs   -1.2229367291578606E+01   -8.9677793272132131E+00   -9.5993055975334087E+00
Cs    1.1751830207187458E+01    1.6755417353763196E+00    5.5653211362493291E+00
Cs   -1.3701162967462164E+01    9.7276367454218509E+00   -7.5569926607275715E+00
Cs    1.3517278279129537E+01   -9.7167086703981234E+00    6.2981415392382001E+00
Cs    5.9598292953013114E+00   -7.0224807916679239E+00   -1.0936783255444070E+01
Cs    6.6640212781086099E+00   -1.0323804581109183E+01    6.8505796162637695E+00
Cs   -4.5002461880719462E+00   -1.1971788296184931E+01    1.1237778954860569E+00
Cs    7.3875778445589253E+00   -1.1304575633812711E+01   -1.0792812804457951E+01
Cs    9.6394217265021176E+00    7.0841897977583610E+00   -6.9650977397157270E+00
Cs    1.1191511527523257E+01    1.2010923255423339E+01    4.4813431778324118E+00
Cs    1.0191671134013019E+01    6.2229735416784928E+00   -1.1895832306209890E+01
Cs    8.3604376181714013E-01   -7.7525790807728834E+00   -1.0864396697621151E+01
Cs   -1.2298892643239959E+01   -1.3709458009144952E+00   -5.2652763949718207E+00
Cs    6.0475712502605736E+00   -4.0913567029541174E+00    1.1354450732271275E+01
Cs    1.2387206055226903E+01   -3.7270653017777859E+00    5.5279181740002841E+00
Cs   -1.0194503910222730E+01   -9.0291368757260528E+00    1.3038048734926820E+01
Cs   -8.7852100481524820E-01   -1.4753822083718311E+00   -1.2147460100279091E+01
Cs   -1.6114557417060293E-01    1.1613195007698497E+01    4.7543681297625229E+00
Cs   -1.3219990034748894E+00    4.7925112581040672E+00   -1.2015135576870581E+01
Cs    5.6892784863298438E+00   -4.8493077923220818E-01   -5.5936979618012641E+00
Cs    6.3027682698207759E+00   -6.6836113261374122E+00   -6.1107912931436239E+00
Cs   -3.4009770962373800E+00   -1.1693403099822499E+01    6.3225318618439559E+00
Cs   -1.0865874284006020E+01   -7.8405724858288084E-01    6.6511267484121719E+00
Cs    5.5663336248625432E+00   -1.0896423828771122E+00   -1.1171992330104363E+01
Cs    3.5222565287832870E+00    1.0817480365722966E+01   -1.3393016062927627E+01
Cs   -1.1821995559920147E-01    7.2138507219832890E+00    1.0295193741925512E+01
Cs   -5.9503503397493445E+00    1.2017925426661222E+01    3.9913229024518952E+00
Cs    3.1454625129719758E+00    1.1908584450431656E+01   -6.6808803476602669E+00
Cs    4.9008327237431200E+00    6.6551260598667534E+00   -7.1182903276508265E+00
Cs    5.3310235074052388E+00    7.8074227087875780E-01   -4.1158610557578096E-01
Cs    6.8048542130049805E+00   -5.1118980803500724E+00    2.6790288708059501E-01
Cs    7.5533452028499868E+00   -1.0950363691092301E+01    3.1905248478625253E-01
Cs    4.1278841383896721E+00    4.6816803031313761E+00   -1.3102642866920064E+01
Cs   -5.6233830933595961E+00    6.1034104108060285E+00    5.5408969328219149E+00
Cs   -5.8081061358008803E+00   -7.3898319782128929E+00   -1.0572305828746726E+01
Cs    4.9602504992971763E+00    7.0618818075615595E+00   -1.0868424576004145E+00
Cs    6.2834072929050038E+00    5.9634046079759273E-01    5.0913285356259701E+00
Cs    7.0120069264727167E+00   -4.4295685322159555E+00    6.2315007994759819E+00
Cs   -7.1050342775446342E+00    1.0562029735781644E+01   -9.8481234882332014E-01
Cs    1.1906370924603749E+01    1.9000868285046455E+00   -5.2347939110122599E-01
Cs   -5.9148485537286097E+00   -3.1573680052606723E-01   -9.1411450195238109E-01
Cs   -1.1588688764605921E+01    6.2177302286700389E+00    6.4676339975491182E+00
Cs   -4.6550946474704293E+00    1.8854191206125757E+00    1.1539060775205710E+01
Cs    5.4323074800046385E+00    1.2152191951277949E+01    4.7986014035148958E+00
Cs    5.6202083438313357E+00    6.9758284940074313E+00    4.4187882419409137E+00
Cs    7.5196901490685679E+00    1.8392665464901092E+00    1.1471533412808066E+01
Cs    4.7148865436331091E+00    1.2318299842837618E+01   -5.1638758346815194E-01
Cs    1.0793375099847701E+01    8.8098746447889764E-01   -6.0911069941343632E+00
Cs    1.1358432758454203E+01   -4.8825193570649423E+00   -5.8961439443237937E+00
Cs    6.7610024731171485E+00   -9.3608357233260531E+00    1.2244916772650532E+01
Cs    9.2694037781035359E+00    1.3466097291453480E+01   -1.5758511305430083E+00
Cs   -1.0755346073653090E+01    6.8640552779047814E+00    1.2844605756108544E+01
Cs   -7.0518442827042795E+00    2.5116579615567605E+00   -1.1911657604896607E+01
Cs   -1.2834360924978297E+01    9.5387679162792747E+00   -3.0583392910744034E-01
Cs   -4.4679848082493185E+00   -5.2768936927391303E+00    1.1989162405245519E+01
Cs   -4.3375066835136584E+00   -9.9537860180000628E+00    1.3606849493811147E+01
Cs    6.0105093670716556E+00    7.6288895254122790E+00    1.0934462241514339E+01
Cs    1.1986000176580195E+01   -3.7069496650595908E+00    2.6003655226991290E-01
Cs   -1.1337216477149058E+01   -1.7062130252742105E+00    1.2089824453693265E+00
Cs   -7.0772136692575600E+00    9.4539579383804799E+00   -1.2776265247464446E+01
Cs   -1.1585992864838754E+01    4.5200418108212848E+00    6.7250767672885348E-01
Cs   -1.0604439042825756E+01   -1.4979706681059769E+01   -4.8112598839188649E+00
Cs   -1.1020601028432935E+01   -7.4171048045365486E+00    1.2867084900817198E+00
Cs   -4.3940070848452404E+00   -6.9681983414103827E+00    1.2570240488118931E+00
Cs   -9.3348162524496523E+00   -1.1549787503622619E+01    7.0332966993877664E+00
Cs    1.2716281394127648E+01   -3.7004374587164737E+00    1.1872548142792279E+01
Cs    1.0678003636597779E+01    7.4269125541221541E+00    4.5217563836744130E+00
Cs   -1.2837316827327351E+01    3.9103796699541786E+00   -4.9068328827021102E+00
Cs   -7.0344323213476692E+00   -2.1663848549367422E+00   -5.4208885595168832E+00
Cs   -9.1548807034892850E+00   -1.2850567712478695E+01    2.0058445909639411E+00
Cs    1.1503213505256893E+01   -4.7868647693033930E+00   -1.0869425695319068E+01
Cs   -5.3902050808616808E+00   -1.2374546414817438E+01   -1.1232457218204395E+01
Cs   -2.2203074897445405E+00    9.4598599529508327E+00   -1.1925332764169493E+01
Cs    4.0554858862468396E-01   -1.4945839146380456E+01   -8.9197206328610008E+00
Cs   -2.1515564673732461E+00    1.0977312785637764E+01   -7.3587658821451027E+00
Cs   -6.5512699743343727E+00    1.1516755799752467E+01    1.1015420348134331E+01
Cs    2.1813159074190027E+00   -1.2105514550765937E+01    2.0666336983672551E+00
Cs   -1.2187095793191665E+01   -2.4412687695365034E+00   -1.0257035364604162E+01
Cs   -1.0970493442715050E+01    1.2445721200618349E+01    4.4974178489065242E+00
Cs    7.8898522036841321E+00   -1.1469582403751229E+01   -4.9521801496404700E+00
Cs    1.0321762832250531E+01    9.4977037334032469E-02   -1.1839962361045757E+01
Cs   -1.1963502977822786E+00    1.2509993634065870E+01    1.0321047868202957E+01
Pb    3.0572019862528927E+00   -3.0466242262746417E+00   -2.9948756729361077E+00
Pb    3.8812901441409697E+00   -8.8610769971816836E+00   -2.3514350830063377E+00
Pb   -8.1016275026000883E+00   -3.4740647034980756E+00    3.8407552648594847E+00
Pb   -1.8570884281044275E+00   -9.5072060815784312E+00   -1.8620657399407263E+00
Pb    1.7853973548630262E+00    9.1789540369300919E+00   -4.2180123766647695E+00
Pb    2.6957128449379275E+00    3.0708038927352557E+00   -3.6068986090020143E+00
Pb    3.6599853725948766E+00   -2.2787271489188141E+00    2.9323358996390914E+00
Pb    4.7191213773813496E+00   -8.0940645848885389E+00    3.3712367290339809E+00
Pb   -3.7980510687548792E+00    8.6415500852266263E+00    2.0710556493549745E+00
Pb    1.9916121812835377E+00    8.9997191957212674E+00    1.9093973779887221E+00
Pb    3.0131153280004082E+00    3.3251035654668710E+00    2.1232725124865186E+00
Pb    3.7655613401590293E+00   -1.4895858880744957E+00    8.7150081998790956E+00
Pb    4.2293490643452021E+00   -7.7060402968008637E+00    9.2104769349162172E+00
Pb   -2.8874805180002094E+00    2.8896690836739598E+00    2.6281091102054215E+00
Pb    2.8586122382972690E+00    1.0371361200923893E+01    7.8554906740185215E+00
Pb    3.1962875350921767E+00    4.5293672826734044E+00    8.8298552943364310E+00
Pb   -2.2349163109521522E+00   -2.4579443870156577E+00    9.4178563729068827E+00
Pb   -7.0360141666458231E+00   -9.2891400017436485E+00    4.2946306730495012E+00
Pb   -9.1695462801540675E+00    1.6753006754409450E+00   -3.1611922908084726E+00
Pb   -3.3576814272463560E+00   -4.5056733529394304E+00   -8.4998087135287310E+00
Pb   -1.2625369871415701E+00   -9.0854363965426312E+00    3.8044434453699099E+00
Pb   -4.0994383112476331E+00    7.6649965087746113E+00   -3.8949023639914966E+00
Pb   -1.4986678745495781E+00   -8.3596474348811434E+00    1.0071487131733953E+01
Pb   -9.0166557535079281E+00   -4.2879381410217734E+00   -1.7702739018981846E+00
Pb   -7.9039865427232776E+00   -9.9130538513780557E+00   -1.3643831187093018E+00
Pb   -3.5927799148249218E+00    2.2152532315988922E+00   -3.3914993003772409E+00
Pb   -7.5801840490602963E+00   -8.6706132468717030E+00    1.0031957604544454E+01
Pb   -9.3820376859056296E+00   -5.5809221394899948E+00   -7.7091154198355358E+00
Pb    8.6619157642268938E+00   -2.9528812134600804E+00   -8.5092582538776114E+00
Pb    9.8342927426633278E+00   -8.9241204374801413E+00   -8.4622371829147038E+00
Pb   -2.0441981185005678E+00   -1.0143499026138366E+01   -7.8795411765053309E+00
Pb   -1.0536247923844046E+01    6.4015104137085892E+00   -9.9976726011410832E+00
Pb    2.6344973276258892E+00   -4.0652288783144197E+00   -8.5414909752576680E+00
Pb    4.0084298603448376E+00   -1.0155363968577033E+01   -8.1560231489034845E+00
Pb   -3.2259552590814731E+00    1.1652264367102325E+00   -9.0550980192581605E+00
Pb    1.2703067142603082E+00    8.0837946177189153E+00   -1.0063405104318514E+01
Pb    2.3095764897639768E+00    1.9732203579310679E+00   -9.8735699016464089E+00
Pb    8.9546494439756152E+00   -2.0209032192850445E+00   -2.7350589822984417E+00
Pb    9.7577655476150866E+00   -7.9174630320381185E+00   -2.5317806101965763E+00
Pb   -7.9153786703400417E+00   -2.4848218739144712E+00    1.0105973744076611E+01
Pb    7.1258333177640276E+00    9.0844217151547113E+00   -1.0333956574538833E+01
Pb   -9.7511065360940030E+00    6.3094706577521265E-01   -8.9372485062500981E+00
Pb   -3.1263797012119978E+00    9.8317871608108334E+00    7.7426223996753016E+00
Pb    7.5974535868122981E+00    1.0152064203311632E+01   -4.1943857556411261E+00
Pb    8.5970255906306594E+00    3.9293387952313772E+00   -3.8715339461424629E+00
Pb    9.3747316474645270E+00   -1.3171551388303351E+00    2.8765603526348564E+00
Pb    1.0431361111912711E+01   -7.2671105397367013E+00    3.6316591398169651E+00
Pb    8.0174066783591886E+00    3.2149253630033181E+00   -9.8747412260057956E+00
Pb   -2.5674653121365654E+00    3.4881650268767008E+00    8.3075658939148003E+00
Pb    7.9210984239363009E+00    1.0389280030810182E+01    1.7797074630962781E+00
Pb    8.8473789729444352E+00    4.3563625714385639E+00    1.8474119448242958E+00
Pb    9.8506296679050287E+00   -1.3714153430885891E+00    9.0983538523678149E+00
Pb    1.0156399550701703E+01   -7.2956796500686023E+00    9.4093474431033162E+00
Pb    8.7787821447080407E+00    1.0394282373078045E+01    8.3707657688891857E+00
Pb    9.0885791715583295E+00    4.5448571594520679E+00    7.9785656890698133E+00
Pb   -8.6565515445941337E+00    3.5945819506692795E+00    9.1052106024869506E+00
Pb   -2.3536027058874063E+00   -2.9613346270025307E+00    3.2280291124065097E+00
Pb   -9.4314369226267747E+00    8.1139521329859541E+00    2.6049873137252533E+00
Pb   -9.9965298152211446E+00    7.5629228998974813E+00   -3.4909143961720437E+00
Pb   -8.1775639875195107E+00   -1.1251475460208191E+01   -7.1659549254712029E+00
Pb   -4.5983980782203417E+00    6.7642176995703434E+00   -9.8179867324752248E+00
Pb   -8.9005202788919178E+00    2.1339231669285872E+00    3.2399572443295739E+00
Pb   -9.0409396565632711E+00    9.4549876811825406E+00    8.5556679691670166E+00
Pb   -3.1947629681578662E+00   -3.9961931725352016E+00   -2.4992626742451765E+00
Br    1.5823787308413634E-01   -3.4601665501925654E+00   -2.5558209497289242E+00
Br    2.1831248743056633E+00   -3.3837649628402557E+00   -5.6284442174944385E+00
Br    3.4299188494640052E+00   -3.3283021436983549E-02   -3.3021136020992734E+00
Br    1.3434292348549608E+00   -9.2830277488751687E+00   -1.4750063702018452E+00
Br    4.1738393530824300E+00   -9.3377147148250756E+00   -5.2186984669061616E+00
Br    3.7316652702040782E+00   -6.1685971683162935E+00   -3.0549077959997759E+00
Br   -2.9155958653715079E+00   -4.6534373348371005E+00   -5.2955391968466037E+00
Br   -8.1545893325734813E+00   -3.2782329562669603E+00    6.9434793842277980E+00
Br   -3.2685257343359155E+00   -1.1598174629304649E+00   -3.2698807246436079E+00
Br    4.3058310348977207E+00   -1.1475478125872321E+01   -1.2877592378699247E+00
Br    1.2083123617706695E+01   -1.0988072580439798E+00    3.0148363948287749E+00
Br   -4.4880236940292724E+00   -9.3157271185578914E+00   -1.6902035815341745E+00
Br   -1.1373026420151408E+01   -3.4689023700821284E+00    4.3670072992237383E+00
Br   -8.1711626372689459E+00   -3.1670048432673776E+00    9.2709792104212818E-01
Br    1.2896170613980493E+01   -6.0888286460600414E+00    2.5914654412707852E+00
Br   -1.2052996267952401E+00    8.1568137718359193E+00   -3.7076772180422179E+00
Br    1.4547082373957190E+00    8.9485140082951684E+00   -7.3334775314513339E+00
Br    6.1416976620014851E-01    1.1639257932028350E+01   -4.3040364671476876E+00
Br   -2.1771066523469187E-01    2.7169300787465636E+00   -3.6740812328877492E+00
Br    1.8840559487091078E+00    2.4685059048738323E+00   -6.7857508144455343E+00
Br    2.3633575540399949E+00    5.9251281318243887E+00   -4.1482238923302832E+00
Br    4.5693250259323254E-01   -1.9999352720621266E+00    3.1333124888963639E+00
Br    3.0629975771083857E+00   -3.1652752238771176E+00    3.7419812042459887E-02
Br    3.2270158079288143E+00    5.5170395571860120E-01    2.0693459007992132E+00
Br    1.7928868041591404E+00   -9.3598506560034860E+00    4.1321496928433854E+00
Br    4.2212325779481228E+00   -8.0282205899294947E+00    6.9712302993545883E-01
Br    4.2332771418139084E+00   -5.1506821299725276E+00    3.5174243710669719E+00
Br   -7.4285617975525691E+00    6.9397865732135546E+00   -9.8267615709486549E+00
Br   -4.0682247637866888E+00    7.0789544377764173E+00   -1.3102115377155950E+01
Br    5.2999241059157747E+00   -1.0889528723380883E+01    3.2821092083426335E+00
Br   -4.3661722182353815E+00    9.9228742023687939E+00   -9.3490273200741445E+00
Br   -4.1100897861684746E+00    3.8547652284465901E+00   -1.0116101351623129E+01
Br   -8.2739608968605491E+00   -6.0969650002457965E-01    3.8739020097648904E+00
Br   -1.9603118217138837E+00   -9.0788064581181658E+00   -4.9293461306569251E+00
Br   -6.6432041118689682E+00    8.7949784251109193E+00    2.4108428890229470E+00
Br   -4.0658925410959901E+00    8.0076882594751542E+00   -1.0172334404665593E+00
Br   -4.3695712168540206E+00    1.1502839276227816E+01    9.1512964975476652E-01
Br   -8.0674714762574129E-01    8.3659573756802512E+00    2.2958765491293534E+00
Br    2.0876685944315927E+00    8.6012076301456144E+00   -1.3621241782369025E+00
Br    1.1055931716620013E+00    1.1964588884909821E+01    8.3367863169591638E-01
Br   -8.6852009971459171E-02    2.4433659805918837E+00    2.3749885031719962E+00
Br    2.8532371605928937E+00    3.5215744936261948E+00   -7.8340683282927548E-01
Br    2.5727660486710207E+00    6.2019189324495416E+00    1.9664480271933573E+00
Br    7.7928156438261609E-01   -1.5477350827439584E+00    9.5580877912030751E+00
Br    2.7034300795224406E+00   -1.0637061690149361E+00    5.8568542392346110E+00
Br    3.7764268601175992E+00    1.6330810353307741E+00    8.8723349595032897E+00
Br    1.2295234444544361E+00   -7.5607018036149256E+00    9.3985284972495311E+00
Br    3.9894169163180622E+00   -7.8829143534467621E+00    6.3468449588369076E+00
Br    3.8157153846191796E+00   -4.4985761610184039E+00    8.5287354537756919E+00
Br   -1.1773624619167332E+01    1.7291291626046394E+00    2.7501524238106887E+00
Br   -9.1907218429560675E+00    1.8941324633340906E+00   -6.6387139778545115E-02
Br    4.5263187273633223E+00   -1.0405580458556390E+01    9.3020343776541754E+00
Br   -9.3263998107345571E+00    5.2875904331100108E+00    3.0774128531368325E+00
Br   -8.2808618595749106E+00    2.4569070363018353E-01    9.2193487922740864E+00
Br   -2.1583973341957621E+00   -6.5616229793635972E+00   -1.5124940245868157E+00
Br   -5.9917594316243390E+00    2.6295123366246571E+00    2.2409316372224275E+00
Br   -3.2455540304717716E+00    2.3483662249561110E+00   -5.3447157862374239E-01
Br   -3.6872214384481432E+00    5.7957264012408665E+00    2.6241629402391551E+00
Br   -3.1885878902200426E-01    9.4427539090021302E+00    7.5395643489200914E+00
Br    2.6747376966831444E+00    9.7612803121027270E+00    4.5384212124950141E+00
Br    1.5494305155818893E+00    1.2910237683116391E+01    7.6436944068271773E+00
Br    2.4020864944591416E-01    4.5448709143173298E+00    8.0870229010003793E+00
Br    3.2406217616940087E+00    3.1694067458452286E+00    4.9619648361532978E+00
Br    2.8070765166323230E+00    7.3504906731077977E+00    8.2709799360329672E+00
Br   -5.1201993076267689E+00   -3.1391808919219950E+00    9.4395734894121404E+00
Br    3.8198184830700690E+00   -1.7343032787017145E+00    1.1701393195541101E+01
Br   -1.7437513772204887E+00   -2.8326592044397136E+00    6.0613963116587870E+00
Br   -2.7174497397299335E+00    3.2338783080933031E-01    8.9883038073212020E+00
Br   -2.2499464905244331E+00   -1.2302735557445025E+01   -1.6093957434584787E+00
Br    4.3541713412608853E+00   -6.8174441682034370E+00    1.1826851339068106E+01
Br   -1.2202736365832919E+01    1.3772300737871681E+00   -2.9785545865024581E+00
Br   -1.1889282242220260E+00   -1.2008404103805489E+01    3.7715957620234413E+00
Br   -1.1541454008221754E+01   -4.5973753098211860E+00   -6.2513577705687862E-01
Br    1.6815376104396145E+00    1.0672913438660370E+01    1.0743148253430586E+01
Br   -9.8118737688081517E+00   -4.5219808811707960E+00   -4.7520363556252976E+00
Br   -8.9426129855653667E+00   -1.3775461507108651E+00   -2.7122971580444051E+00
Br    2.6961329813846282E+00    5.3462574303385528E+00    1.1570978233280623E+01
Br   -7.0612396835630307E+00    7.7952350840308675E+00   -3.8120518385474176E+00
Br   -4.5617449592191459E+00    7.0587276536868444E+00   -7.1284235496937320E+00
Br   -4.4594212541131020E+00    1.0462817306918755E+01   -4.5421180630121079E+00
Br   -6.3143241065982902E+00    1.3282035691215452E+00   -3.9226241170471923E+00
Br   -9.7109809110598402E+00   -1.0193870530729926E+01    3.9548497808717427E+00
Br   -2.7765614494564153E+00    1.7540295952109437E+00   -6.2863535342872039E+00
Br   -6.2653662927434555E+00   -4.8218526298433497E+00   -8.0560983796353600E+00
Br   -3.5990757542114613E+00   -3.9583800996224667E+00   -1.1293745959844369E+01
Br   -2.7919418998533327E+00   -1.5870455263818923E+00   -8.8361180711805289E+00
Br   -1.9795928152243294E+00    3.7932601328570623E+00    1.1111922160515114E+01
Br   -4.5676480914289703E+00   -8.6335508341946205E+00    9.9852860638402507E+00
Br   -1.5681560752869561E+00   -8.5507050777955680E+00    7.0779035847790643E+00
Br   -2.0325247161691267E+00   -5.6206907667915065E+00    9.1510840030553364E+00
Br   -6.8739141455920301E+00   -9.8601320333903661E+00    1.5318430922261286E+00
Br   -8.6040819171385774E+00   -6.6225103900034359E+00    3.7958263857623398E+00
Br   -8.6885019171592219E+00    9.1019765378387518E+00    1.1208121628738967E+01
Br    1.0794698036409239E+01    1.0173239562451116E+01    1.7073898737539335E+00
Br   -7.1298802091704419E+00   -8.2512251597209101E+00    1.2976137595409501E+01
Br    1.0240654621970553E+01    1.1528195455632133E+01   -4.6013028634082485E+00
Br    1.1553153989951745E+01    4.9153291865295934E+00    1.6832451538490965E+00
Br   -7.8562564505752395E+00    4.2760556752802419E+00    1.1726883973664066E+01
Br   -1.2278837009368733E+01   -6.3194885803352827E+00   -7.3996600254008209E+00
Br    1.2486813400542738E+01   -6.7489965772562655E-01    8.1211452519458707E+00
Br   -4.2139087267414350E+00   -9.3112469509081279E+00    4.2531490591375718E+00
Br    5.9441020675060443E+00   -3.7137060363819638E+00   -7.9354892965979529E+00
Br    8.2548402334828275E+00   -3.5713599832532217E+00   -1.1566160472585150E+01
Br    1.3006824977758681E+01   -7.2453378629780891E+00    1.0172741536826431E+01
Br    7.9626697249834937E+00    3.5077311630626395E-01   -9.5001507429589225E+00
Br   -7.7848066077638078E+00   -1.1828167327008828E+01    1.0049738865302787E+01
Br   -1.6799414611021237E+00   -9.4441551846017546E+00    1.0205498824038592E+00
Br   -1.6447008491531754E+00   -5.9849774465433123E+00    3.3049194074382591E+00
Br    6.7609506653529383E+00   -9.1705432711253980E+00   -8.3347034566293434E+00
Br   -4.9766842740403883E+00   -1.0643284386298616E+01   -7.5221402283937877E+00
Br    9.1597103904892254E+00   -8.7191691327311425E+00   -1.1201781271116563E+01
Br    9.3072266049243400E+00   -5.8503371316324655E+00   -8.2942559902088799E+00
Br   -1.4971231945125880E+00   -1.1195061316883310E+01    9.9414200688613761E+00