 # Version information for this restart file 
 # current date 2021-06-17 12:40:06.433
 # current working dir /user/ub2042/exercises/2_fitting/MM_MD_workdir/md_settings.003
 # Program compiled at                              Thu Apr 22 21:44:59 EDT 2021
 # Program compiled on                cpn-k07-07-02.compute.cbls.ccr.buffalo.edu
 # Program compiled for                                                    local
 # Source code revision number                                       git:36754bb
 &GLOBAL
   PRINT_LEVEL  LOW
   PROJECT_NAME cp2k
   RUN_TYPE  MD
 &END GLOBAL
 &MOTION
   &MD
     ENSEMBLE  NVT
     STEPS  10000
     TIMESTEP     2.4999999999999996E+00
     STEP_START_VAL  6500
     TIME_START_VAL     1.6249999999999092E+04
     ECONS_START_VAL    -1.4031592531677251E+01
     TEMPERATURE     3.0000000000000000E+02
     &BAROSTAT
       PRESSURE     1.0100000000000000E+00
       TIMECON     9.9999999999999982E+03
     &END BAROSTAT
     &THERMOSTAT
       TYPE  CSVR
       &CSVR
         TIMECON     9.9999999999999982E+03
         &THERMOSTAT_ENERGY
              -1.8963286616387376E-01
         &END THERMOSTAT_ENERGY
         &RNG_INIT
Wiener process for Thermostat # 1        1 F T F  -2.3128527479914282E-01        1729520286.0         791701394.0        1751649578.0        1556234409.0        3197624234.0        4093563390.0             12345.0             12345.0             12345.0             12345.0             12345.0             12345.0             12345.0             12345.0             12345.0             12345.0             12345.0             12345.0
         &END RNG_INIT
       &END CSVR
     &END THERMOSTAT
     &AVERAGES  T
       &RESTART_AVERAGES
         ITIMES_START  1
         AVECPU     1.7519408143376179E-02
         AVEHUGONIOT     0.0000000000000000E+00
         AVETEMP_BARO     0.0000000000000000E+00
         AVEPOT    -1.4412671895320475E+01
         AVEKIN     4.8112019862381944E-01
         AVETEMP     2.4405712661755933E+02
         AVEKIN_QM     0.0000000000000000E+00
         AVETEMP_QM     0.0000000000000000E+00
         AVEVOL     6.7483345830909889E+06
         AVECELL_A     1.8897261328855731E+02
         AVECELL_B     1.8897261328855731E+02
         AVECELL_C     1.8897261328855731E+02
         AVEALPHA     9.0000000000000000E+01
         AVEBETA     9.0000000000000000E+01
         AVEGAMMA     9.0000000000000000E+01
         AVE_ECONS    -3.8445473966335344E+00
         AVE_PRESS     0.0000000000000000E+00
         AVE_PXX     0.0000000000000000E+00
       &END RESTART_AVERAGES
     &END AVERAGES
     &PRINT
       &ENERGY  SILENT
         &EACH
           MD  10
         &END EACH
       &END ENERGY
     &END PRINT
   &END MD
   &PRINT
     &TRAJECTORY  SILENT
       &EACH
         MD  10
       &END EACH
     &END TRAJECTORY
     &CELL  SILENT
       &EACH
         MD  10
       &END EACH
     &END CELL
     &VELOCITIES  SILENT
       &EACH
         MD  10
       &END EACH
     &END VELOCITIES
     &FORCES  SILENT
       &EACH
         MD  10
       &END EACH
     &END FORCES
     &RESTART  SILENT
       &EACH
         MD  10
       &END EACH
     &END RESTART
   &END PRINT
 &END MOTION
 &FORCE_EVAL
   METHOD  FIST
   &MM
     &FORCEFIELD
       VDW_SCALE14     1.0000000000000000E+00
       EI_SCALE14     1.0000000000000000E+00
       SHIFT_CUTOFF  T
       DO_NONBONDED  T
       IGNORE_MISSING_CRITICAL_PARAMS  T
       &SPLINE
         R0_NB     2.5000000000000000E-01
       &END SPLINE
       &NONBONDED
         &LENNARD-JONES
           ATOMS Br Br
           EPSILON     1.2630795322675199E+02
           SIGMA     3.6900000000000004E+00
         &END LENNARD-JONES
         &LENNARD-JONES
           ATOMS Cs Pb
           EPSILON     8.6920055954630968E+01
           SIGMA     3.6699999999999999E+00
         &END LENNARD-JONES
         &LENNARD-JONES
           ATOMS Cs Cs
           EPSILON     2.2644852172126850E+01
           SIGMA     4.5300000000000002E+00
         &END LENNARD-JONES
         &LENNARD-JONES
           ATOMS Pb Pb
           EPSILON     3.3363415533600227E+02
           SIGMA     5.9000000000000004E+00
         &END LENNARD-JONES
         &LENNARD-JONES
           ATOMS Br Cs
           EPSILON     5.3481070753900497E+01
           SIGMA     3.6300000000000003E+00
         &END LENNARD-JONES
         &LENNARD-JONES
           ATOMS Br Pb
           EPSILON     2.0528187276773045E+02
           SIGMA     2.9800000000000000E+00
         &END LENNARD-JONES
       &END NONBONDED
       &CHARGE
         ATOM Cs
         CHARGE     4.1739999999999999E-01
       &END CHARGE
       &CHARGE
         ATOM Pb
         CHARGE     8.3479999999999999E-01
       &END CHARGE
       &CHARGE
         ATOM Br
         CHARGE    -4.1739999999999999E-01
       &END CHARGE
     &END FORCEFIELD
     &POISSON
       PERIODIC  XYZ
       &EWALD
         EWALD_TYPE  SPME
         GMAX  62 62 62
         O_SPLINE  4
       &END EWALD
     &END POISSON
     &PRINT
       &FF_INFO  LOW
         SPLINE_INFO  F
         SPLINE_DATA  F
       &END FF_INFO
     &END PRINT
   &END MM
   &SUBSYS
     &CELL
       A     1.0000000000000001E+02    0.0000000000000000E+00    0.0000000000000000E+00
       B     0.0000000000000000E+00    1.0000000000000001E+02    0.0000000000000000E+00
       C     0.0000000000000000E+00    0.0000000000000000E+00    1.0000000000000001E+02
       PERIODIC  XYZ
       MULTIPLE_UNIT_CELL  1 1 1
     &END CELL
     &COORD
Cs   -7.4867229395536902E-02   -9.1618411823704415E-01   -5.1414079976612799E+00
Cs    3.6441865399761836E-01   -6.5958587029441089E+00   -5.7516522811956570E+00
Cs    9.6555647868982097E-01   -1.1476420566425679E+01   -4.1679392655001077E+00
Cs   -6.1043483682764057E+00   -6.9670554873622423E+00   -4.8022492235926544E+00
Br   -7.7157609753007748E+00   -1.4114282840805203E+01   -7.0516008117546587E+00
Br    1.1408327698006598E+01   -2.1136455040675006E+00   -9.0477348381081093E+00
Br   -4.6853769264465601E+00    9.4511329554146206E-01   -1.1809817113128871E+01
Cs   -1.7409588248342283E+00    5.6295177376934484E+00   -6.2993928496117100E+00
Cs    1.7037022435712512E-01   -6.2311661146804240E-02    2.5881746870046803E-02
Cs    4.8409865969892846E-01   -5.7776262350183138E+00    2.8371178165398975E-01
Br   -5.4196332895914425E+00   -3.3438357114936319E+00    3.8208244184831650E+00
Cs   -1.0209019877077369E+01   -5.3400617948028541E+00    1.2703788837514091E+01
Cs    1.2927018899712619E+01   -1.0866578199567716E+01   -6.0789011371893187E-01
Cs   -6.2993640720399817E+00    4.6199746485490572E+00    4.5217800376442248E-02
Cs   -8.0928891293624972E-01    1.1955962058089618E+01   -4.4677669171967932E-01
Cs   -1.7036793734882194E-01    6.2160440388598408E+00   -3.9723772428562737E-01
Cs    6.4218593590649364E-01    6.2803054436213224E-01    6.2357569560261688E+00
Cs    1.6575688042007548E+00   -4.8415550716126941E+00    6.4383621799897615E+00
Cs    1.6612638163010223E+00   -1.1144479658313974E+01    9.2083914224158576E+00
Cs   -5.5422182747610664E+00    6.5587794095440941E+00    1.0380910099128977E+01
Cs   -6.7479998427711054E+00   -2.5527663705492909E+00   -1.1769013681298487E+01
Cs   -4.7123813748627983E+00   -1.2862240512022007E+01   -4.6580832388208080E+00
Cs   -4.4282604156069558E+00    2.4836540540665222E-01    6.3963854984517008E+00
Br   -2.0061303663199337E+00   -3.3536972479895293E+00    3.8070119011314996E-01
Cs   -5.7530148497429534E-01    6.4255218219956927E+00    5.1289973076194890E+00
Br    1.2363273403626284E+01   -7.4224608351468415E+00   -8.9245123523355172E+00
Cs    1.3121126669475849E+00   -4.8959245562277056E+00    1.2065802375795361E+01
Br   -2.3880444927645978E+00    1.7171384818288879E-01    2.5947192135481485E+00
Br   -7.9270095100870277E+00   -2.6931224945798680E+00    1.2030044311096717E+01
Cs    9.4585638053286623E+00    1.1798458446781352E+01   -7.0812716078809599E+00
Cs   -9.8158281818589934E+00   -5.9676331563332958E+00    7.1418908053847261E+00
Cs   -4.5934587583823925E+00   -5.3032551602648637E+00    6.5710079382475959E+00
Cs   -7.0346197742376662E+00    9.7170188819487020E+00   -6.9965236170514169E+00
Br   -1.0872720496894527E+01   -9.1919332060364063E+00    1.1197490162181344E+01
Br   -8.0421284191319362E+00   -9.2506880002689726E+00    7.7743850203672187E+00
Cs   -1.0696135018922121E+01   -7.5077508087031655E+00   -4.1285643737063449E+00
Cs   -6.7429121410983077E+00    4.3038478042835298E+00   -6.3647305089260620E+00
Br   -7.8253442887128415E+00   -5.7711072177837561E+00    9.8517703252159645E+00
Cs    1.0735376472557979E+01    7.0003575605167327E+00    1.0633466472745305E+01
Br   -1.1890575139317432E+01    8.3966315271939216E+00    8.1304293344212759E+00
Br   -5.5401810236185227E+00   -4.0480351920044644E+00   -2.2055754611628449E+00
Cs    4.1649734346370915E-01    1.7750173313925348E+00    1.1477345630809445E+01
Cs    1.1492272843392637E+01    5.9668698017322086E+00   -1.4169870513583129E+00
Cs   -1.1995473103367313E+01   -8.0015173801663853E+00   -8.8800257613395086E+00
Cs    1.2121403236129144E+01    1.5355623562993306E+00    6.3791110842165679E+00
Cs   -1.3510615477438298E+01    9.5010805738982587E+00   -7.0774364606387605E+00
Cs    1.2328345574674540E+01   -1.0742329936609943E+01    6.7536959383048609E+00
Cs    5.8022423357856105E+00   -5.7500707023524527E+00   -1.1387921424436552E+01
Cs    6.5238143880928412E+00   -1.0055934794238997E+01    6.5638917184049816E+00
Cs   -3.8714887338673929E+00   -1.1735920261508550E+01    5.8576712367321093E-01
Cs    6.5736679446544573E+00   -1.0629434189005625E+01   -1.1513088247292671E+01
Cs    1.0590235178974199E+01    6.4041131928736732E+00   -7.0354395485498511E+00
Cs    1.0916527691994865E+01    1.2647410511567509E+01    5.2267686237500532E+00
Cs    1.0698256272806200E+01    6.1567899187828052E+00   -1.1664547953119714E+01
Cs    3.0332455252184232E-01   -6.6618711289431660E+00   -1.0980994427105657E+01
Cs   -1.1155703132831194E+01   -2.2481258661981749E+00   -4.9860392703956880E+00
Cs    6.6518139814869093E+00   -3.8032995607927074E+00    1.1586900157336636E+01
Cs    1.2872505484332935E+01   -4.5041409397012444E+00    6.5230001208971755E+00
Cs   -1.0662743944067726E+01   -1.0148500649647161E+01    1.4499144653210932E+01
Cs   -1.9965833901619503E+00   -8.3280558673304583E-01   -1.1726878203888504E+01
Cs   -2.6925326427780077E-01    1.2637507427009533E+01    4.2369587837427964E+00
Cs   -1.5146622791977733E+00    4.7111837955385614E+00   -1.1876802393591479E+01
Cs    5.4725598988661561E+00   -4.0402001180467037E-02   -6.2060549474355797E+00
Cs    6.3265102038575360E+00   -5.4042674259532593E+00   -5.0239498137901659E+00
Cs   -4.4911967988162900E+00   -1.1176292705876898E+01    6.9580932427918984E+00
Cs   -1.1491621410639613E+01    1.4471646323697654E-01    6.5386076066810856E+00
Cs    4.4277793558433611E+00    4.3216639577566202E-01   -1.2356982020278112E+01
Cs    4.3275286306431902E+00    1.1542298689997383E+01   -1.2209003600946321E+01
Cs    3.7494137909752251E-01    7.0769466077038912E+00    1.0904882457499090E+01
Cs   -6.8795285505635224E+00    1.2053211620356766E+01    4.5157405079919766E+00
Cs    3.9735478045111732E+00    1.0761649538823791E+01   -7.1940329757577368E+00
Cs    4.0782511346922954E+00    4.6212402269498609E+00   -6.2104467545844226E+00
Cs    5.8887300469551453E+00    3.1341352289076779E-01    1.4673962374661157E-03
Cs    6.9087047262187111E+00   -4.9928096726126006E+00    5.8190923483428647E-01
Cs    8.3890974427014022E+00   -1.0867214680798186E+01    7.4479412016123148E-01
Cs    4.3617933217056377E+00    5.0486638318458743E+00   -1.1610236474535503E+01
Cs   -6.2090537402757580E+00    5.9522251294003405E+00    5.5052052771131894E+00
Cs   -5.9100750590932165E+00   -7.7786287072974947E+00   -1.0796785144892967E+01
Cs    4.8803295290856878E+00    6.2637062901647313E+00   -7.0160065630275037E-01
Cs    6.4139507465248906E+00    6.4051217922013270E-01    5.8878517449932666E+00
Cs    6.7995199824610024E+00   -4.6390163086139991E+00    6.3068641763071085E+00
Cs   -7.3968769551263351E+00    1.0897269747795384E+01   -4.2085035198458975E-01
Cs    1.1677695676848479E+01    6.1632820918893461E-01   -9.6886430731380246E-01
Cs   -5.6274527185876009E+00   -7.9323725268182918E-02    7.4413028288283845E-01
Cs   -1.1625214816158060E+01    5.0167874154477730E+00    4.9580218423162741E+00
Cs   -5.3599617366897547E+00   -1.3032180349172498E-01    1.1794949411726325E+01
Cs    6.1070240264016142E+00    1.2778953846645344E+01    4.2346117544503388E+00
Cs    6.4029100725246462E+00    7.1451489939521871E+00    5.5653612717754122E+00
Cs    6.9947073977037215E+00    1.5442091472899639E+00    1.0807464599506851E+01
Cs    3.9711812386358170E+00    1.2296449074752545E+01   -1.7844634374411439E+00
Cs    1.1360799325652840E+01    7.7765436554866141E-01   -5.7267231053443091E+00
Cs    1.2094227730180323E+01   -5.8425405694703869E+00   -5.4825477339968138E+00
Cs    7.1095353331837075E+00   -8.7925452325984494E+00    1.2289033396674375E+01
Cs    1.0346920882657967E+01    1.2801393421010840E+01   -8.9807664767322604E-01
Cs   -1.1456941098288583E+01    6.6007769249122337E+00    1.1081937578951452E+01
Cs   -7.1388582265076641E+00    3.6180773071151471E+00   -1.1775948847131831E+01
Cs   -1.3313678838125101E+01    9.4803487012174674E+00   -1.2888945980305766E+00
Cs   -4.6677756349400861E+00   -5.0495855495016464E+00    1.2180201843077084E+01
Cs   -4.4707367688779822E+00   -9.7209055365941293E+00    1.3421338946446493E+01
Cs    5.9311877208053954E+00    7.2927994113965999E+00    1.0031993535108331E+01
Cs    1.2966754007122322E+01   -5.1632078448911045E+00    2.6602563588287820E-01
Cs   -1.1757836773980548E+01   -9.8808670936192278E-01    4.1282220629551974E-01
Cs   -7.7499357337781545E+00    8.7623411577621653E+00   -1.3166841430714134E+01
Cs   -1.2095224355188321E+01    4.6521495675826463E+00    7.0906647789752045E-02
Cs   -8.8202736599446769E+00   -1.3886282954307234E+01   -3.4576674768597710E+00
Cs   -1.0852523299268418E+01   -7.3841425339409792E+00    1.0767055580608835E+00
Cs   -5.0416452724853835E+00   -6.1443310264588273E+00    1.2403084809714182E+00
Cs   -9.6961238218194232E+00   -1.2317137709977180E+01    7.8641452201079387E+00
Cs    1.1954226303624976E+01   -3.9163945349543718E+00    1.1393496333173818E+01
Cs    1.1057622323533984E+01    7.1296556149855697E+00    4.7882126087925370E+00
Cs   -1.2595031754302575E+01    3.3579250785409074E+00   -5.5243659812611261E+00
Cs   -5.8024710914467228E+00   -1.2300355387843049E+00   -5.9874892606277079E+00
Cs   -9.4602834565294618E+00   -1.2847991657609883E+01    1.9844228318712456E+00
Cs    1.1028763188161824E+01   -5.5559450168576250E+00   -1.1441638896593183E+01
Cs   -5.2237636460975985E+00   -1.3560241566206310E+01   -1.0226136391509138E+01
Cs   -2.2432706914942764E+00    9.5317197567888954E+00   -1.2773351991267987E+01
Cs    1.5781837180658909E+00   -1.4169678627561007E+01   -1.0102803885810664E+01
Cs   -1.9909597344340606E+00    1.0793652358218552E+01   -6.8646037512090139E+00
Cs   -6.0081607208583510E+00    1.2024381246967318E+01    9.2945747258576059E+00
Cs    1.9586079942609846E+00   -1.0769676797328643E+01    6.7039326812528932E-01
Cs   -1.2130459299458563E+01   -3.0552498833532735E+00   -1.0697590715606346E+01
Cs   -1.2406617504978438E+01    1.0411953683344283E+01    5.0898163396674896E+00
Cs    8.2330618114134033E+00   -1.1194297304031354E+01   -5.7714134541317357E+00
Cs    1.0844829432602369E+01    8.5756598740146517E-01   -1.1175700510221338E+01
Cs    3.7099680698583015E-01    1.3304595116588454E+01    8.8884058156274648E+00
Pb    3.1845202247751216E+00   -3.2218565630193470E+00   -2.6436091986064056E+00
Pb    4.5083693745509397E+00   -8.8523066699163806E+00   -2.3543689010121964E+00
Pb   -8.3074717365750406E+00   -3.4774947603504649E+00    3.7736843382695255E+00
Pb   -1.9403513678293103E+00   -8.8562432834408469E+00   -2.1375963534650704E+00
Pb    1.7775761035240649E+00    8.7398639641544662E+00   -4.1994724434149999E+00
Pb    1.9545082884616760E+00    2.5392672495291646E+00   -3.4214908057051829E+00
Pb    3.7812830102592319E+00   -2.1318789606142663E+00    3.1034630493180355E+00
Pb    4.3633687007164532E+00   -8.0388397129157791E+00    3.5432261129213933E+00
Pb   -3.8070153251859717E+00    9.0004009646482803E+00    2.1476726514457933E+00
Pb    2.1511665836258422E+00    9.4899687277411431E+00    1.4764833678708953E+00
Pb    2.9602079593566786E+00    3.9205184766854049E+00    2.2614652959284336E+00
Pb    3.8223212521595884E+00   -1.4978067783859175E+00    9.0397831180591748E+00
Pb    3.6789767680652981E+00   -7.7804644130112681E+00    9.6354522768155668E+00
Pb   -2.6676893749355060E+00    3.0157075555173205E+00    2.5587823451916449E+00
Pb    2.7219187797945001E+00    1.0008746729590372E+01    7.1194474214628887E+00
Pb    3.2939539849369330E+00    4.2431260519035465E+00    8.2627130579068488E+00
Pb   -2.0833172891230802E+00   -1.8673724606467261E+00    9.0299371597266891E+00
Pb   -7.9344053484618016E+00   -9.4484455378565553E+00    4.6674612622436795E+00
Pb   -9.5876147636009836E+00    1.6133646881466159E+00   -2.7565613528971271E+00
Pb   -2.9498405371379803E+00   -4.5351652303179151E+00   -8.4905482115105251E+00
Pb   -1.6946817642956342E+00   -8.7570499079349862E+00    3.9585502499255831E+00
Pb   -4.4497916927714671E+00    8.8540498562570402E+00   -3.8082715108618004E+00
Pb   -2.0578171017732227E+00   -7.7919469897475224E+00    9.6244924291732126E+00
Pb   -8.2925766314065381E+00   -4.1548917437583111E+00   -2.1837732346041454E+00
Pb   -7.5287542965610967E+00   -1.0116176055862665E+01   -1.4346049565476173E+00
Pb   -3.8173442708405445E+00    2.7965997159054816E+00   -3.3109928721840847E+00
Pb   -7.9656111699999430E+00   -8.5383620814263974E+00    1.0801388082352293E+01
Pb   -8.8370549502917033E+00   -5.3634876803251723E+00   -8.0782639782177394E+00
Pb    8.5562721033937201E+00   -2.7722993610071827E+00   -9.1061037155990956E+00
Pb    9.7099730066467291E+00   -8.4767623507403478E+00   -9.2086750488447251E+00
Pb   -2.2083531358572901E+00   -1.0715068914931170E+01   -8.0032941926524490E+00
Pb   -1.0629876013492042E+01    6.4712227304596439E+00   -9.5774155246266321E+00
Pb    2.6901380270113151E+00   -3.2366378569571146E+00   -8.6194370636170365E+00
Pb    3.8337870751614362E+00   -9.0446740488564874E+00   -8.8340730049906337E+00
Pb   -4.3432228970861901E+00    1.4563675316668911E+00   -8.9748659606157659E+00
Pb    1.3536852040432912E+00    8.4137651267388147E+00   -1.0027963693093586E+01
Pb    1.4773499792853835E+00    2.3021776487550905E+00   -9.2886698913642327E+00
Pb    9.4111344909144687E+00   -2.5580333450073236E+00   -3.3693418111638720E+00
Pb    1.0229230285698911E+01   -8.3213075639878280E+00   -2.8382590190328481E+00
Pb   -8.0592411658317573E+00   -2.7167089280012400E+00    9.3064517835360068E+00
Pb    7.4206958730757515E+00    8.7517692484456546E+00   -9.8325656541234530E+00
Pb   -1.0268490597001657E+01    8.0857365330801856E-01   -8.4014986145854849E+00
Pb   -3.2838237385874698E+00    9.7733126394279566E+00    7.9305566634434372E+00
Pb    8.3622479700171013E+00    9.4579007385127358E+00   -3.7127614587955970E+00
Pb    8.0448607392211482E+00    3.3037859352194636E+00   -3.7203162631883728E+00
Pb    9.5544120867620563E+00   -2.1928611806869287E+00    2.8726666393907636E+00
Pb    1.0202229781813674E+01   -8.2687240709303307E+00    3.2835760788022990E+00
Pb    7.6803020000377122E+00    2.9544147176147173E+00   -9.2537921714831040E+00
Pb   -2.7826931928320140E+00    3.9145521577279392E+00    8.5197743316347907E+00
Pb    8.2208268105937847E+00    9.8530372042364167E+00    1.9003119748541075E+00
Pb    8.9633760764834545E+00    3.8191389542522143E+00    1.9914903698514745E+00
Pb    9.8489266649025211E+00   -1.3318060905412727E+00    8.7491607679091690E+00
Pb    9.8757894066004237E+00   -7.5765899823458742E+00    9.1490034507174904E+00
Pb    8.9748011317795626E+00    1.0413752611285842E+01    8.2752819147533021E+00
Pb    9.0030881581618818E+00    4.4398274325364895E+00    8.0397084359176905E+00
Pb   -8.6760663667529005E+00    3.0944259505689886E+00    9.1342091484487771E+00
Pb   -2.2050134608253003E+00   -2.7672456757995016E+00    3.3735089625114991E+00
Pb   -9.5549635287291075E+00    8.2991954298044597E+00    2.3639168033201199E+00
Pb   -1.0160945509966952E+01    7.7349281142078361E+00   -3.4190487529933056E+00
Pb   -8.2907163553794447E+00   -1.1365796374550781E+01   -7.6475682303994041E+00
Pb   -4.3154805108357515E+00    7.5136319468108521E+00   -1.0062036658555634E+01
Pb   -8.6313310223956528E+00    2.5092485709486190E+00    3.1422548031589921E+00
Pb   -9.0796561370824627E+00    9.2089607207752504E+00    7.9861960767518596E+00
Pb   -2.8155362790326719E+00   -3.3468787754595595E+00   -2.7375367528774035E+00
Br    2.8032305699316945E-01   -3.5854149815877174E+00   -2.5826964985114866E+00
Br    2.1007527403285757E+00   -3.2559834402701680E+00   -5.3293633206952364E+00
Br    2.3946405717687225E+00   -3.9762365646895370E-01   -2.8360503189914272E+00
Br    1.3769170166287945E+00   -8.3708893364744466E+00   -2.2474588426512900E+00
Br    3.7561650478513586E+00   -8.6937811397237592E+00   -5.3123590580818618E+00
Br    4.1430414336241519E+00   -5.9050142548691049E+00   -2.4431066958913701E+00
Br   -3.1169698755196849E+00   -3.7886388210318254E+00   -5.7745942561407801E+00
Br   -7.6482007172584545E+00   -3.3551553505701839E+00    6.5593995707806592E+00
Br   -2.6451895199021469E+00   -2.5190642052752799E-01   -2.6138808570663965E+00
Br    5.2967189950166995E+00   -1.1712738882708233E+01   -1.6379019933519039E+00
Br    1.2337360775579933E+01   -2.1019749238221332E+00    2.3634668035928752E+00
Br   -4.9737753713057247E+00   -9.2788333535867711E+00   -2.2173703968166425E+00
Br   -1.1174536943005105E+01   -4.6619506306365244E+00    3.1661516331234254E+00
Br   -8.1019174602923663E+00   -3.7502828051652002E+00    9.8281202776422671E-01
Br    1.3184897113351326E+01   -7.7545631302891191E+00    3.1744871290317174E+00
Br   -1.2688069835636435E+00    8.5891304018993182E+00   -4.1042818483600962E+00
Br    1.1490525952253163E+00    8.9264107322479038E+00   -7.0603325608013261E+00
Br    1.6499036767274591E+00    1.2032708548339501E+01   -4.3865548930060934E+00
Br   -7.2855621189008302E-01    3.4603002335787232E+00   -2.9422705367650877E+00
Br    1.3801911820724384E+00    2.2262423221814465E+00   -6.2447077635979964E+00
Br    2.7479578002552905E+00    5.8603403908638318E+00   -3.3326659653319015E+00
Br    9.2400400976344577E-01   -2.7657227985547590E+00    3.2757172524614662E+00
Br    3.6880110725003621E+00   -2.7480698247637942E+00    2.3236502387706498E-01
Br    3.2915455171948507E+00    6.3975578079520812E-01    3.0039472712914650E+00
Br    9.7502716071171325E-01   -8.1985286330729057E+00    3.6765699584191127E+00
Br    4.0695901887405226E+00   -8.2787976148943354E+00    6.3096660647228686E-01
Br    4.1954412405768222E+00   -5.1766608253590656E+00    3.4200266277441345E+00
Br   -7.2582352922193545E+00    6.7551152727116461E+00   -9.6311873400601566E+00
Br   -4.3925393061344860E+00    6.8505106498239208E+00   -1.2662468427004796E+01
Br    4.5290833439385185E+00   -1.0887919465211391E+01    3.9772067418437778E+00
Br   -4.5674312446769845E+00    1.0339051963231181E+01   -1.0633633531778411E+01
Br   -4.2750053901683813E+00    4.6055768806608910E+00   -8.8912725408856588E+00
Br   -8.8542568945477473E+00   -4.8062713744625379E-01    3.1385075807188252E+00
Br   -2.2552120745941515E+00   -9.4647922752135596E+00   -5.1477140463062758E+00
Br   -6.6821592245291992E+00    7.6530938702788793E+00    2.2484150864009567E+00
Br   -4.0376255670836203E+00    8.6959577788795617E+00   -9.6920269545992754E-01
Br   -4.3186228611148199E+00    1.1854700121802525E+01    2.1502327412666657E+00
Br   -1.0366026509425899E+00    9.0930880598853125E+00    1.6139510606150442E+00
Br    1.8876397940208129E+00    9.2955031233553846E+00   -1.2534839271130180E+00
Br    2.0982784336996367E+00    1.2382165584389403E+01    1.1660651022268631E+00
Br    2.0661361039749121E-01    3.4808975949882304E+00    2.1064451661446917E+00
Br    2.4262425917323029E+00    2.5373811798661419E+00   -6.6976509046956223E-01
Br    2.2705099456112721E+00    6.6910298142908120E+00    1.8435340491087266E+00
Br    8.0233076310341667E-01   -2.2551647530542107E+00    8.5087109140707504E+00
Br    4.4325752582056523E+00   -2.1700716798270920E+00    6.0446854904167839E+00
Br    3.4421042311858092E+00    1.1765556203052112E+00    8.6342495747810926E+00
Br    7.8873471691564589E-01   -7.9374563504758244E+00    9.8858399725422785E+00
Br    3.4994601241726948E+00   -7.4726672212359286E+00    6.6836992775968431E+00
Br    4.0114809596850476E+00   -4.3837255465436744E+00    9.1799110542439237E+00
Br   -1.1516605848204783E+01    2.1595006664289373E+00    3.3849754942042938E+00
Br   -9.3478277437929833E+00    1.9444671113665886E+00    3.0288985538110624E-01
Br    4.6782747775924873E+00   -1.0213558842827659E+01    1.0260528571808631E+01
Br   -9.3232930646189782E+00    5.1467384879566014E+00    2.1924214147159597E+00
Br   -8.7734588373513152E+00    3.5785898785586462E-01    8.8010684882660204E+00
Br   -2.6801258731352577E+00   -6.3227153834118575E+00   -3.0448237780234182E+00
Br   -5.7950409211669074E+00    2.6415607175497984E+00    2.7405547385045561E+00
Br   -3.6422969566336558E+00    2.6660930082941525E+00   -2.8224804921502844E-01
Br   -3.2246377745644033E+00    5.8365656643667663E+00    2.7489654479530667E+00
Br   -1.2409120728733564E-01    9.5419570033458783E+00    7.8205903087725570E+00
Br    1.5323751429655268E+00    9.8197858640983835E+00    4.2754537008147651E+00
Br    2.5893755771147484E+00    1.3011343038776673E+01    6.3993038576851760E+00
Br    2.4215072757107306E-01    4.0150990908057427E+00    8.5151995431474461E+00
Br    3.4024557364715098E+00    4.1792506047323803E+00    5.0099274825099007E+00
Br    3.3491015229039087E+00    7.2084613627887597E+00    7.7482595380827828E+00
Br   -4.8474994507134515E+00   -2.7428886056255291E+00    9.8129147967603281E+00
Br    3.1342609923575426E+00   -1.5950790081134285E+00    1.1609909641771310E+01
Br   -2.2383030338107375E+00   -2.2020498587983810E+00    6.0637829596164012E+00
Br   -1.7679808919017730E+00    9.8317636135002096E-01    8.4791604224961681E+00
Br   -9.2260507870207675E-01   -1.1502007099144175E+01   -1.5893817181568415E+00
Br    4.1265352564757798E+00   -7.1749824719492459E+00    1.2441069017244487E+01
Br   -1.2007561155264852E+01    5.5102753730333776E-01   -2.3935037450873033E+00
Br   -1.7955942015492969E+00   -1.1301745721882758E+01    3.4163058286765722E+00
Br   -1.1191518422103830E+01   -4.7574584636740251E+00   -2.1004041159643418E+00
Br    2.7644257583568330E+00    1.0840557620084859E+01    9.9942533798885957E+00
Br   -8.6012636713693862E+00   -4.4940258389838261E+00   -5.1032584263693455E+00
Br   -8.5064092845566446E+00   -1.2458505273391163E+00   -2.3576075758425397E+00
Br    3.3959115409745864E+00    4.3838894458046997E+00    1.1179806655168976E+01
Br   -7.5503433702705127E+00    8.6862801497987281E+00   -3.9372362870866389E+00
Br   -4.1702774941578618E+00    8.0414621511450441E+00   -7.2612253909052775E+00
Br   -4.7476060838414940E+00    1.1814240037233622E+01   -5.1580822395234049E+00
Br   -6.6278607798902813E+00    2.1541868773726023E+00   -3.2917688541163841E+00
Br   -1.0546313233208044E+01   -9.7582562706726996E+00    3.9173241173693132E+00
Br   -4.2700449653825832E+00    2.0659562318725353E+00   -6.1193139678500872E+00
Br   -5.8319212169350978E+00   -5.4122409657660242E+00   -8.2790563097198877E+00
Br   -3.5069785326526928E+00   -4.2137411678910590E+00   -1.1342359840196114E+01
Br   -3.6300815863564826E+00   -1.2966658993579026E+00   -8.5197345435528042E+00
Br   -2.0580078131654664E+00    4.7361354023784106E+00    1.1304637570020477E+01
Br   -4.8324699295696227E+00   -8.0158511408698629E+00    1.0348399911404144E+01
Br   -1.8102626652245706E+00   -8.3269792445401354E+00    6.9581349458988226E+00
Br   -1.8467454188854091E+00   -4.8034334251939805E+00    9.4498030809060900E+00
Br   -7.9878330340965746E+00   -9.4785069686939512E+00    1.4752193156533107E+00
Br   -8.2090786955776753E+00   -6.4211636626347675E+00    4.1620298104458344E+00
Br   -8.2512462523242931E+00    9.3977371168266224E+00    1.1005671531890815E+01
Br    1.1100492662130907E+01    1.0608084326821453E+01    2.2126913348809776E+00
Br   -7.3020888308171621E+00   -7.3396553454140250E+00    1.3455359109851488E+01
Br    1.0997373872558645E+01    8.9707501986070692E+00   -5.0884639644177883E+00
Br    1.2034959255495441E+01    4.2133554195334799E+00    1.7778846801277153E+00
Br   -7.6890195766869196E+00    3.8421541968968582E+00    1.1723522568739412E+01
Br   -1.1636428219475839E+01   -5.1996238974355027E+00   -7.5139823696350456E+00
Br    1.2517421614921380E+01   -1.3707884944319872E+00    8.3620260820351167E+00
Br   -4.8908707628091719E+00   -8.8287317337502902E+00    4.7360042670087461E+00
Br    5.3675782225234050E+00   -2.9471825423259945E+00   -8.8233865903050273E+00
Br    8.8724688042641358E+00   -3.1851265141315701E+00   -1.2144788446646229E+01
Br    1.2632359384013240E+01   -7.1227703929994757E+00    9.0199918653554469E+00
Br    7.5985427784993904E+00    2.9564487297135476E-02   -9.0825867933980327E+00
Br   -7.6216687239475132E+00   -1.1631565583012202E+01    1.1004084829182995E+01
Br   -1.8049303256893598E+00   -8.3701125433741108E+00    5.2800387709632757E-01
Br   -2.3039800837286788E+00   -5.7285429253429010E+00    4.1662271565847471E+00
Br    6.8247562178835244E+00   -9.1646931425132223E+00   -8.5492393059985883E+00
Br   -5.2857994198722320E+00   -1.1462755064659513E+01   -7.7032937619213788E+00
Br    9.0288109453714220E+00   -7.9132971803624539E+00   -1.1818460471024311E+01
Br    8.2332081155874359E+00   -5.7690130999632254E+00   -8.7501861267447207E+00
Br   -2.2524253091073234E+00   -1.0829150456102019E+01    9.5607874558151771E+00