 # Version information for this restart file 
 # current date 2021-06-17 12:39:04.846
 # current working dir /user/ub2042/exercises/2_fitting/MM_MD_workdir/md_settings.003
 # Program compiled at                              Thu Apr 22 21:44:59 EDT 2021
 # Program compiled on                cpn-k07-07-02.compute.cbls.ccr.buffalo.edu
 # Program compiled for                                                    local
 # Source code revision number                                       git:36754bb
 &GLOBAL
   PRINT_LEVEL  LOW
   PROJECT_NAME cp2k
   RUN_TYPE  MD
 &END GLOBAL
 &MOTION
   &MD
     ENSEMBLE  NVT
     STEPS  10000
     TIMESTEP     2.4999999999999996E+00
     STEP_START_VAL  3000
     TIME_START_VAL     7.4999999999997844E+03
     ECONS_START_VAL    -1.4031592531677251E+01
     TEMPERATURE     3.0000000000000000E+02
     &BAROSTAT
       PRESSURE     1.0100000000000000E+00
       TIMECON     9.9999999999999982E+03
     &END BAROSTAT
     &THERMOSTAT
       TYPE  CSVR
       &CSVR
         TIMECON     9.9999999999999982E+03
         &THERMOSTAT_ENERGY
              -9.9919183888483587E-02
         &END THERMOSTAT_ENERGY
         &RNG_INIT
Wiener process for Thermostat # 1        1 F T F  -5.1494578375668887E-01        2852707072.0        1655590670.0        2178748249.0        1152806409.0         513555522.0         278426018.0             12345.0             12345.0             12345.0             12345.0             12345.0             12345.0             12345.0             12345.0             12345.0             12345.0             12345.0             12345.0
         &END RNG_INIT
       &END CSVR
     &END THERMOSTAT
     &AVERAGES  T
       &RESTART_AVERAGES
         ITIMES_START  1
         AVECPU     1.7411523407325182E-02
         AVEHUGONIOT     0.0000000000000000E+00
         AVETEMP_BARO     0.0000000000000000E+00
         AVEPOT    -1.4441835250605502E+01
         AVEKIN     4.5365976504671296E-01
         AVETEMP     2.3012731337406942E+02
         AVEKIN_QM     0.0000000000000000E+00
         AVETEMP_QM     0.0000000000000000E+00
         AVEVOL     6.7483345830901479E+06
         AVECELL_A     1.8897261328855848E+02
         AVECELL_B     1.8897261328855848E+02
         AVECELL_C     1.8897261328855848E+02
         AVEALPHA     9.0000000000000000E+01
         AVEBETA     9.0000000000000000E+01
         AVEGAMMA     9.0000000000000000E+01
         AVE_ECONS    -3.6576620821925783E+00
         AVE_PRESS     0.0000000000000000E+00
         AVE_PXX     0.0000000000000000E+00
       &END RESTART_AVERAGES
     &END AVERAGES
     &PRINT
       &ENERGY  SILENT
         &EACH
           MD  10
         &END EACH
       &END ENERGY
     &END PRINT
   &END MD
   &PRINT
     &TRAJECTORY  SILENT
       &EACH
         MD  10
       &END EACH
     &END TRAJECTORY
     &CELL  SILENT
       &EACH
         MD  10
       &END EACH
     &END CELL
     &VELOCITIES  SILENT
       &EACH
         MD  10
       &END EACH
     &END VELOCITIES
     &FORCES  SILENT
       &EACH
         MD  10
       &END EACH
     &END FORCES
     &RESTART  SILENT
       &EACH
         MD  10
       &END EACH
     &END RESTART
   &END PRINT
 &END MOTION
 &FORCE_EVAL
   METHOD  FIST
   &MM
     &FORCEFIELD
       VDW_SCALE14     1.0000000000000000E+00
       EI_SCALE14     1.0000000000000000E+00
       SHIFT_CUTOFF  T
       DO_NONBONDED  T
       IGNORE_MISSING_CRITICAL_PARAMS  T
       &SPLINE
         R0_NB     2.5000000000000000E-01
       &END SPLINE
       &NONBONDED
         &LENNARD-JONES
           ATOMS Br Br
           EPSILON     1.2630795322675199E+02
           SIGMA     3.6900000000000004E+00
         &END LENNARD-JONES
         &LENNARD-JONES
           ATOMS Cs Pb
           EPSILON     8.6920055954630968E+01
           SIGMA     3.6699999999999999E+00
         &END LENNARD-JONES
         &LENNARD-JONES
           ATOMS Cs Cs
           EPSILON     2.2644852172126850E+01
           SIGMA     4.5300000000000002E+00
         &END LENNARD-JONES
         &LENNARD-JONES
           ATOMS Pb Pb
           EPSILON     3.3363415533600227E+02
           SIGMA     5.9000000000000004E+00
         &END LENNARD-JONES
         &LENNARD-JONES
           ATOMS Br Cs
           EPSILON     5.3481070753900497E+01
           SIGMA     3.6300000000000003E+00
         &END LENNARD-JONES
         &LENNARD-JONES
           ATOMS Br Pb
           EPSILON     2.0528187276773045E+02
           SIGMA     2.9800000000000000E+00
         &END LENNARD-JONES
       &END NONBONDED
       &CHARGE
         ATOM Cs
         CHARGE     4.1739999999999999E-01
       &END CHARGE
       &CHARGE
         ATOM Pb
         CHARGE     8.3479999999999999E-01
       &END CHARGE
       &CHARGE
         ATOM Br
         CHARGE    -4.1739999999999999E-01
       &END CHARGE
     &END FORCEFIELD
     &POISSON
       PERIODIC  XYZ
       &EWALD
         EWALD_TYPE  SPME
         GMAX  62 62 62
         O_SPLINE  4
       &END EWALD
     &END POISSON
     &PRINT
       &FF_INFO  LOW
         SPLINE_INFO  F
         SPLINE_DATA  F
       &END FF_INFO
     &END PRINT
   &END MM
   &SUBSYS
     &CELL
       A     1.0000000000000001E+02    0.0000000000000000E+00    0.0000000000000000E+00
       B     0.0000000000000000E+00    1.0000000000000001E+02    0.0000000000000000E+00
       C     0.0000000000000000E+00    0.0000000000000000E+00    1.0000000000000001E+02
       PERIODIC  XYZ
       MULTIPLE_UNIT_CELL  1 1 1
     &END CELL
     &COORD
Cs   -7.3488981189751959E-02   -6.0281568094693327E-01   -6.1596235984273271E+00
Cs   -5.0948994823576321E-01   -6.3709885307762972E+00   -5.9277079970921962E+00
Cs    4.5568431458622505E-01   -1.1530690604968525E+01   -5.1852825176136976E+00
Cs   -5.9598497722703652E+00   -6.6468308509176053E+00   -5.7052863410864205E+00
Br   -1.0156662903311791E+01   -1.2536940256435143E+01   -8.0628195304573520E+00
Br    1.1829303331554485E+01   -1.8228435346805749E+00   -8.7437337534571817E+00
Br   -2.9592387634985746E+00    2.2469275400045658E+00   -1.2027520640386243E+01
Cs   -1.7483452047742840E-01    5.8986205485764707E+00   -6.0166937272678478E+00
Cs    6.9235769474385700E-01   -5.3051475424065897E-01   -4.3553115358301442E-01
Cs   -2.0965647822450267E-01   -6.5833765584630939E+00    5.2021218902141653E-01
Br   -5.7857399154457161E+00   -3.2574943651908197E+00    3.4554500856164427E+00
Cs   -1.1247932007578504E+01   -5.4077628637363455E+00    1.1077082065198702E+01
Cs    1.2136854144420159E+01   -1.1110493440294425E+01   -3.8191121814000745E-01
Cs   -5.4820018360165950E+00    5.7703617291113014E+00    3.3040417631065705E-01
Cs   -3.2849069410646087E-01    1.1844519671482219E+01   -1.6557790477453790E-01
Cs    1.1344259201563089E+00    5.7676006874962198E+00   -8.1273777039711936E-01
Cs    3.2960429558630278E-01    1.0146781062051606E+00    6.2233154380442732E+00
Cs    2.0828657905789077E-01   -5.1722388198166502E+00    6.2809555794296541E+00
Cs    9.7253410434739906E-01   -1.2006764237414826E+01    6.8675682246915448E+00
Cs   -5.3972975539153385E+00    5.6537607699806625E+00    1.1396415891840952E+01
Cs   -5.3900452771377818E+00   -1.4087791781004175E-01   -1.1704864310743821E+01
Cs   -5.3805309129389656E+00   -1.1651205509651033E+01   -5.2922132970988809E+00
Cs   -4.9753551782412604E+00    4.9007917621604580E-01    5.8760672912466045E+00
Br   -2.5489126840966057E+00   -3.0225156186697655E+00    2.3898725569505377E-01
Cs   -5.4413819476912473E-01    6.4002703660481011E+00    5.1759523345408684E+00
Br    1.1973075774340602E+01   -8.4373392693262890E+00   -8.1233957563800043E+00
Cs    2.6578037243145514E-01   -4.6967424011781658E+00    1.1705586035749326E+01
Br   -3.2032219889243883E+00   -1.2062097023870759E-01    2.8694233312408257E+00
Br   -9.4100917938159405E+00   -2.6115861289550129E+00    1.1875363421699852E+01
Cs    1.1032601645414006E+01    1.1611611835558540E+01   -7.1987121702624561E+00
Cs   -1.0618883541854130E+01   -6.4453622710818035E+00    5.8597902176848775E+00
Cs   -5.8262500097835614E+00   -6.2789473392929933E+00    5.3570357801389346E+00
Cs   -6.2722560277383863E+00    1.0399856137396664E+01   -6.3936666331277223E+00
Br   -1.0535160047090892E+01   -1.0106071707247695E+01    9.8841507968825830E+00
Br   -8.5044495433231759E+00   -8.9251714083953999E+00    6.4257744339770984E+00
Cs   -1.1956926818134464E+01   -6.1855193600441023E+00   -5.9795017731482965E+00
Cs   -6.5688623491601588E+00    5.5987206609736484E+00   -5.8302335096142199E+00
Br   -8.7272124319473257E+00   -6.2132544277024175E+00    8.9328648482008539E+00
Cs    1.1147689930518847E+01    8.2450396728430597E+00    1.0137166801677903E+01
Br   -1.2314741622765391E+01    8.2217061464990788E+00    7.8216602186151940E+00
Br   -5.7450300499939040E+00   -3.9370691599166117E+00   -3.0789712666421023E+00
Cs    8.4303262119369538E-01   -2.0144231780144498E-01    1.2526770808532410E+01
Cs    1.1176793733384709E+01    5.6809080313999232E+00   -2.5284258056105119E-01
Cs   -1.2063031298076334E+01   -6.7496013908584116E+00   -1.1636945167496009E+01
Cs    1.1510392595871394E+01    1.0464651817041137E+00    6.0828399384396432E+00
Cs   -1.1951915189408085E+01    1.0292201233030744E+01   -6.0060386507332675E+00
Cs    1.3198288891305491E+01   -1.0018662516672020E+01    5.7307712457078850E+00
Cs    5.2929241669239753E+00   -5.9583005138919010E+00   -1.0568834086261340E+01
Cs    6.3003190911717741E+00   -1.1390967660829300E+01    5.9610066969490054E+00
Cs   -5.3970430837144692E+00   -1.2264098424425798E+01    9.0488745263361992E-01
Cs    6.1315369277484164E+00   -1.1305478848449773E+01   -1.0947867729183734E+01
Cs    1.1641921324498492E+01    5.7759842068265002E+00   -6.5035828806113880E+00
Cs    1.0997430078746712E+01    1.2055334218680835E+01    4.6688678171565590E+00
Cs    1.0605669361712042E+01    5.9044891845492611E+00   -1.1985050234130386E+01
Cs    5.4825040189749701E-02   -6.7685455932849816E+00   -1.0549903060882968E+01
Cs   -1.1668734599312627E+01    1.7422411179271471E-01   -5.9726716979311911E+00
Cs    6.5972847829568382E+00   -5.3282529017694698E+00    1.1453365559067715E+01
Cs    1.1468973933207689E+01   -4.5327260605803783E+00    5.1011014561833399E+00
Cs   -9.5738933693538915E+00   -1.3112198588282761E+01    1.1208596884916838E+01
Cs   -3.2167250987874019E-01   -6.2147245130530460E-01   -1.1064986204698970E+01
Cs   -4.1181751467211636E-01    1.1869050470361060E+01    5.2432292915250915E+00
Cs   -4.8970785086635021E-02    5.3742924819293867E+00   -1.2007529449719003E+01
Cs    5.3227926095437130E+00   -5.3961481233508923E-01   -5.4338237718387425E+00
Cs    6.4215784299530974E+00   -5.8242143093712233E+00   -5.4955380949889996E+00
Cs   -4.5051746487166602E+00   -1.1928641642882349E+01    6.9234868951128865E+00
Cs   -1.1076043962505983E+01   -2.3339369822585546E-01    6.5074125979686421E+00
Cs    5.8479800135537028E+00    5.0152538306555006E-01   -1.1295328233998006E+01
Cs    4.5334107984478127E+00    9.9932082901584618E+00   -1.2915934818890197E+01
Cs    9.1104865350767472E-01    6.6088569338827865E+00    1.1479818270680537E+01
Cs   -6.2286334817724862E+00    1.0824118613996506E+01    5.6286565392174301E+00
Cs    5.9224096532803916E+00    1.1554551513788615E+01   -6.8336972156171525E+00
Cs    5.7664755733246729E+00    5.7914352598413714E+00   -6.0530091967359159E+00
Cs    6.4531406797188549E+00    3.1138363907339500E-01   -2.2714527387832015E-01
Cs    5.1079059655017103E+00   -5.7568752725075489E+00    8.3815488418231532E-01
Cs    5.9929171474490648E+00   -1.1466990047667569E+01    7.7016313533404535E-01
Cs    5.7148929607344483E+00    5.4211189222502867E+00   -1.0917329437976459E+01
Cs   -5.7908713802601604E+00    5.7059075245152995E+00    5.9283445624878963E+00
Cs   -6.3961147544688357E+00   -7.5291624147723590E+00   -1.1461396151031400E+01
Cs    5.8620319838217592E+00    6.1549457009490967E+00    2.1174874709795696E-01
Cs    6.4210721803982658E+00    9.1637922724478471E-01    5.8744641934876087E+00
Cs    6.6080051727826419E+00   -5.6014481372733798E+00    6.1237599925679955E+00
Cs   -6.6095752049921828E+00    1.1211799103461564E+01   -5.8216008867655167E-01
Cs    1.2230998161038894E+01   -5.5155266459265972E-01   -1.1374178538216344E-01
Cs   -5.7698886311628685E+00    3.3895225078451940E-01    4.6123187038816155E-01
Cs   -1.2373248175282825E+01    5.3617410608554819E+00    5.7245355706477667E+00
Cs   -5.7050032498563565E+00    1.9451674374350011E-01    1.1332752145689710E+01
Cs    5.0461924324157286E+00    1.1924708260656047E+01    5.1626977973136094E+00
Cs    6.3279290312312799E+00    6.2835642074224030E+00    5.0506377968104257E+00
Cs    7.5561032223955271E+00    9.8725018601617454E-01    1.2322331758836459E+01
Cs    5.3631487422773612E+00    1.1136327946635342E+01   -7.6577191107642217E-01
Cs    1.2142846523296468E+01    6.1822458277131120E-01   -5.1309976870573495E+00
Cs    1.1267449474971404E+01   -6.5477328329189914E+00   -5.5035105539740616E+00
Cs    6.5066741003548927E+00   -1.0864537758552554E+01    1.0520440832083263E+01
Cs    1.0396695993997957E+01    1.2482020668213170E+01   -1.4900838665263640E+00
Cs   -1.1116389853644916E+01    5.2105186277007010E-01    1.1537194212303906E+01
Cs   -6.2377056664865043E+00    5.1984011017768426E+00   -1.1633217470998753E+01
Cs   -1.2093859307521340E+01    1.0704556467406801E+01    9.4686199255219011E-02
Cs   -4.7430701687516699E+00   -4.9894785864798825E+00    1.2063385082138332E+01
Cs   -4.2800813225243486E+00   -1.0888645827747052E+01    1.2096458184438227E+01
Cs    6.1467997541231405E+00    7.1702472829929356E+00    1.0378853410241540E+01
Cs    1.0914024420408731E+01   -5.7108182702078141E+00   -3.9025487660538920E-02
Cs   -1.1035118580730273E+01   -3.9848198077583497E-01   -1.9731711728404874E-01
Cs   -7.4431284029789690E+00    1.1195959681039792E+01   -1.2584639742160057E+01
Cs   -1.2242322300034067E+01    4.9881614773466909E+00    6.4783930893410713E-01
Cs   -1.0491917644352498E+01   -1.2717213317186621E+01   -4.7878049249815628E+00
Cs   -1.0712412471999459E+01   -6.1877230892105617E+00    5.2729553870899548E-01
Cs   -5.2817330918407999E+00   -5.6965140197956314E+00    5.5210275136934772E-01
Cs   -9.7615682723763868E+00   -1.2433200811757905E+01    6.1072500529933951E+00
Cs    1.2346238497847930E+01   -4.6806114427894867E+00    1.0729598290332570E+01
Cs    1.2003743017115418E+01    7.0198407638910094E+00    4.5261023217538883E+00
Cs   -1.1736049841019694E+01    5.1871865195292681E+00   -6.3603051668602708E+00
Cs   -5.3115626445800812E+00   -4.8037043372980126E-01   -5.9384574536813561E+00
Cs   -1.0837642931902028E+01   -1.2041131035588366E+01    1.1684105618023792E+00
Cs    1.2386861149129986E+01   -4.5416802237627163E+00   -1.0888137712778057E+01
Cs   -1.1792942584848308E+01   -1.1450885071785494E+01   -1.1386131889108375E+01
Cs   -8.2956290409476807E-01    1.2047475138986590E+01   -1.1113839923590820E+01
Cs   -2.6932921114352425E-02   -1.2200187157697878E+01   -1.0577145452745102E+01
Cs   -1.0679298686185810E+00    1.1106053719865630E+01   -6.0852022472335570E+00
Cs   -6.9924672914587971E+00    1.1472549799837216E+01    1.0865932189074799E+01
Cs    4.1292436954583944E-01   -1.1678512208417125E+01    7.0674102007758643E-01
Cs   -1.0667581640816445E+01   -1.2060978574222327E+00   -1.2238304205389227E+01
Cs   -1.2172709007710093E+01    1.1883644419535930E+01    6.5930004734544774E+00
Cs    7.0083949080157204E+00   -1.2216232853956528E+01   -5.6647508389739469E+00
Cs    1.1329501017642500E+01    6.3239236521169484E-01   -1.0987741233200756E+01
Cs   -8.9518383056085071E-01    1.1235611046555801E+01    1.1085960027712947E+01
Pb    3.1875542925116260E+00   -3.1259849970077895E+00   -2.6148577757770854E+00
Pb    2.8857191112334073E+00   -9.0295811575077600E+00   -2.2634845649440694E+00
Pb   -8.5582085210038432E+00   -3.2685880676945107E+00    3.0693749373199339E+00
Pb   -2.9867625367817308E+00   -9.1333889907649191E+00   -2.2684226821591307E+00
Pb    3.1227914575193236E+00    9.1048163973308327E+00   -3.5469280924736859E+00
Pb    2.9968920170579754E+00    2.8269365243688984E+00   -2.9663457452869535E+00
Pb    3.0720538973378186E+00   -2.8548379582758803E+00    3.3247096256360575E+00
Pb    3.1434991707476958E+00   -8.5104509627255318E+00    3.4721094187297545E+00
Pb   -2.9928746497185967E+00    9.0892187783231737E+00    2.7478011402278972E+00
Pb    2.8684695107299278E+00    9.1247009537240160E+00    2.3503153183543861E+00
Pb    3.1769162941309408E+00    3.2605215714454818E+00    2.7610290863119435E+00
Pb    3.4886479913455926E+00   -2.3473570275411442E+00    9.0873673461871434E+00
Pb    3.5717704940911927E+00   -8.3100945082147835E+00    9.2778311887958544E+00
Pb   -2.7106616265351011E+00    2.7897909040275519E+00    2.7874480811122084E+00
Pb    2.5587971583093689E+00    9.7945603373155947E+00    8.1689006531685759E+00
Pb    3.1497255533572610E+00    3.7475365909503111E+00    8.6698272289679732E+00
Pb   -2.6536876037216035E+00   -2.6645689439846891E+00    9.0786329621632724E+00
Pb   -8.5454052630105988E+00   -9.3144721475938290E+00    3.5094389869493585E+00
Pb   -8.9184429612759661E+00    2.4659059737865343E+00   -3.1017658711240799E+00
Pb   -3.0493630190949066E+00   -3.5432282234916417E+00   -8.7695133043356268E+00
Pb   -2.8404799458819969E+00   -9.2167899885898183E+00    3.7475233923213431E+00
Pb   -3.0737899270266871E+00    8.6505030563926635E+00   -2.9051809355633322E+00
Pb   -2.2335248485799015E+00   -8.4584839480344520E+00    9.6127327196545096E+00
Pb   -8.5652063298534955E+00   -3.5361988412472054E+00   -2.9252615874170531E+00
Pb   -8.5717377325984341E+00   -9.4324125862971222E+00   -2.4696343588761054E+00
Pb   -3.0094506769477811E+00    2.7521119864723578E+00   -3.0785188320568890E+00
Pb   -7.9628444006676835E+00   -9.0563082467545044E+00    9.5119113436584701E+00
Pb   -9.0189393370319095E+00   -3.9513563666808249E+00   -8.9644409710929374E+00
Pb    9.1409475490476115E+00   -2.6048697168143544E+00   -8.8462023105940801E+00
Pb    8.8405693638621674E+00   -8.7920086655125012E+00   -8.6580209176099476E+00
Pb   -2.8900792896773404E+00   -9.7557690065950862E+00   -8.5515828666019758E+00
Pb   -9.2924788793779811E+00    8.0952347158598776E+00   -9.2986635094665182E+00
Pb    2.8029557919923973E+00   -3.4820823546374537E+00   -8.6655663552709310E+00
Pb    3.1279325616544846E+00   -9.5089058136279725E+00   -8.2325122480760804E+00
Pb   -2.8981769756503417E+00    2.2263592446516376E+00   -8.9175500536445487E+00
Pb    2.3420951168206248E+00    8.5626830396511266E+00   -9.2188947856806021E+00
Pb    2.8898552365119654E+00    2.7573021348509954E+00   -8.4958713392830347E+00
Pb    9.1986294061026808E+00   -2.8684601822084161E+00   -3.1497973412268174E+00
Pb    8.5709859386140881E+00   -8.7268798491969974E+00   -2.6821503922270336E+00
Pb   -8.7886274738597869E+00   -3.0202477099509273E+00    9.0871252354810466E+00
Pb    8.1719347565801339E+00    8.9488341516663681E+00   -1.0249738989426847E+01
Pb   -8.9622676979721394E+00    1.8456234984780193E+00   -9.1299738016644216E+00
Pb   -3.2919721102761810E+00    9.0049214544335960E+00    8.8233870889170145E+00
Pb    9.0188617676936147E+00    9.0930350201503209E+00   -3.6385938833651568E+00
Pb    8.8729138195880957E+00    3.3257996570477828E+00   -2.9973032484599593E+00
Pb    8.9963643992083480E+00   -2.5578356755291494E+00    2.7650876438334682E+00
Pb    8.8120694106286539E+00   -8.6150361426467796E+00    3.1635341203761311E+00
Pb    8.5015765392577887E+00    3.0799418938167551E+00   -8.7816043240367456E+00
Pb   -2.7710845039085865E+00    3.2538872960363867E+00    8.7528786853783895E+00
Pb    8.9663527894277824E+00    9.1796568680783803E+00    2.0106843890643189E+00
Pb    9.0622236676681620E+00    3.2019473260623950E+00    2.6894390132572816E+00
Pb    9.2121581773540999E+00   -1.5757695802301201E+00    8.6999559717091657E+00
Pb    9.6011960080165899E+00   -7.8332499788648962E+00    8.7244316456645894E+00
Pb    8.5480116235963770E+00    1.0335178107673318E+01    7.8883788569387638E+00
Pb    8.9647183288851267E+00    4.4547410125365410E+00    8.3554299884632606E+00
Pb   -8.7857918920472784E+00    2.7339327778541702E+00    8.8411162096149880E+00
Pb   -2.7046105302707120E+00   -3.3032322155194742E+00    3.0922601761856390E+00
Pb   -9.1034304463431024E+00    8.4196141747658206E+00    2.7254138125687875E+00
Pb   -8.9770121773959914E+00    8.2494428221027256E+00   -3.2953229416266687E+00
Pb   -9.0608133925612844E+00   -9.7857862293369795E+00   -8.3532491672431597E+00
Pb   -3.3966295046711630E+00    8.0030449697661545E+00   -9.3890460044449586E+00
Pb   -8.6567300946827608E+00    2.7274308600052741E+00    2.8815589671205006E+00
Pb   -9.2800664636696748E+00    8.6263149956583209E+00    8.7687619697648724E+00
Pb   -2.7996510395127139E+00   -3.1299900402747673E+00   -2.7975904103370133E+00
Br    4.9650420656380861E-01   -2.7747684904794596E+00   -2.7675471237780331E+00
Br    2.9621877646180903E+00   -3.0971491245998091E+00   -5.4857814507608005E+00
Br    3.4642582807732505E+00    1.0141432330367658E-01   -2.1538247610438424E+00
Br   -7.6847670063755541E-03   -8.5362845264235840E+00   -2.0387951310964501E+00
Br    2.5029592817052699E+00   -8.9895866085315994E+00   -5.4700292718583290E+00
Br    3.2509565900869251E+00   -5.9410525899154996E+00   -2.7059145062729537E+00
Br   -2.7764639436211764E+00   -3.3618885836427550E+00   -5.7945634285440644E+00
Br   -8.8760075674529695E+00   -2.9583277950301867E+00    5.9977270948798420E+00
Br   -3.0729732815350821E+00   -3.1993545335922097E-01   -2.9091017544150608E+00
Br    2.5947035465093000E+00   -1.1806624174256356E+01   -2.4433713670084005E+00
Br    1.1917238326270297E+01   -2.9841978440893340E+00    2.2361944607784179E+00
Br   -5.7105742671321469E+00   -8.9929675486872274E+00   -1.9739057890371519E+00
Br   -1.1558557626298697E+01   -4.2076999905084502E+00    3.2976117142457118E+00
Br   -8.6475177871685389E+00   -3.3248964091170912E+00    2.8280243736679622E-01
Br    1.1601946169204764E+01   -9.0703285143585042E+00    3.0380021430865094E+00
Br   -1.5083543782402301E-01    8.7258646804056124E+00   -3.4832032843736802E+00
Br    2.2598259381162724E+00    9.6934749528795869E+00   -6.2698551982180959E+00
Br    2.6541363006888807E+00    1.1619051525966809E+01   -2.4747042080721360E+00
Br    2.8700079018836411E-01    2.7398360568910931E+00   -2.7957508521733012E+00
Br    2.5356415980214466E+00    2.8357462338098647E+00   -5.6561621464536538E+00
Br    3.1321420775001956E+00    5.9360322135971080E+00   -3.3445404131106891E+00
Br    2.8826696302545356E-02   -2.6707997342064380E+00    3.0432352658826058E+00
Br    2.7363339120778543E+00   -3.4075524195948135E+00    2.3368786682383916E-01
Br    3.3896276361435684E+00    6.9582394990836779E-02    2.6661122623132156E+00
Br    2.8118628148976899E-01   -8.6443504224722094E+00    3.7119892499226199E+00
Br    2.8132865645004088E+00   -8.0872226683516235E+00    5.9550154520548471E-01
Br    2.6801952458836356E+00   -5.6758215451883540E+00    3.3766831903444512E+00
Br   -6.3993408118755832E+00    8.1612747080822743E+00   -9.1866122832077064E+00
Br   -3.0078975654832867E+00    7.5608355626514907E+00   -1.2113160103406724E+01
Br    3.3416205451556582E+00   -1.1307136842502167E+01    2.7598609431984573E+00
Br   -3.5788535440477798E+00    1.1315612426417729E+01   -9.6568981662312989E+00
Br   -3.0966704971571337E+00    5.1779258902537535E+00   -8.4681490235465002E+00
Br   -8.9609031618839694E+00   -3.7789088378628488E-01    3.0846820415951095E+00
Br   -3.4250026417550994E+00   -8.8587333994863897E+00   -5.1716422424218207E+00
Br   -5.9850800863725873E+00    9.0253299852093907E+00    2.6901432400367233E+00
Br   -3.1466915417342394E+00    9.3441475134380489E+00   -1.5569831293347660E-02
Br   -2.7370783474939446E+00    1.2010858755054199E+01    3.0910162091616407E+00
Br   -2.6583542045042263E-01    8.8661159454835161E+00    2.2576212960599480E+00
Br    3.0104946318598134E+00    8.4358419695615030E+00   -4.4364428344626117E-01
Br    3.3188927119339380E+00    1.1961441160795447E+01    1.8992477576349895E+00
Br    2.8727825476277774E-01    2.9737792658925679E+00    2.5416755812405887E+00
Br    3.7094030351857130E+00    3.1969303789507340E+00    7.0531243120402851E-03
Br    2.9045285633012088E+00    6.1230757250424528E+00    2.6018815041584689E+00
Br    4.5725774969243066E-01   -1.9498051688754381E+00    9.8615431315146900E+00
Br    3.0091133790704703E+00   -2.7034249997858271E+00    6.1515204176044715E+00
Br    3.0640051051431842E+00    7.5457391586934419E-01    9.0639588098152295E+00
Br    4.4247974821667785E-01   -8.0693241070010266E+00    9.3855042321615922E+00
Br    3.6872890114152477E+00   -8.6186655510214685E+00    6.3186758395916147E+00
Br    3.8490821418342800E+00   -5.2827043608760045E+00    9.2828759662031253E+00
Br   -1.1629803954509422E+01    3.1031147720136003E+00    3.2108842468689973E+00
Br   -8.8205893214151736E+00    2.5765536832025924E+00    2.9246622851616434E-02
Br    3.4831977508911796E+00   -1.1218235479427017E+01    9.3129814386368928E+00
Br   -8.3060696270395660E+00    5.5786489804696400E+00    2.6864373711386751E+00
Br   -7.8873480533188731E+00   -3.2382666484947720E-01    8.7818426391949700E+00
Br   -3.1132073767102839E+00   -6.0887240501548590E+00   -1.7200454508623988E+00
Br   -5.8185598880692071E+00    2.8414544131911401E+00    3.0824809976551957E+00
Br   -2.8530587375059855E+00    2.7041459995420638E+00   -5.6401028635781086E-02
Br   -2.6886554787547485E+00    6.0888507161727636E+00    2.7139920161991382E+00
Br   -5.1680128518771595E-01    9.5871571106037532E+00    8.0116952298869233E+00
Br    2.0771180027870217E+00    9.6560340706403593E+00    5.0804861581602765E+00
Br    2.0091650361715483E+00    1.2499859304997317E+01    7.9554328088615831E+00
Br   -3.1673114677848606E-02    3.7338795396194029E+00    8.7127630001447365E+00
Br    2.8250457264351230E+00    3.2249752954420843E+00    5.6978617769177644E+00
Br    3.1543066345574919E+00    6.8588913999041559E+00    8.5977805845254966E+00
Br   -5.5717958162525232E+00   -2.9968785709932226E+00    8.8992463272718396E+00
Br    4.2680218180415563E+00   -2.2641037841529581E+00    1.1793206304334007E+01
Br   -2.3029684386601961E+00   -3.3256100343287871E+00    6.1881851892144564E+00
Br   -2.6658352513448835E+00    2.0988845926425023E-01    8.5339886340841318E+00
Br   -2.1462171305873063E+00   -1.1857414101795715E+01   -1.7425973744175249E+00
Br    4.2412228838157091E+00   -8.4493964193768072E+00    1.1986216037178460E+01
Br   -1.1816812747341876E+01    3.0242954705702889E+00   -2.9450864160789063E+00
Br   -3.0077830091782887E+00   -1.2660489148577870E+01    4.0064864416841122E+00
Br   -1.2015900760209425E+01   -2.8508607930033669E+00   -3.3089905368679746E+00
Br    2.2188073866493538E+00    9.9107877790647194E+00    1.1205976271221363E+01
Br   -8.5834998283896624E+00   -3.6694058011806057E+00   -6.0927213329368346E+00
Br   -8.6180235172521922E+00   -6.6427849852101206E-01   -2.9535569227411420E+00
Br    3.1248260517761453E+00    4.1129545825677161E+00    1.1280856326656981E+01
Br   -6.1913574299496776E+00    8.3689322042071730E+00   -3.3665866337896255E+00
Br   -3.1774685407566849E+00    8.4427422056203021E+00   -6.4711843203253823E+00
Br   -3.7324018633221128E+00    1.1305843299902239E+01   -4.0072754506868833E+00
Br   -5.9889581936920502E+00    2.6206420085020512E+00   -2.6369574631856390E+00
Br   -1.1231692138464831E+01   -9.8713378226789104E+00    3.7194948027051860E+00
Br   -2.4755624011110577E+00    2.3180503914167683E+00   -5.9146450425644632E+00
Br   -5.9027089816380744E+00   -3.8100428834620672E+00   -8.9446800923532610E+00
Br   -2.5928932526506103E+00   -2.7771154770381523E+00   -1.1786095424590297E+01
Br   -2.9271913975825967E+00   -6.2696422804162422E-01   -8.5634531980913078E+00
Br   -3.3683219349761906E+00    2.8455330049261760E+00    1.1348316380893609E+01
Br   -5.0558981887201053E+00   -8.7086049381096817E+00    9.5747078545920399E+00
Br   -2.7222769263968529E+00   -8.4748459202649080E+00    6.4914219121778958E+00
Br   -2.4003741306977684E+00   -5.4094200931559691E+00    9.7388989442434131E+00
Br   -8.4170264513023536E+00   -9.5239245933401477E+00    5.7631808729162737E-01
Br   -8.0851862456615144E+00   -6.3866617543168172E+00    2.8999046655459138E+00
Br   -9.1309550987077301E+00    9.1431319606795984E+00    1.1622024861785221E+01
Br    1.1726882911114958E+01    8.6249606253672724E+00    1.7610921744114649E+00
Br   -7.9880318074039485E+00   -1.0021487897096465E+01    1.2377425474948556E+01
Br    1.1676779511802005E+01    9.1816148532588908E+00   -4.2451239215394017E+00
Br    1.1777637927567591E+01    3.2350920012459441E+00    2.3091779825968262E+00
Br   -8.4169653709374952E+00    2.1977987651423772E+00    1.1743368404989976E+01
Br   -1.1782621009627123E+01   -4.4420445883819424E+00   -9.0934980695205390E+00
Br    1.1877261764065892E+01   -1.6980921416636388E+00    7.8027856157620414E+00
Br   -5.6998363452300920E+00   -9.3028335667367941E+00    4.1416201579895437E+00
Br    6.0764053533656659E+00   -3.2882556011422173E+00   -8.4070779642871987E+00
Br    9.6945427652315743E+00   -2.4416410932733443E+00   -1.1545503864554551E+01
Br    1.2506199009074651E+01   -7.2302111708330932E+00    8.5046455963908052E+00
Br    8.4664043739727219E+00    1.8369199103697428E-01   -8.9276348580210207E+00
Br   -7.1945665264610401E+00   -1.2633679233423576E+01    8.8958431371173781E+00
Br   -2.7483747322588510E+00   -9.4657261323104596E+00    1.0704832182458552E+00
Br   -2.8666707823721191E+00   -6.1187931328274452E+00    2.8761323196165427E+00
Br    5.7527922002045324E+00   -8.5742504851039403E+00   -8.1955672458316222E+00
Br   -5.8505435508449377E+00   -9.2336821031270357E+00   -8.1616572308174202E+00
Br    8.8134404458822502E+00   -8.5451449559293664E+00   -1.1667506599131521E+01
Br    9.6404507124090433E+00   -5.5583861173756031E+00   -8.3092071451244216E+00
Br   -2.4556754942491317E+00   -1.1258085669885704E+01    9.4495931464258334E+00