 # Version information for this restart file 
 # current date 2021-06-17 12:38:38.646
 # current working dir /user/ub2042/exercises/2_fitting/MM_MD_workdir/md_settings.003
 # Program compiled at                              Thu Apr 22 21:44:59 EDT 2021
 # Program compiled on                cpn-k07-07-02.compute.cbls.ccr.buffalo.edu
 # Program compiled for                                                    local
 # Source code revision number                                       git:36754bb
 &GLOBAL
   PRINT_LEVEL  LOW
   PROJECT_NAME cp2k
   RUN_TYPE  MD
 &END GLOBAL
 &MOTION
   &MD
     ENSEMBLE  NVT
     STEPS  10000
     TIMESTEP     2.4999999999999996E+00
     STEP_START_VAL  1500
     TIME_START_VAL     3.7499999999999500E+03
     ECONS_START_VAL    -1.4031592531677251E+01
     TEMPERATURE     3.0000000000000000E+02
     &BAROSTAT
       PRESSURE     1.0100000000000000E+00
       TIMECON     9.9999999999999982E+03
     &END BAROSTAT
     &THERMOSTAT
       TYPE  CSVR
       &CSVR
         TIMECON     9.9999999999999982E+03
         &THERMOSTAT_ENERGY
              -4.9742715887019007E-02
         &END THERMOSTAT_ENERGY
         &RNG_INIT
Wiener process for Thermostat # 1        1 F T F   1.1382529309756741E+00        2887901994.0        1068922118.0        3409092692.0        1438995407.0        1790216091.0        3655652836.0             12345.0             12345.0             12345.0             12345.0             12345.0             12345.0             12345.0             12345.0             12345.0             12345.0             12345.0             12345.0
         &END RNG_INIT
       &END CSVR
     &END THERMOSTAT
     &AVERAGES  T
       &RESTART_AVERAGES
         ITIMES_START  1
         AVECPU     1.7392937792620310E-02
         AVEHUGONIOT     0.0000000000000000E+00
         AVETEMP_BARO     0.0000000000000000E+00
         AVEPOT    -1.4452036958551629E+01
         AVEKIN     4.3959999040542946E-01
         AVETEMP     2.2299523243118423E+02
         AVEKIN_QM     0.0000000000000000E+00
         AVETEMP_QM     0.0000000000000000E+00
         AVEVOL     6.7483345830898769E+06
         AVECELL_A     1.8897261328856047E+02
         AVECELL_B     1.8897261328856047E+02
         AVECELL_C     1.8897261328856047E+02
         AVEALPHA     9.0000000000000000E+01
         AVEBETA     9.0000000000000000E+01
         AVEGAMMA     9.0000000000000000E+01
         AVE_ECONS    -3.2167488034537501E+00
         AVE_PRESS     0.0000000000000000E+00
         AVE_PXX     0.0000000000000000E+00
       &END RESTART_AVERAGES
     &END AVERAGES
     &PRINT
       &ENERGY  SILENT
         &EACH
           MD  10
         &END EACH
       &END ENERGY
     &END PRINT
   &END MD
   &PRINT
     &TRAJECTORY  SILENT
       &EACH
         MD  10
       &END EACH
     &END TRAJECTORY
     &CELL  SILENT
       &EACH
         MD  10
       &END EACH
     &END CELL
     &VELOCITIES  SILENT
       &EACH
         MD  10
       &END EACH
     &END VELOCITIES
     &FORCES  SILENT
       &EACH
         MD  10
       &END EACH
     &END FORCES
     &RESTART  SILENT
       &EACH
         MD  10
       &END EACH
     &END RESTART
   &END PRINT
 &END MOTION
 &FORCE_EVAL
   METHOD  FIST
   &MM
     &FORCEFIELD
       VDW_SCALE14     1.0000000000000000E+00
       EI_SCALE14     1.0000000000000000E+00
       SHIFT_CUTOFF  T
       DO_NONBONDED  T
       IGNORE_MISSING_CRITICAL_PARAMS  T
       &SPLINE
         R0_NB     2.5000000000000000E-01
       &END SPLINE
       &NONBONDED
         &LENNARD-JONES
           ATOMS Br Br
           EPSILON     1.2630795322675199E+02
           SIGMA     3.6900000000000004E+00
         &END LENNARD-JONES
         &LENNARD-JONES
           ATOMS Cs Pb
           EPSILON     8.6920055954630968E+01
           SIGMA     3.6699999999999999E+00
         &END LENNARD-JONES
         &LENNARD-JONES
           ATOMS Cs Cs
           EPSILON     2.2644852172126850E+01
           SIGMA     4.5300000000000002E+00
         &END LENNARD-JONES
         &LENNARD-JONES
           ATOMS Pb Pb
           EPSILON     3.3363415533600227E+02
           SIGMA     5.9000000000000004E+00
         &END LENNARD-JONES
         &LENNARD-JONES
           ATOMS Br Cs
           EPSILON     5.3481070753900497E+01
           SIGMA     3.6300000000000003E+00
         &END LENNARD-JONES
         &LENNARD-JONES
           ATOMS Br Pb
           EPSILON     2.0528187276773045E+02
           SIGMA     2.9800000000000000E+00
         &END LENNARD-JONES
       &END NONBONDED
       &CHARGE
         ATOM Cs
         CHARGE     4.1739999999999999E-01
       &END CHARGE
       &CHARGE
         ATOM Pb
         CHARGE     8.3479999999999999E-01
       &END CHARGE
       &CHARGE
         ATOM Br
         CHARGE    -4.1739999999999999E-01
       &END CHARGE
     &END FORCEFIELD
     &POISSON
       PERIODIC  XYZ
       &EWALD
         EWALD_TYPE  SPME
         GMAX  62 62 62
         O_SPLINE  4
       &END EWALD
     &END POISSON
     &PRINT
       &FF_INFO  LOW
         SPLINE_INFO  F
         SPLINE_DATA  F
       &END FF_INFO
     &END PRINT
   &END MM
   &SUBSYS
     &CELL
       A     1.0000000000000001E+02    0.0000000000000000E+00    0.0000000000000000E+00
       B     0.0000000000000000E+00    1.0000000000000001E+02    0.0000000000000000E+00
       C     0.0000000000000000E+00    0.0000000000000000E+00    1.0000000000000001E+02
       PERIODIC  XYZ
       MULTIPLE_UNIT_CELL  1 1 1
     &END CELL
     &COORD
Cs   -8.2335892328019322E-01    1.4247434564635381E-01   -6.9698537195592785E+00
Cs    3.7680819358928230E-01   -5.6932927229158743E+00   -6.7379060632098406E+00
Cs    4.0575308995775022E-01   -1.1047504062215589E+01   -5.1932612045332638E+00
Cs   -4.8980227890490378E+00   -5.5504780634448334E+00   -5.6197351863316767E+00
Br   -7.3435295660920765E+00   -1.2337073540240985E+01   -8.1754406834869098E+00
Br    1.2157213233552614E+01   -2.0873476675898139E+00   -8.6895591723102434E+00
Br   -4.3196277800810874E+00    2.8029169070670594E+00   -1.1762374956046999E+01
Cs    4.2429155722026263E-01    5.7451109703546468E+00   -5.7167815200334511E+00
Cs    2.2829307837051388E-01   -2.7907055558538219E-01    2.5425535799171256E-01
Cs   -1.2138733491153092E-01   -5.6059708583789085E+00   -1.7595669675288897E-01
Br   -5.5476785178035204E+00   -3.5165803744818773E+00    3.1571504455260233E+00
Cs   -1.0640332408078898E+01   -4.9837551423824626E+00    1.2805277472122263E+01
Cs    1.1740235752094927E+01   -1.1257345843878518E+01   -5.2032530746532149E-02
Cs   -5.8347666694576876E+00    6.0248450414169765E+00    5.3661039667827193E-01
Cs   -4.4879442843509237E-01    1.2372512946473057E+01    1.0128590682084184E+00
Cs    1.3562404037703918E-01    6.3606994877808622E+00   -1.6057988757580868E-02
Cs   -2.4119279095450455E-01    1.4976291553002216E-01    5.5885293992638214E+00
Cs    5.5948493513936992E-01   -5.1863137286614682E+00    6.1159762150744710E+00
Cs    6.3553822707008090E-01   -1.1157611819489668E+01    6.2234959801380398E+00
Cs   -6.6029588644306072E+00    6.2421984726545414E+00    1.1266006310712683E+01
Cs   -6.8013132262023106E+00   -2.5535803550917285E-01   -1.1857776844930479E+01
Cs   -4.9623542751062866E+00   -1.1619700487661325E+01   -5.1378051770086275E+00
Cs   -5.3599695394492777E+00   -2.0823901426162938E-01    6.1531408494792794E+00
Br   -2.9714995696810411E+00   -2.4926901802401731E+00    1.0018523576052002E-01
Cs    3.1565973606833025E-01    5.8975725272984842E+00    6.1662764118051152E+00
Br    1.1680986356286958E+01   -9.3952014166689768E+00   -9.9966540310257113E+00
Cs    1.4948357321161174E+00   -5.1021297315354923E+00    1.2418700418085452E+01
Br   -2.6843110121954781E+00    7.9197692162548516E-02    2.8612428950681528E+00
Br   -8.1010927244235411E+00   -2.8675983896988830E+00    1.1537401499223447E+01
Cs    1.1112789619089574E+01    1.1136793623152647E+01   -6.5971058305390526E+00
Cs   -1.2141752253442442E+01   -5.8334743512396665E+00    5.7775054469245282E+00
Cs   -5.8149944830200058E+00   -6.3105364007597027E+00    5.9912214014979037E+00
Cs   -6.2566770034602444E+00    1.0479809119114590E+01   -6.1150766473861413E+00
Br   -1.1227990031648538E+01   -9.9749080610603418E+00    8.6783765887303073E+00
Br   -8.2394619441723975E+00   -9.2808725083487538E+00    6.1361090873472479E+00
Cs   -1.1880853921274937E+01   -5.0105086903713190E+00   -5.0093987703699154E+00
Cs   -5.5281663708648967E+00    5.8945591851851695E+00   -5.7654357411071411E+00
Br   -8.9456161400597001E+00   -5.8748356189105122E+00    8.9301891261977335E+00
Cs    1.1602373349210541E+01    6.7243690134288574E+00    1.0890893176651803E+01
Br   -1.1427860005609565E+01    1.0293054975431895E+01    8.7797609957719889E+00
Br   -5.7039150933216698E+00   -3.8491844451600885E+00   -2.8019095939581602E+00
Cs    3.2018390645725969E-01    4.0631475463872024E-01    1.0790313004731956E+01
Cs    1.0921265985622608E+01    6.1204401081273767E+00    3.7953695364227297E-02
Cs   -1.0547029801403140E+01   -6.8077852048092984E+00   -1.1494075538684980E+01
Cs    1.1245379542630884E+01    7.5692329688802762E-01    6.0731149265096738E+00
Cs   -1.1182486545380675E+01    1.1259918541873105E+01   -6.0899747332334000E+00
Cs    1.2246405583083313E+01   -1.0767287987034077E+01    5.4958909179953732E+00
Cs    6.6173653612445840E+00   -5.8712956376826586E+00   -1.1102014884383415E+01
Cs    6.1905287395014827E+00   -1.0808354453175335E+01    5.8107059961976981E+00
Cs   -4.9652812509059512E+00   -1.1693335896457638E+01   -1.3035505450979615E-01
Cs    5.9469772677063881E+00   -1.1630748123274248E+01   -1.1062759839499003E+01
Cs    1.0340060846711602E+01    6.2328429786291011E+00   -5.6399763515835515E+00
Cs    1.1585515389626922E+01    1.1179481764808710E+01    5.3890075547637810E+00
Cs    1.1755170201035028E+01    5.9670103889129296E+00   -1.1128369223922380E+01
Cs    6.6943379642010592E-01   -6.8177701869447880E+00   -1.1421543904297890E+01
Cs   -1.1431081870951401E+01   -6.7001903631460058E-01   -5.8848374054349302E+00
Cs    5.8486310072420187E+00   -5.3786086886675024E+00    1.0651678283732721E+01
Cs    1.1888645463114559E+01   -4.9205476518209554E+00    6.0184867663943269E+00
Cs   -1.1040202569786267E+01   -1.1564000540883134E+01    1.1943311414822702E+01
Cs   -6.1384699484470073E-01   -2.9215068994680549E-01   -1.1967611274727423E+01
Cs   -6.4031608151257748E-03    1.1081321464075559E+01    5.6029887373478964E+00
Cs    4.7689612126314979E-01    5.8326391451113944E+00   -1.1643588018470215E+01
Cs    5.3136321742416550E+00   -4.2292619941236238E-02   -6.5814339101171191E+00
Cs    6.3975544404444147E+00   -5.5998160821464404E+00   -6.0450961346811001E+00
Cs   -5.2605605905628661E+00   -1.0621640653485715E+01    5.9775298453859369E+00
Cs   -1.1599714314666217E+01    2.4930141387931329E-01    5.8937334749905732E+00
Cs    6.1014150061317398E+00    7.4701008737915120E-01   -1.2040006408623675E+01
Cs    6.0392337993561709E+00    1.1088065620596783E+01   -1.2169754236921614E+01
Cs   -6.1153899177898881E-02    6.4325478194447756E+00    1.1504205527047104E+01
Cs   -5.5785944057650658E+00    1.0867699643858133E+01    5.4443574030711464E+00
Cs    6.1539211890021823E+00    1.2289492160717231E+01   -7.1449756595864962E+00
Cs    5.6321284971077814E+00    6.0251356875876407E+00   -5.6355797206456630E+00
Cs    5.9858125860818889E+00   -8.3168032890082136E-02    7.0052755159052946E-02
Cs    6.4502409217221750E+00   -5.8580541694659294E+00   -5.9176194601878884E-01
Cs    6.5633263553577450E+00   -1.1170660654890479E+01    8.7376759442539786E-01
Cs    6.2420658171633070E+00    5.7847246450749248E+00   -1.1688842455038435E+01
Cs   -5.1221263160599078E+00    5.8965683272687652E+00    6.0010945096349744E+00
Cs   -5.6358817250046807E+00   -6.6768264800233190E+00   -1.0986427839248199E+01
Cs    5.9825986295377707E+00    5.6473685118207584E+00    2.0944074911346183E-01
Cs    5.9760683485915065E+00   -1.9187417349845429E-01    5.3918347105502109E+00
Cs    6.5246767443286693E+00   -5.7340497812926641E+00    6.1024060762756385E+00
Cs   -6.3447554694222763E+00    1.1600623633813806E+01    3.3256590828524213E-01
Cs    1.1274861514065798E+01    3.7255338258346749E-01    1.4055783253428999E-01
Cs   -5.5198083582079152E+00    9.8701987715745301E-02   -4.8365567390472250E-03
Cs   -1.1500263938894946E+01    5.6684609316330530E+00    5.9674936667841569E+00
Cs   -6.0319573312113413E+00    1.9505350521320550E-01    1.1755286448974324E+01
Cs    5.3166968482196797E+00    1.1889978724370124E+01    5.6075627362011309E+00
Cs    6.0737617943383251E+00    6.5461618613467767E+00    5.9450138712635310E+00
Cs    5.5583837414257671E+00    4.2685943839082036E-01    1.0877535058143080E+01
Cs    5.7120853386118213E+00    1.1666949792784752E+01   -1.5491494032012290E+00
Cs    1.1988455301256474E+01    2.1649593570935902E-01   -6.1769835848353605E+00
Cs    1.0933855551226808E+01   -6.2083863912253712E+00   -5.6962085661141124E+00
Cs    6.3560459799103857E+00   -1.0933314173063303E+01    1.1378769672914489E+01
Cs    1.1628489706380947E+01    1.1057370978116186E+01   -1.4487867851706848E-01
Cs   -1.1146928431258379E+01    7.9693879246128174E-01    1.1590074391610408E+01
Cs   -7.0243496645928900E+00    5.3524393548733809E+00   -1.1199830668840919E+01
Cs   -1.0995784940968187E+01    1.1433279160827665E+01    4.6641521152249599E-01
Cs   -5.0133702056891796E+00   -5.4988997000142898E+00    1.1761551845452528E+01
Cs   -5.0454163438410351E+00   -1.1128500514439875E+01    1.1513719496031552E+01
Cs    5.7454504865920883E+00    6.6600630506389411E+00    1.1144502217594024E+01
Cs    1.1407070329622453E+01   -5.5625149711464150E+00    2.5036539196144536E-01
Cs   -1.0937738615711154E+01    2.0509695583656895E-01   -1.8433412750518890E-01
Cs   -6.8351007600226925E+00    9.8922797532609312E+00   -1.1901115226914737E+01
Cs   -1.1591792449733664E+01    5.1040928577740932E+00    1.3174420871500497E-01
Cs   -9.5368529355096143E+00   -1.2372394252513471E+01   -5.8295825464887701E+00
Cs   -1.0707638152791990E+01   -6.4755352497102256E+00    2.8885286507382812E-01
Cs   -5.3606660649358364E+00   -5.7130803964475518E+00    6.1701243014790685E-01
Cs   -9.6665131793684935E+00   -1.2798829544813010E+01    7.0775977604537603E+00
Cs    1.0505246254061072E+01   -5.4169624654990507E+00    1.2095663386178616E+01
Cs    1.0950592223973350E+01    6.0947979754340613E+00    6.0867161359681257E+00
Cs   -1.1532440236828988E+01    5.9400314541864292E+00   -6.0452568547472776E+00
Cs   -5.7449978573457381E+00   -9.8370057752360851E-02   -6.4795583326867741E+00
Cs   -1.1264705678525706E+01   -1.2417553194148908E+01    7.3999708654130525E-01
Cs    1.0364949772672309E+01   -1.1904722680286040E+01   -1.1817003816423558E+01
Cs   -9.1734217552244992E+00   -1.2579054348443373E+01   -1.1833672638145387E+01
Cs    6.1732576476264740E-02    1.2241845611119528E+01   -1.0818004728044013E+01
Cs    1.9367686229699110E-01   -1.1915603778176212E+01   -1.0642204455778433E+01
Cs   -6.3156632106744515E-01    1.1938415489357357E+01   -5.2701144149395569E+00
Cs   -1.0119608037011997E+01    1.2382060914264500E+01    1.1456274228706340E+01
Cs    3.9812005144621065E-01   -1.0898583630566723E+01   -6.3071783797365652E-02
Cs   -1.1838882009564562E+01    1.0335050925394063E+00   -1.2076144663509014E+01
Cs   -1.0727225300669016E+01    1.1915540723211389E+01    5.7138136915753099E+00
Cs    5.4484089112071326E+00   -1.1599470996996363E+01   -5.2978665218902705E+00
Cs    1.1800299932235447E+01    1.2981790316667763E-01   -1.1509917782481651E+01
Cs   -1.3594935557823964E-01    1.1615345644420337E+01    1.0464666583894502E+01
Pb    2.9783622178856861E+00   -3.1370826056962180E+00   -3.4808833112778417E+00
Pb    3.3782055312802299E+00   -8.8205229445864237E+00   -2.8107963842237020E+00
Pb   -8.8884428746321724E+00   -3.2909028144852783E+00    3.0116922155844019E+00
Pb   -2.5654874524297657E+00   -8.7799755242281652E+00   -2.8316362583291226E+00
Pb    2.5147617203557582E+00    9.0713529669065398E+00   -3.1573705753085197E+00
Pb    3.0021506113823335E+00    2.6936438843684458E+00   -3.1519909773200019E+00
Pb    3.0034256800094439E+00   -2.9814041423128974E+00    2.6677270606652970E+00
Pb    3.0956892656955515E+00   -8.6056947565997479E+00    3.1222298427026893E+00
Pb   -2.8849954554653610E+00    8.7190532504274501E+00    2.7154564257630573E+00
Pb    2.7732888978724390E+00    8.9751327584738263E+00    2.8259073217410058E+00
Pb    2.9288196547911665E+00    2.8811210821732485E+00    2.6433319332483158E+00
Pb    2.9679074786549089E+00   -2.6083926624851954E+00    8.4223111578179619E+00
Pb    3.3020776215601488E+00   -8.6530765931343154E+00    9.1840015840663369E+00
Pb   -2.8214903115249896E+00    2.8151100311370540E+00    2.7330670232251935E+00
Pb    2.8739936329114943E+00    9.5007585856634407E+00    8.7840369486682093E+00
Pb    3.0706501316562784E+00    3.2880192988782890E+00    8.5600271769468659E+00
Pb   -2.8717846408608723E+00   -2.8876558191059951E+00    8.8642629019254944E+00
Pb   -8.9207886829546617E+00   -9.3106403882245967E+00    3.2854002023272240E+00
Pb   -8.9478601019010569E+00    2.7964236793678117E+00   -2.7755124613398277E+00
Pb   -3.2232908016501765E+00   -2.8810160573672983E+00   -8.8342056604221355E+00
Pb   -2.7689927582145200E+00   -9.3245994283834222E+00    3.2421410637465300E+00
Pb   -3.2976875985282086E+00    8.5419969268260711E+00   -3.2756867417893192E+00
Pb   -2.7041197508635140E+00   -8.7949511676311936E+00    9.4260545779049583E+00
Pb   -8.6609385149919049E+00   -3.1852414256346662E+00   -2.8818766196244541E+00
Pb   -8.4630502531800698E+00   -9.2695790644999647E+00   -2.6725844287069402E+00
Pb   -2.9082871073724541E+00    2.8289520060225106E+00   -3.1649292836352094E+00
Pb   -8.6480710143746560E+00   -8.7920552849393516E+00    9.2655892399710194E+00
Pb   -9.1641644580356054E+00   -3.2942035825256824E+00   -8.4383961797051548E+00
Pb    9.4472786605740513E+00   -3.1529336326099471E+00   -9.2344812064590638E+00
Pb    9.0539871341183975E+00   -9.0454054149476235E+00   -8.8369569092066875E+00
Pb   -2.4446882993461587E+00   -9.3756040359497277E+00   -8.7368622767065496E+00
Pb   -9.3501987926661592E+00    8.5064098766276892E+00   -8.9783656542442731E+00
Pb    3.0381510348787275E+00   -3.1024267183560768E+00   -9.0800733600478498E+00
Pb    3.2582508790948501E+00   -9.1536915727164683E+00   -8.5776812015205035E+00
Pb   -3.5396902078796915E+00    2.8566334857909412E+00   -9.2050928190553361E+00
Pb    2.7389016479130328E+00    9.1068134211949445E+00   -8.9645853146547854E+00
Pb    2.8079188694115444E+00    2.7019497324244743E+00   -9.2488545369029591E+00
Pb    8.8357231769368383E+00   -3.0434156437973079E+00   -3.1497658603021712E+00
Pb    9.2908694420365379E+00   -9.2611658945107607E+00   -2.7896144612066727E+00
Pb   -8.6292791086526179E+00   -2.7780486516247986E+00    8.9100554285122193E+00
Pb    8.9261229094492833E+00    8.6566365722973320E+00   -9.6234284739249443E+00
Pb   -9.3704211671723510E+00    2.6181905529035157E+00   -8.3835951611220327E+00
Pb   -2.8250732428918184E+00    8.6475687332301963E+00    8.9557816125554375E+00
Pb    8.5011807435435749E+00    8.8560264363570607E+00   -3.4308734638766163E+00
Pb    8.7359409812743376E+00    2.9399420611622267E+00   -2.9711262008036843E+00
Pb    8.7950859802859203E+00   -2.8697451404762435E+00    2.9815801220935985E+00
Pb    9.3171197120860398E+00   -8.4438683324743558E+00    3.2459057616873204E+00
Pb    8.8725613727253894E+00    2.7936118594184944E+00   -8.7687911331012121E+00
Pb   -2.5547168169162018E+00    3.1521415371049177E+00    8.5266215727641477E+00
Pb    8.8963157275350770E+00    8.8049379161454464E+00    2.9286349165444783E+00
Pb    8.9028200273132576E+00    3.1506821150746407E+00    2.9039276175052731E+00
Pb    8.8472579739483219E+00   -2.5431760273010782E+00    8.9724723941716160E+00
Pb    9.2255365705390915E+00   -8.7313090165420437E+00    9.0857746364380692E+00
Pb    8.8480964655843550E+00    9.3106381420604585E+00    8.6463284534967588E+00
Pb    9.0478793269142255E+00    3.3566125903774711E+00    9.0710119387940100E+00
Pb   -8.7059239493307867E+00    3.2600114791201444E+00    8.8276305029086153E+00
Pb   -2.8280138373797179E+00   -3.0491492199617651E+00    3.0056193361744907E+00
Pb   -8.9745202448637169E+00    8.4578451116239606E+00    2.8116141931675944E+00
Pb   -9.0910685117682775E+00    8.6218870700424244E+00   -2.9692593615120133E+00
Pb   -8.1063408234685230E+00   -9.4840152689592045E+00   -8.4024225378200725E+00
Pb   -3.1867279806526305E+00    8.5493942494004234E+00   -9.1286838730910400E+00
Pb   -8.6467103227276514E+00    2.5721909675896377E+00    3.1726453542677362E+00
Pb   -8.8908487670039023E+00    9.0256084147414892E+00    8.8380841499718450E+00
Pb   -2.9005493190144267E+00   -3.0706040715146186E+00   -3.0399495639081984E+00
Br   -3.1925550590483319E-02   -3.0063271476629363E+00   -3.6568207081508599E+00
Br    3.0128638221788733E+00   -3.2782806333040577E+00   -6.2434152246255818E+00
Br    3.4638280122630252E+00   -2.4903327493680472E-01   -3.4505732460099483E+00
Br    2.4262086883940098E-01   -8.7409990591577529E+00   -2.9037422336856511E+00
Br    2.9332033794347039E+00   -9.0251748316024987E+00   -5.6447073926938733E+00
Br    3.4786896385875319E+00   -5.8689719847154844E+00   -3.1173323221978375E+00
Br   -3.1803291645672980E+00   -2.3031287713895972E+00   -5.9976337429878948E+00
Br   -9.4619623037798277E+00   -3.0106138561377658E+00    6.1888342375591261E+00
Br   -4.0382581348326054E+00   -1.8813638990044071E-01   -3.0682953351733135E+00
Br    2.9478058849085214E+00   -1.1605129074467305E+01   -2.8699951304016134E+00
Br    1.1566446209977840E+01   -2.2028717238026569E+00    2.6050655096912649E+00
Br   -5.3935438291347557E+00   -8.8237868764558360E+00   -2.4795012506943626E+00
Br   -1.1401317445117954E+01   -4.4732714760141210E+00    2.7501642581614281E+00
Br   -8.4880898966549907E+00   -3.5964413262711403E+00    1.4916127493539716E-01
Br    1.1932570142725623E+01   -8.0083683716694729E+00    2.1007302655556099E+00
Br   -3.1020073352583327E-01    8.4479896006814474E+00   -3.5692328283331101E+00
Br    2.7699739086160786E+00    8.7709853606649908E+00   -6.1047256554574965E+00
Br    2.2698681460935162E+00    1.1855810019265503E+01   -3.1055135700026768E+00
Br   -1.6160064774124555E-01    2.1244520530901374E+00   -3.0644073761504824E+00
Br    2.9471263662493690E+00    2.9825065270444910E+00   -6.1618722324902970E+00
Br    2.8150398427564971E+00    6.1734784242893337E+00   -3.1078391559474343E+00
Br    5.1712349294947613E-02   -2.4120209753261093E+00    3.0222982014051740E+00
Br    2.1843181913930843E+00   -3.0198683971222215E+00   -2.8326951689354202E-01
Br    3.3338179319552204E+00   -1.2685582248189284E-01    2.8006219860401682E+00
Br    1.4915947897375897E-01   -8.9826265135731926E+00    3.4004456842193100E+00
Br    2.7708712271316411E+00   -8.3982291647580638E+00   -1.9942431719791750E-03
Br    2.3756944523085912E+00   -5.6472852376937981E+00    2.3953348890771600E+00
Br   -6.4218259333321210E+00    7.9260326424894956E+00   -8.7983625101860667E+00
Br   -3.7842936864573469E+00    8.7985711862007001E+00   -1.1885846362724017E+01
Br    3.6644159669626921E+00   -1.1435663576984691E+01    3.0936016002990434E+00
Br   -2.8906312264826024E+00    1.1639193317619210E+01   -8.8587072139564249E+00
Br   -3.0659575666923740E+00    5.7315691500404364E+00   -9.5544396532913538E+00
Br   -8.2466416145886079E+00   -5.3958155164626631E-01    3.5053041312223616E+00
Br   -2.7322281617717352E+00   -9.0923422080002592E+00   -5.7454349530052626E+00
Br   -5.7415432958757915E+00    8.5575849981175249E+00    3.2768617122263337E+00
Br   -2.8908584382134506E+00    8.3996602921531860E+00   -1.6894712451106053E-01
Br   -3.2189714369609175E+00    1.1333293410319472E+01    2.2106342271994546E+00
Br    3.4743805427454290E-02    8.8330445461723244E+00    2.5777933766581071E+00
Br    2.0254145933347951E+00    9.2888240274984071E+00   -7.6639235751244400E-02
Br    2.6618442920936203E+00    1.2050778597287946E+01    2.5519056834895504E+00
Br    9.1413297741739619E-02    2.3275260754247054E+00    2.8315256466046494E+00
Br    3.1399651167258154E+00    2.3262125631655568E+00   -1.2221067416495442E-01
Br    3.0906699645581770E+00    6.1917182694522230E+00    1.7873985001833481E+00
Br    9.5174208085522204E-03   -2.4533135751909780E+00    8.5550991149625748E+00
Br    2.9667073651003864E+00   -3.3458423732780269E+00    5.5359372959459749E+00
Br    3.7896960919195499E+00    4.0609657564040563E-01    7.9794711700537819E+00
Br    4.1823092791993277E-01   -9.2298150911633563E+00    8.8809901489778458E+00
Br    3.1877454407394064E+00   -8.2841450184457734E+00    6.0934560532493185E+00
Br    2.9554820689335166E+00   -5.7381601823135107E+00    9.0635405292628359E+00
Br   -1.1443495828450116E+01    2.3651970072766604E+00    2.9880736513379955E+00
Br   -9.0401264153640728E+00    3.0132498353864214E+00    2.7446034896545535E-01
Br    3.8158580541610174E+00   -1.1488370055275730E+01    9.0124973986236707E+00
Br   -9.3584593410998096E+00    5.4681595266145155E+00    2.9886859721718571E+00
Br   -8.2287538653702814E+00    1.9797616730185166E-01    8.8805177155414192E+00
Br   -2.9858710411721496E+00   -5.8689802904463519E+00   -3.1442904135299159E+00
Br   -6.0419429051589679E+00    3.6105131672522095E+00    2.8920470352846754E+00
Br   -2.6412350735339558E+00    2.8703393289765611E+00   -2.3582812374783681E-02
Br   -2.5156237801426267E+00    5.5688946720461336E+00    2.5539009600460698E+00
Br    8.7262959233867024E-02    8.4233058049036558E+00    8.3960701061769800E+00
Br    2.9301230308877364E+00    9.2923896341509593E+00    5.7717504786163083E+00
Br    2.3085303523374257E+00    1.2249465431563573E+01    7.7190268652780816E+00
Br    2.3748979748322038E-01    2.6442544495825180E+00    7.9299180018258584E+00
Br    3.0122691823706536E+00    3.8289589903408263E+00    5.5799190883952194E+00
Br    2.5578499322117136E+00    5.9871105463387373E+00    9.0401864559023384E+00
Br   -5.9600250511301747E+00   -2.9276365210780151E+00    8.2358637216263091E+00
Br    3.2357842008583955E+00   -2.4848058311683952E+00    1.1334646700793908E+01
Br   -2.7674252548466707E+00   -2.9393684378475151E+00    5.8072927345532692E+00
Br   -2.8369047320983509E+00    7.1445460981437017E-02    8.3035199331794427E+00
Br   -1.9771813836480443E+00   -1.1722962888747423E+01   -2.4037781024885199E+00
Br    3.8363020638499479E+00   -8.3121169675404634E+00    1.1929440311252154E+01
Br   -1.1815140664792162E+01    2.7862538331503979E+00   -2.5091102907019378E+00
Br   -2.4551548766520641E+00   -1.2361087844399323E+01    3.3001698105315436E+00
Br   -1.1284281638865330E+01   -2.6525817631461552E+00   -2.4879616664043551E+00
Br    2.4049803406465560E+00    9.4780109769948808E+00    1.1762368199880660E+01
Br   -8.7700609322828846E+00   -3.4071603186634709E+00   -5.6416514167504523E+00
Br   -8.1277189743413825E+00   -1.5104309309761088E-01   -2.2026809229892597E+00
Br    2.9990426251207585E+00    2.4727341679389236E+00    1.1307930537868069E+01
Br   -6.2190382290279338E+00    8.6065710997319052E+00   -3.4516089073299092E+00
Br   -3.1738077610134514E+00    8.7955120592353460E+00   -6.1598781671557656E+00
Br   -3.8202674501978651E+00    1.1196642255328376E+01   -3.4265515051670858E+00
Br   -5.7974177515342307E+00    3.1649076304302235E+00   -2.8274606233125299E+00
Br   -1.1807240170934588E+01   -8.6773211319286023E+00    3.1384455022317108E+00
Br   -2.8324192934049361E+00    2.9236126029579395E+00   -6.1461320150762067E+00
Br   -6.1812605839572505E+00   -3.0559832849681072E+00   -8.1905499494862593E+00
Br   -4.0798206531241989E+00   -3.0174394357218475E+00   -1.1650815008393682E+01
Br   -3.3926516010322780E+00   -1.6798362475356758E-02   -8.9898648753205848E+00
Br   -1.7202400663206343E+00    3.5762709838991729E+00    1.1325226547530544E+01
Br   -5.8660455681187305E+00   -8.4641715546502461E+00    9.1512103663946718E+00
Br   -2.7402063285917837E+00   -8.6694382819787403E+00    5.9430223013521699E+00
Br   -3.0470726067874883E+00   -5.8098237201653724E+00    8.8852290491985055E+00
Br   -8.7658049117103154E+00   -9.3268687238220718E+00    4.1525183505182917E-01
Br   -8.3474874560422805E+00   -6.4498732074950569E+00    3.2676859212211036E+00
Br   -8.8799926198785641E+00    9.1342495639855770E+00    1.1722319224035896E+01
Br    1.1816844299017474E+01    8.3883536838588153E+00    2.2112765947611708E+00
Br   -9.3261427953408322E+00   -8.2029018461796355E+00    1.2152111194977349E+01
Br    1.1422478082812191E+01    9.0016424871762872E+00   -2.9598107544707553E+00
Br    1.1806007412443712E+01    3.1093900497661999E+00    2.7368798082169441E+00
Br   -8.3405552518655650E+00    3.0224412093103217E+00    1.1644652246230692E+01
Br   -1.2051476986649853E+01   -2.9979219258495156E+00   -7.9691491987098848E+00
Br    1.1875717394377165E+01   -2.5453493685804873E+00    9.0462618609189462E+00
Br   -5.8483933936056065E+00   -9.2633549301817126E+00    2.7627827430696139E+00
Br    6.0822219611918369E+00   -2.8394812538072807E+00   -8.9628082319619580E+00
Br    9.4992208136917320E+00   -3.5561710171213963E+00   -1.2134364620138843E+01
Br    1.2343290190083984E+01   -8.7141707448279817E+00    7.9274267165975987E+00
Br    9.0139220403523996E+00    1.2701820744149099E-03   -9.6186721223880127E+00
Br   -8.2377350106954577E+00   -1.1632390103878741E+01    9.7956648911217119E+00
Br   -2.4212146134562391E+00   -8.8824753655769140E+00    3.0899689333656505E-01
Br   -2.9812165018602026E+00   -6.0629280064849116E+00    2.8681371286887618E+00
Br    6.1337939829725636E+00   -9.0220982078885985E+00   -8.5620426572670834E+00
Br   -5.3050562444613893E+00   -9.2341295440360298E+00   -8.8365799304526860E+00
Br    8.3521185590747411E+00   -8.8756772644676154E+00   -1.1896907930378052E+01
Br    9.1530770376225199E+00   -5.9213455029421649E+00   -8.4206627414548407E+00
Br   -3.4616482831689441E+00   -1.1244143886840233E+01    8.6539880015725501E+00