 # Version information for this restart file 
 # current date 2021-06-17 12:41:07.516
 # current working dir /user/ub2042/exercises/2_fitting/MM_MD_workdir/md_settings.003
 # Program compiled at                              Thu Apr 22 21:44:59 EDT 2021
 # Program compiled on                cpn-k07-07-02.compute.cbls.ccr.buffalo.edu
 # Program compiled for                                                    local
 # Source code revision number                                       git:36754bb
 &GLOBAL
   PRINT_LEVEL  LOW
   PROJECT_NAME cp2k
   RUN_TYPE  MD
 &END GLOBAL
 &MOTION
   &MD
     ENSEMBLE  NVT
     STEPS  10000
     TIMESTEP     2.4999999999999996E+00
     STEP_START_VAL  9980
     TIME_START_VAL     2.4949999999995503E+04
     ECONS_START_VAL    -1.4031592531677251E+01
     TEMPERATURE     3.0000000000000000E+02
     &BAROSTAT
       PRESSURE     1.0100000000000000E+00
       TIMECON     9.9999999999999982E+03
     &END BAROSTAT
     &THERMOSTAT
       TYPE  CSVR
       &CSVR
         TIMECON     9.9999999999999982E+03
         &THERMOSTAT_ENERGY
              -2.7505625272289069E-01
         &END THERMOSTAT_ENERGY
         &RNG_INIT
Wiener process for Thermostat # 1        1 F T F   1.0571577890008135E+00        2254892290.0        3032320490.0        1438837230.0         879273700.0         502542477.0        1398262910.0             12345.0             12345.0             12345.0             12345.0             12345.0             12345.0             12345.0             12345.0             12345.0             12345.0             12345.0             12345.0
         &END RNG_INIT
       &END CSVR
     &END THERMOSTAT
     &AVERAGES  T
       &RESTART_AVERAGES
         ITIMES_START  1
         AVECPU     1.7529822267729141E-02
         AVEHUGONIOT     0.0000000000000000E+00
         AVETEMP_BARO     0.0000000000000000E+00
         AVEPOT    -1.4390544802233663E+01
         AVEKIN     5.0310446438423917E-01
         AVETEMP     2.5520905236840414E+02
         AVEKIN_QM     0.0000000000000000E+00
         AVETEMP_QM     0.0000000000000000E+00
         AVEVOL     6.7483345830912264E+06
         AVECELL_A     1.8897261328855686E+02
         AVECELL_B     1.8897261328855686E+02
         AVECELL_C     1.8897261328855686E+02
         AVEALPHA     9.0000000000000000E+01
         AVEBETA     9.0000000000000000E+01
         AVEGAMMA     9.0000000000000000E+01
         AVE_ECONS    -3.8398184005449196E+00
         AVE_PRESS     0.0000000000000000E+00
         AVE_PXX     0.0000000000000000E+00
       &END RESTART_AVERAGES
     &END AVERAGES
     &PRINT
       &ENERGY  SILENT
         &EACH
           MD  10
         &END EACH
       &END ENERGY
     &END PRINT
   &END MD
   &PRINT
     &TRAJECTORY  SILENT
       &EACH
         MD  10
       &END EACH
     &END TRAJECTORY
     &CELL  SILENT
       &EACH
         MD  10
       &END EACH
     &END CELL
     &VELOCITIES  SILENT
       &EACH
         MD  10
       &END EACH
     &END VELOCITIES
     &FORCES  SILENT
       &EACH
         MD  10
       &END EACH
     &END FORCES
     &RESTART  SILENT
       &EACH
         MD  10
       &END EACH
     &END RESTART
   &END PRINT
 &END MOTION
 &FORCE_EVAL
   METHOD  FIST
   &MM
     &FORCEFIELD
       VDW_SCALE14     1.0000000000000000E+00
       EI_SCALE14     1.0000000000000000E+00
       SHIFT_CUTOFF  T
       DO_NONBONDED  T
       IGNORE_MISSING_CRITICAL_PARAMS  T
       &SPLINE
         R0_NB     2.5000000000000000E-01
       &END SPLINE
       &NONBONDED
         &LENNARD-JONES
           ATOMS Br Br
           EPSILON     1.2630795322675199E+02
           SIGMA     3.6900000000000004E+00
         &END LENNARD-JONES
         &LENNARD-JONES
           ATOMS Cs Pb
           EPSILON     8.6920055954630968E+01
           SIGMA     3.6699999999999999E+00
         &END LENNARD-JONES
         &LENNARD-JONES
           ATOMS Cs Cs
           EPSILON     2.2644852172126850E+01
           SIGMA     4.5300000000000002E+00
         &END LENNARD-JONES
         &LENNARD-JONES
           ATOMS Pb Pb
           EPSILON     3.3363415533600227E+02
           SIGMA     5.9000000000000004E+00
         &END LENNARD-JONES
         &LENNARD-JONES
           ATOMS Br Cs
           EPSILON     5.3481070753900497E+01
           SIGMA     3.6300000000000003E+00
         &END LENNARD-JONES
         &LENNARD-JONES
           ATOMS Br Pb
           EPSILON     2.0528187276773045E+02
           SIGMA     2.9800000000000000E+00
         &END LENNARD-JONES
       &END NONBONDED
       &CHARGE
         ATOM Cs
         CHARGE     4.1739999999999999E-01
       &END CHARGE
       &CHARGE
         ATOM Pb
         CHARGE     8.3479999999999999E-01
       &END CHARGE
       &CHARGE
         ATOM Br
         CHARGE    -4.1739999999999999E-01
       &END CHARGE
     &END FORCEFIELD
     &POISSON
       PERIODIC  XYZ
       &EWALD
         EWALD_TYPE  SPME
         GMAX  62 62 62
         O_SPLINE  4
       &END EWALD
     &END POISSON
     &PRINT
       &FF_INFO  LOW
         SPLINE_INFO  F
         SPLINE_DATA  F
       &END FF_INFO
     &END PRINT
   &END MM
   &SUBSYS
     &CELL
       A     1.0000000000000001E+02    0.0000000000000000E+00    0.0000000000000000E+00
       B     0.0000000000000000E+00    1.0000000000000001E+02    0.0000000000000000E+00
       C     0.0000000000000000E+00    0.0000000000000000E+00    1.0000000000000001E+02
       PERIODIC  XYZ
       MULTIPLE_UNIT_CELL  1 1 1
     &END CELL
     &COORD
Cs   -6.5482378456359425E-03   -1.5558045657072248E+00   -5.8944591621334386E+00
Cs    7.2463649526521878E-01   -7.0572772834913158E+00   -4.2271047488922164E+00
Cs    1.3139239119929345E+00   -1.2104662298814427E+01   -3.8092970713631709E+00
Cs   -5.2858563502470890E+00   -7.0509384738792384E+00   -4.6647445960836418E+00
Br   -6.9236775651335893E+00   -1.4193854089276977E+01   -6.1413962541776090E+00
Br    1.1121208550775728E+01   -2.8926444447116708E+00   -9.1334621297499528E+00
Br   -4.0020454507220995E+00    2.5679580139224534E-01   -1.1838494632266883E+01
Cs   -8.9303057484560178E-01    4.4697915506095596E+00   -7.1415754279650825E+00
Cs    5.3924477078600630E-01   -7.4229760770943698E-01    3.0201899678090627E-01
Cs    6.0671562966281889E-01   -5.5072777647691069E+00    7.6349602739176514E-01
Br   -4.7799730122034116E+00   -3.6443104763537097E+00    3.7370857474724142E+00
Cs   -8.5745096180700315E+00   -6.0963029408228939E+00    1.3888692059463386E+01
Cs    1.4209168822873337E+01   -8.4276213633760708E+00    6.2700926589015993E-01
Cs   -6.2905699722214967E+00    4.4440698342403540E+00    1.1366189751153180E-01
Cs   -2.2071366448064720E+00    1.1638730800517317E+01   -1.4627806796964975E+00
Cs   -1.5966989508817939E+00    5.0942581707754568E+00   -1.4334432007120603E+00
Cs    4.1294945562472757E-01    5.1361747746354036E-01    5.4172235282028733E+00
Cs    2.8738409371989038E+00   -5.3679024624878799E+00    7.4024421800922093E+00
Cs    3.2044830350759987E+00   -1.0301398034693673E+01    7.2723132758763400E+00
Cs   -5.6075182603909743E+00    5.6251449557278317E+00    1.1144513351184239E+01
Cs   -6.2828178645355877E+00   -3.2451744071917843E+00   -1.0578297993430647E+01
Cs   -4.4401858692431784E+00   -1.2304701346606233E+01   -3.3066186629865943E+00
Cs   -5.2279048988319357E+00    2.5524588379250597E-02    5.4589119343197492E+00
Br   -2.2979935346612175E+00   -3.7870402148427287E+00    6.3043712215602421E-01
Cs   -3.2353474625807743E-01    6.6561747828498135E+00    3.7172791131627019E+00
Br    1.2056997412632612E+01   -8.3243734230866639E+00   -9.8286043264282128E+00
Cs    3.3778925308044054E+00   -4.0311601656686387E+00    1.3195825140408008E+01
Br   -2.5914199909048246E+00   -5.1027997925425972E-01    2.5045654624384315E+00
Br   -6.4234897611174739E+00   -2.3626484374203005E+00    1.3619189149594233E+01
Cs    8.9612295688801513E+00    1.1270402342160629E+01   -8.3702497228728205E+00
Cs   -9.7323745258649819E+00   -6.1134962636261463E+00    8.0639891298968625E+00
Cs   -3.6959049417346503E+00   -5.5167872332141918E+00    6.7416735135081645E+00
Cs   -8.4784992671484964E+00    9.2064850214539788E+00   -7.1806495989964025E+00
Br   -8.3525439025336663E+00   -8.9452152206208755E+00    1.2532434126386041E+01
Br   -6.0360211539612543E+00   -9.5236245281284599E+00    8.6282567762873015E+00
Cs   -1.0223843743806237E+01   -9.3882228205968872E+00   -3.1663825411788040E+00
Cs   -8.1174168486123790E+00    3.9697064076048165E+00   -7.0031839000813614E+00
Br   -6.5712737459198873E+00   -6.0574331415446423E+00    1.0478941253178990E+01
Cs    9.9896124143082172E+00    9.9478805594851494E+00    9.3114535611703797E+00
Br   -1.2661169933082162E+01    7.3193220239996997E+00    8.3127108460247818E+00
Br   -5.6604367531766053E+00   -4.7496481961473016E+00   -1.7578408031363846E+00
Cs    1.6127963712185819E-01    2.0070895632534747E+00    1.1115820195279992E+01
Cs    9.5464342307102008E+00    8.2073726005043390E+00   -2.4497876342312490E+00
Cs   -1.0844231535510055E+01   -9.1357388321012944E+00   -9.9528496421328523E+00
Cs    1.1301112290622044E+01    3.3081256814324957E+00    4.8731879280015677E+00
Cs   -1.2970810974591853E+01    8.8314514896963381E+00   -7.8921210538240354E+00
Cs    1.4750855807511231E+01   -6.9840931718821393E+00    7.3990808054299189E+00
Cs    5.1874087053530804E+00   -7.2096675207001253E+00   -1.0696874492868954E+01
Cs    9.8741531019420297E+00   -8.6745566471822286E+00    7.3507290364237052E+00
Cs   -4.3226765323812941E+00   -1.3300429868133252E+01    1.8644537030128783E+00
Cs    6.4503710781329913E+00   -1.2616232635617987E+01   -9.7788550389884605E+00
Cs    1.1947114368381321E+01    7.7816822238517425E+00   -7.3597534751089242E+00
Cs    8.7086088646472906E+00    1.5098243110168381E+01    2.1259503282483672E+00
Cs    1.0040391748038452E+01    6.2603337485751256E+00   -1.2735814499355879E+01
Cs    5.3638384998578270E-01   -7.6980087190706223E+00   -9.6056177356498367E+00
Cs   -1.1830934144798970E+01   -2.9351485783652209E+00   -4.8207802322487208E+00
Cs    7.9028534748998132E+00   -3.3167985804536313E+00    1.1389817087609600E+01
Cs    1.2434166437591630E+01   -1.8547911029145798E+00    6.2494711931144469E+00
Cs   -1.9083127508330300E+00   -7.5611421034518926E+00    1.5224660351287829E+01
Cs   -9.9599849431914345E-01   -1.8059655574338802E+00   -1.1250587366583250E+01
Cs   -2.1321184677631209E+00    1.1969832517433375E+01    4.0510013710825357E+00
Cs   -2.4275910337560211E+00    3.8611034128653512E+00   -1.2791417960965468E+01
Cs    5.9660208721407786E+00    3.5526172605173945E-01   -6.3573866789385924E+00
Cs    6.1393863027457911E+00   -6.5425815175836464E+00   -5.5799434308115030E+00
Cs   -2.7566983684111723E+00   -1.1032656391152752E+01    8.1410278871981472E+00
Cs   -1.0377296629818320E+01   -1.2507628657580936E+00    6.4134225976139074E+00
Cs    4.8475260543974024E+00   -1.1610519503575079E+00   -1.1995219755147520E+01
Cs    3.4006564932809153E+00    1.1604629756222003E+01   -1.3236029459328988E+01
Cs    7.4852642266018876E-03    7.8626922339347995E+00    1.0912739796327402E+01
Cs   -7.4855469114180107E+00    1.0159362938449391E+01    4.1367865656557026E+00
Cs    3.3428467843564085E+00    1.1019251791674680E+01   -8.6909985817461397E+00
Cs    4.9079397966735314E+00    5.9519605544339624E+00   -8.2385355372774125E+00
Cs    6.6055696425048787E+00    8.6980057836025471E-01   -9.2144810960361190E-01
Cs    6.8207604700212574E+00   -5.5446589758677272E+00   -2.5615802790861697E-01
Cs    9.0512723303046023E+00   -1.0918196426776300E+01    2.0082981392139838E+00
Cs    3.6784807242157980E+00    4.9835853916726425E+00   -1.3131715057270624E+01
Cs   -6.8843417035985626E+00    5.3166414427770832E+00    5.2962231065861758E+00
Cs   -5.3696974046255121E+00   -8.3796788449881294E+00   -1.0100523066682337E+01
Cs    4.3957666889769014E+00    6.2142909675135440E+00   -2.2234160598866253E+00
Cs    6.4046302111276496E+00    2.0527832763457581E+00    5.4400366557386617E+00
Cs    7.9178782368514948E+00   -3.6468365899266248E+00    6.2804438576463699E+00
Cs   -6.7827954143057845E+00    9.8491312662983965E+00   -8.5911885281065326E-01
Cs    1.1065318895212773E+01    1.8029396429256763E+00   -1.0299785247245747E+00
Cs   -5.8397108353657989E+00   -1.4843330391876646E+00    1.0346271813693599E+00
Cs   -1.1705949361376788E+01    5.0543306510415205E+00    6.2083363252204524E+00
Cs   -5.1644983135003724E+00    7.7383594168934478E-01    1.1715319229712092E+01
Cs    3.3400110376389751E+00    1.3883218752005732E+01    3.4811410952996282E+00
Cs    4.9789523593793428E+00    7.6292065307538302E+00    4.8828203262115135E+00
Cs    6.5688753828999076E+00    2.4403234071528535E+00    1.1124602122610858E+01
Cs    3.9214076307012431E+00    1.2361364620872694E+01   -2.8214661148064635E+00
Cs    1.0935549329828167E+01    7.7871623261947609E-01   -6.7373541132894346E+00
Cs    1.1364507097554247E+01   -4.7076722171203293E+00   -6.4425055681516623E+00
Cs    1.0099086691966972E+01   -8.2121645445814000E+00    1.2461035742626686E+01
Cs    7.9786845214884545E+00    1.4557938076252308E+01   -3.3678035881944757E+00
Cs   -1.2471587328061990E+01    5.4647412094890768E+00    1.1280891003580390E+01
Cs   -8.5608480415887822E+00    2.4070573359640477E+00   -1.2324177487824761E+01
Cs   -1.2263072583105279E+01    1.0194589306024110E+01   -1.7438426105879363E+00
Cs   -3.0284514525040982E+00   -3.0063253903107956E+00    1.3822099100960417E+01
Cs   -2.0679160116952788E+00   -1.2316812166156408E+01    1.3054577985727567E+01
Cs    5.0657972498170265E+00    8.7168791241784636E+00    1.0036204766655962E+01
Cs    1.1902134302189976E+01   -3.5135815902990180E+00   -7.3237950150902154E-01
Cs   -1.0747092363717528E+01   -1.7577673831701632E+00    1.2611709520127341E+00
Cs   -8.6428432535069355E+00    7.5420297108818000E+00   -1.3175563138918731E+01
Cs   -1.2638638256072756E+01    3.1117488921092007E+00   -5.3739630576375974E-01
Cs   -1.2221871908658899E+01   -1.3173097775744967E+01   -1.2524627681565448E+00
Cs   -9.9776016964770076E+00   -7.8617216313297904E+00    2.3384488314279439E+00
Cs   -4.3502940704349040E+00   -6.8396089648650271E+00    1.6600943500663277E+00
Cs   -8.3627609286171332E+00   -1.1461579691981164E+01    1.0382933869979652E+01
Cs    1.2802420381280733E+01   -9.4826377696752806E-01    1.1554228389582638E+01
Cs    1.0035674360937973E+01    8.7895639883780738E+00    3.9748237694986308E+00
Cs   -1.4732113478601914E+01    1.6399864072675805E+00   -5.7444960865399297E+00
Cs   -7.0184464658400163E+00   -2.2594585391556281E+00   -5.3669542256554257E+00
Cs   -1.0110513582640282E+01   -1.2043366716689221E+01    3.2013605601981530E+00
Cs    9.7991683695508947E+00   -7.4483319598586508E+00   -1.2093886764498478E+01
Cs   -4.3631645970122621E+00   -1.3576741779421180E+01   -8.1924329868916672E+00
Cs   -2.8139143976379284E+00    9.6053372653756970E+00   -1.3430369959611012E+01
Cs    1.1008821288650577E+00   -1.3181398660201767E+01   -8.3648158157544845E+00
Cs   -2.1473102162008861E+00    9.5490635272516009E+00   -8.0976259548145713E+00
Cs   -7.0772887240920888E+00    1.3152851656105780E+01    7.0281884886733543E+00
Cs    2.5083633046692064E+00   -1.0752772961796307E+01    2.1247560868623534E+00
Cs   -1.2792869713973728E+01   -3.1695689556287383E+00   -1.0453022659081990E+01
Cs   -1.2260764337833068E+01    1.0318745642378339E+01    4.7290952485528361E+00
Cs    7.7853202443317535E+00   -1.1103721502553920E+01   -4.0282594851680109E+00
Cs    1.0596358182086718E+01    8.0448459634296060E-02   -1.2108127692767960E+01
Cs   -9.9149497649655827E-01    1.2772184801757405E+01    9.5863168677568673E+00
Pb    3.4036054196901384E+00   -3.6830928905961646E+00   -2.5802304749842415E+00
Pb    4.4217881656177980E+00   -9.1936613361424602E+00   -1.5098824673937008E+00
Pb   -7.7684213088765599E+00   -3.9249310544912870E+00    4.6369666445305056E+00
Pb   -1.3095924292307175E+00   -1.0020933031405825E+01   -8.6805280499025839E-01
Pb    1.0405097302181179E+00    8.4923651732097643E+00   -5.1129168009127373E+00
Pb    2.0138022653988479E+00    2.0605257069800675E+00   -3.8482788631117937E+00
Pb    3.5484699134676125E+00   -2.6556316396463848E+00    3.3260169686365337E+00
Pb    5.3474612534975758E+00   -7.9201890003874222E+00    4.1989395419727051E+00
Pb   -4.1503301137480584E+00    8.4453368041033237E+00    1.6832014032911415E+00
Pb    1.4676851963748800E+00    9.7113899221341438E+00    4.3960712463768997E-01
Pb    2.2993739965688937E+00    3.8440876020513315E+00    1.7106521314281748E+00
Pb    4.2397886052957476E+00   -1.0943358542630293E+00    9.0404853766836997E+00
Pb    5.9472862236809387E+00   -6.7992718904839284E+00    9.9804476167220599E+00
Pb   -3.2477158711810903E+00    2.6127453339376534E+00    2.1121674252589244E+00
Pb    1.9465666632438205E+00    1.0747243857581216E+01    6.5342803998448566E+00
Pb    2.8476970038210272E+00    4.3902142678388918E+00    7.6827955821258316E+00
Pb   -1.5242244115443373E+00   -1.8170385758713685E+00    9.3014256396326047E+00
Pb   -6.9862379720258483E+00   -9.4281481017096738E+00    6.0000524832731577E+00
Pb   -9.5864339661345142E+00    9.0723982368818079E-01   -2.8600133846027522E+00
Pb   -2.8358262693456444E+00   -4.7110752535559230E+00   -8.1699241690879525E+00
Pb   -6.6860225534644535E-01   -8.8779544497208018E+00    4.9353745830953457E+00
Pb   -4.7305830236791744E+00    7.5981449126960428E+00   -4.1896650288457753E+00
Pb   -1.9113117299198564E-02   -7.4999812894008935E+00    1.0513898906976118E+01
Pb   -8.6235745866172984E+00   -4.4436370893450343E+00   -1.3126208479306614E+00
Pb   -7.6194540772303601E+00   -1.0671601708592451E+01   -1.1700039820274119E-01
Pb   -3.8699685977087412E+00    1.5360450447726213E+00   -3.6630126234703466E+00
Pb   -5.5508336128289599E+00   -8.5870586380678056E+00    1.2085533303917247E+01
Pb   -8.9016175240676407E+00   -5.8106833697409508E+00   -7.4648328300213072E+00
Pb    8.4110781260359815E+00   -3.3940683545859103E+00   -9.4930024492116178E+00
Pb    9.3412712673976248E+00   -9.1588501851601762E+00   -7.8928930403822717E+00
Pb   -2.1128635411814392E+00   -1.0454882615238811E+01   -6.9000998679886312E+00
Pb   -1.0986238586487685E+01    5.5910135078064451E+00   -9.8695014288580261E+00
Pb    2.8771839844462557E+00   -3.9172204711465026E+00   -8.6350344797768219E+00
Pb    3.5420710572491476E+00   -9.9325941518911591E+00   -7.1561459580126776E+00
Pb   -4.0918747562052049E+00    9.3020345951811156E-01   -9.1343589456271559E+00
Pb    5.9508568976585297E-01    7.7658743435222624E+00   -1.0893685174102087E+01
Pb    1.8026197253870819E+00    1.9832407692520364E+00   -9.8430659988177993E+00
Pb    8.6564436544373979E+00   -2.1867761630087847E+00   -3.6789815041370137E+00
Pb    1.0255824357463382E+01   -7.9130196043966468E+00   -2.2061636106938698E+00
Pb   -7.4398434503069231E+00   -3.3662896121964785E+00    1.0399832751876255E+01
Pb    6.7931233421588981E+00    8.8777367591062379E+00   -1.1333261233239009E+01
Pb   -1.0075690587239432E+01   -2.7345343893860857E-01   -8.6443660662699298E+00
Pb   -3.8150784071779116E+00    9.4872684482665530E+00    7.5410439731940562E+00
Pb    6.8227860492313184E+00    9.5909549890227481E+00   -5.2836815535418058E+00
Pb    8.1612154190753721E+00    3.8931065585772178E+00   -4.1752342998494907E+00
Pb    9.4306305039081355E+00   -7.4388382654905560E-01    2.6889420986111414E+00
Pb    1.1220475501244808E+01   -6.4596315515157752E+00    3.6785767831896883E+00
Pb    7.8991748609050330E+00    2.7406773829096740E+00   -9.7966879995399818E+00
Pb   -3.1505469015864840E+00    3.4979828392111565E+00    8.1314520317803325E+00
Pb    7.4959476781336658E+00    1.1151394995157734E+01    1.9827384675226839E-01
Pb    7.9924173507220777E+00    4.8079555650591903E+00    1.6776029144430531E+00
Pb    9.6696079672998234E+00    6.3153447062392165E-01    8.4235858544400752E+00
Pb    1.1490151666018573E+01   -4.9858779472644263E+00    9.6214456153411838E+00
Pb    7.4337921845870785E+00    1.2280846305662795E+01    6.0673359354161072E+00
Pb    8.6606884701426807E+00    6.2385343081645948E+00    7.7657329545675049E+00
Pb   -8.9214885021734123E+00    2.4893041368954010E+00    9.0127240346700788E+00
Pb   -2.0517874665996003E+00   -3.2687597882345876E+00    3.5730913076153739E+00
Pb   -1.0280233801966386E+01    7.4680056591738850E+00    1.8627768137298755E+00
Pb   -1.0769604915527980E+01    6.7123274480624309E+00   -3.8973268042964873E+00
Pb   -7.8603415020959151E+00   -1.1712338766962198E+01   -6.0187001285695825E+00
Pb   -5.0645314903359617E+00    6.8324644284828562E+00   -1.0317186644203094E+01
Pb   -8.9994185934335391E+00    1.5552904855581153E+00    3.0230499011623397E+00
Pb   -9.9736322318264872E+00    8.5315781073789285E+00    8.0003258247802140E+00
Pb   -2.4573121392095096E+00   -4.1177598578522314E+00   -2.2607240526797843E+00
Br    5.4538405242704247E-01   -4.2008740952873875E+00   -2.3757039147368917E+00
Br    3.6581228685208682E+00   -3.5814911025324214E+00   -5.4741271326603762E+00
Br    2.7247728954027961E+00   -7.3213432743784534E-01   -3.2686090125501388E+00
Br    1.5968806891770222E+00   -9.7954728432526554E+00   -9.9078171669546100E-01
Br    3.9384137108622075E+00   -1.0095685133256072E+01   -4.2235222818767459E+00
Br    3.6453348109288020E+00   -6.3707807381021073E+00   -2.0474098432565095E+00
Br   -2.6376787423073416E+00   -5.1743564195841518E+00   -4.8984197945421561E+00
Br   -7.6709546520694678E+00   -3.9257580062783610E+00    7.5218779741874311E+00
Br   -3.4688986393483061E+00   -1.3858140844749940E+00   -3.2571145606387697E+00
Br    5.5504441046928799E+00   -1.1676583196484412E+01   -1.1627064991747704E+00
Br    1.2353531301968033E+01   -3.3925332295716115E-01    2.7654210179280212E+00
Br   -4.0718043332543914E+00   -1.0318545277657101E+01   -1.6094612994554641E-01
Br   -1.0517300520694453E+01   -4.0626686135572827E+00    5.3697730127600938E+00
Br   -8.6241513416384397E+00   -4.7799912307028194E+00    1.8358901093938700E+00
Br    1.4324100856547643E+01   -6.8872412778248524E+00    4.0465383942865145E+00
Br   -1.9221169419923985E+00    8.6815130566338681E+00   -4.7599236954372177E+00
Br    3.1527010951330919E-01    7.1818551781667539E+00   -7.8364989515589878E+00
Br    8.6832521501163196E-01    1.1219850615471737E+01   -6.4500333941406263E+00
Br   -8.3069855456025177E-01    1.4307382712113532E+00   -3.5782999555235957E+00
Br    2.3534767803153889E+00    2.0540533903736109E+00   -6.7315095368662492E+00
Br    1.0354488047590085E+00    5.4043955485631852E+00   -4.7107184313989050E+00
Br    6.9833366080283343E-01   -2.5610175665812389E+00    3.7080819199489685E+00
Br    3.2279886878756128E+00   -2.9983476654611581E+00    4.0446388157373925E-01
Br    2.6937426721917972E+00    9.5027118871257032E-01    2.4343909354335254E+00
Br    2.3506288081780879E+00   -8.4712518081264179E+00    4.8812812631660352E+00
Br    4.8148961841203910E+00   -8.2304690970255585E+00    9.8454752848027038E-01
Br    4.0627408442363091E+00   -5.2663354788733399E+00    4.1572233088623793E+00
Br   -7.9911476570909112E+00    5.6058655760000740E+00   -1.0224134005961432E+01
Br   -5.5330917952662109E+00    6.6463109085681005E+00   -1.3175124676293715E+01
Br    5.9346194325175174E+00   -1.0650955241943294E+01    3.7374450988650114E+00
Br   -5.1561904922517376E+00    1.0002808416365905E+01   -1.1068679088128913E+01
Br   -4.6194054807019835E+00    3.9409297953411264E+00   -1.0273534326791522E+01
Br   -8.2611031388735281E+00   -1.2037412161800702E+00    3.9002258284173692E+00
Br   -1.6946624687819198E+00   -9.7756412810797375E+00   -3.9527400885692865E+00
Br   -7.0615928384303208E+00    7.9404313793633783E+00    1.6941426179063397E+00
Br   -4.5462899072120280E+00    7.4172434024550409E+00   -1.0811125037862859E+00
Br   -4.3178160190692765E+00    1.1318041755777484E+01    1.2585291106815151E+00
Br   -1.6541449586193762E+00    8.7326176231933772E+00    7.4836314177462848E-01
Br    8.4438335447621782E-01    1.0104295666240688E+01   -2.6135510618435682E+00
Br    6.2980955258874116E-01    1.2673324349584089E+01    7.4086650928036046E-01
Br   -6.8440107267174677E-01    3.6947573376661982E+00    2.2197992212476145E+00
Br    1.9740448436678215E+00    2.5843028670341930E+00   -1.0881297829973799E+00
Br    1.6659433193346380E+00    6.4086605594269619E+00    7.6687820924839822E-01
Br    1.1874075774806196E+00   -1.2342282789805767E+00    8.9255267638553200E+00
Br    4.0487579323060752E+00   -2.3101282499710813E+00    6.3501581185519846E+00
Br    3.4065141589241552E+00    1.7138248938886527E+00    8.4772687276545948E+00
Br    2.6953011392532309E+00   -7.6460009051663587E+00    1.0405891584833725E+01
Br    5.3179616193553514E+00   -7.6360206509172164E+00    7.1316970436750102E+00
Br    4.7864210760848964E+00   -3.9141278699571673E+00    9.7322287466771655E+00
Br   -1.1725521580578299E+01    7.5155411046733389E-01    3.0884639968189167E+00
Br   -9.5967762696038932E+00    1.6579604138644208E+00    3.4908481468785069E-01
Br    7.8100667768735246E+00   -9.3004260070703602E+00    1.0175833007882186E+01
Br   -9.3363249349424589E+00    4.6836053915447433E+00    2.5820895843648306E+00
Br   -7.5569459916446187E+00   -6.7051054687718614E-01    9.1628975414327556E+00
Br   -2.0532142194432033E+00   -6.9656855799361956E+00   -1.2048090581918638E+00
Br   -6.0626527526841310E+00    1.8228268014668916E+00    2.4312576105704466E+00
Br   -3.1189341845652248E+00    2.1472786538238262E+00   -7.5230328439101390E-01
Br   -4.0755942457433525E+00    5.6265607003028446E+00    2.2767388589845114E+00
Br   -1.0793779139180364E+00    1.0403367084806002E+01    6.8374484327892793E+00
Br    1.4079852282552945E+00    9.5759288614600120E+00    3.3724764031148657E+00
Br    7.1745105727141334E-01    1.3497049417495928E+01    6.2069239120211099E+00
Br   -8.2149281983224728E-02    4.1469943041233961E+00    7.6236429167248225E+00
Br    3.3044118864489747E+00    4.1946511798286652E+00    4.7248300436004165E+00
Br    2.7851522052875599E+00    7.9104160134822248E+00    7.6306922046133749E+00
Br   -4.3275901358383324E+00   -2.2194576482555797E+00    1.0035069072890805E+01
Br    4.4267391991763709E+00   -7.1536689568278999E-01    1.1741331571639511E+01
Br   -2.1451596295056219E+00   -2.2449610025251436E+00    6.2923569867160944E+00
Br   -2.4080801475749762E+00    8.4737465340233487E-01    8.9284930966906906E+00
Br   -1.3359984961436113E+00   -1.2754555156023137E+01   -1.9173256924185309E+00
Br    6.2427317454094364E+00   -6.0963533598600916E+00    1.2830260300223848E+01
Br   -1.2389309949092436E+01    7.7123364913566750E-02   -2.9787199661608530E+00
Br   -4.6593938188079227E-02   -1.1556983386481168E+01    5.8140904513114684E+00
Br   -1.1651711549295426E+01   -3.6964318726079495E+00   -1.4229810907098925E+00
Br    2.2580197665879393E+00    1.1070238738755055E+01    9.5857123731321341E+00
Br   -8.6994334397421422E+00   -5.1604818527854430E+00   -4.2131517761770887E+00
Br   -8.7994916875627318E+00   -1.4857917429528058E+00   -1.6392833734162693E+00
Br    2.1102146073413914E+00    4.7298697738968540E+00    1.0726968247895293E+01
Br   -7.9295189178237404E+00    7.2461851132817374E+00   -3.9321342175869303E+00
Br   -5.1160063784787386E+00    7.7358034513316651E+00   -7.6070244738836621E+00
Br   -4.8026592402986372E+00    1.0564899794172360E+01   -3.4908132223267589E+00
Br   -6.5971491591844700E+00    1.3019942404879834E+00   -3.3841872912871986E+00
Br   -9.4664678848717418E+00   -9.8192838507240072E+00    7.4900300134688020E+00
Br   -4.4654511449134873E+00    1.9322346930749366E+00   -6.6657961894568851E+00
Br   -5.6479480038805931E+00   -5.0715438039357545E+00   -7.4958326721612218E+00
Br   -3.3739685867875950E+00   -5.4773677151521900E+00   -1.0769119501576290E+01
Br   -3.0198323690292361E+00   -1.8970597007595311E+00   -8.7056146136333901E+00
Br   -2.5999116654778773E+00    4.3475109473889928E+00    1.0918041152997224E+01
Br   -2.5374128636473405E+00   -8.4730500504358393E+00    1.1107804457453900E+01
Br    9.2307407301655361E-02   -8.8444958377347866E+00    7.9562222971769723E+00
Br   -4.9824360938570539E-01   -4.6797054295114071E+00    9.3914212933094277E+00
Br   -7.4927990379079432E+00   -1.0026068604010710E+01    2.8439409584781874E+00
Br   -7.7421908405864270E+00   -6.9166263665926691E+00    5.0234264657125260E+00
Br   -9.9990558435065218E+00    8.8326435983462517E+00    1.0806961772849247E+01
Br    9.7246470784895305E+00    1.3220143189265009E+01   -5.6292459834103936E-01
Br   -5.5235116039830157E+00   -7.5887751784009980E+00    1.5028933310075491E+01
Br    9.7310904348990732E+00    1.0022093628642466E+01   -5.4970247157603165E+00
Br    1.0931144993890545E+01    5.0193602876049930E+00    1.3008733678890643E+00
Br   -8.1821634496179971E+00    2.9918698218560720E+00    1.2053845739218628E+01
Br   -1.2222695515112296E+01   -5.9585227218137060E+00   -8.5267974271929248E+00
Br    1.2321711874814847E+01    5.8346161890966119E-01    8.5877189300973118E+00
Br   -4.0012594293206085E+00   -8.9456321083848547E+00    5.4863524378978825E+00
Br    5.5362123324192645E+00   -3.9388538632173336E+00   -9.5525561725472254E+00
Br    8.3391543683382867E+00   -4.2317228202836148E+00   -1.2299128287849381E+01
Br    1.4318979520397587E+01   -3.5638386427172213E+00    9.1178510421694927E+00
Br    7.7556942913384077E+00   -4.4552178182998764E-01   -9.2793265805209533E+00
Br   -4.7656284440621199E+00   -1.1212005467232396E+01    1.1793101401528077E+01
Br   -7.4810131026094195E-01   -9.1318776675033551E+00    1.9737257208085774E+00
Br   -1.6067559086140983E+00   -6.2519299419415884E+00    3.9247984494555688E+00
Br    6.2877547117827763E+00   -9.3740071523909894E+00   -7.2942791390037502E+00
Br   -5.0917908064390955E+00   -1.0426707361567072E+01   -6.2843987983274205E+00
Br    7.9149051240094366E+00   -9.5390402389712428E+00   -1.0461736530025721E+01
Br    8.9534856672366132E+00   -6.3092297421990242E+00   -8.2791272984670083E+00
Br    6.6597139551513873E-01   -9.3896416610972473E+00    1.3001326372594667E+01