 # Version information for this restart file 
 # current date 2021-06-17 12:41:07.682
 # current working dir /user/ub2042/exercises/2_fitting/MM_MD_workdir/md_settings.003
 # Program compiled at                              Thu Apr 22 21:44:59 EDT 2021
 # Program compiled on                cpn-k07-07-02.compute.cbls.ccr.buffalo.edu
 # Program compiled for                                                    local
 # Source code revision number                                       git:36754bb
 &GLOBAL
   PRINT_LEVEL  LOW
   PROJECT_NAME cp2k
   RUN_TYPE  MD
 &END GLOBAL
 &MOTION
   &MD
     ENSEMBLE  NVT
     STEPS  10000
     TIMESTEP     2.4999999999999996E+00
     STEP_START_VAL  9990
     TIME_START_VAL     2.4974999999995493E+04
     ECONS_START_VAL    -1.4031592531677251E+01
     TEMPERATURE     3.0000000000000000E+02
     &BAROSTAT
       PRESSURE     1.0100000000000000E+00
       TIMECON     9.9999999999999982E+03
     &END BAROSTAT
     &THERMOSTAT
       TYPE  CSVR
       &CSVR
         TIMECON     9.9999999999999982E+03
         &THERMOSTAT_ENERGY
              -2.7603870513229456E-01
         &END THERMOSTAT_ENERGY
         &RNG_INIT
Wiener process for Thermostat # 1        1 F T F  -1.4436051593819570E+00        2305787847.0         317263915.0         649490368.0        2437808356.0        3240923174.0        2748373337.0             12345.0             12345.0             12345.0             12345.0             12345.0             12345.0             12345.0             12345.0             12345.0             12345.0             12345.0             12345.0
         &END RNG_INIT
       &END CSVR
     &END THERMOSTAT
     &AVERAGES  T
       &RESTART_AVERAGES
         ITIMES_START  1
         AVECPU     1.7528790350536356E-02
         AVEHUGONIOT     0.0000000000000000E+00
         AVETEMP_BARO     0.0000000000000000E+00
         AVEPOT    -1.4390464825090062E+01
         AVEKIN     5.0315064763960826E-01
         AVETEMP     2.5523247967957403E+02
         AVEKIN_QM     0.0000000000000000E+00
         AVETEMP_QM     0.0000000000000000E+00
         AVEVOL     6.7483345830912264E+06
         AVECELL_A     1.8897261328855686E+02
         AVECELL_B     1.8897261328855686E+02
         AVECELL_C     1.8897261328855686E+02
         AVEALPHA     9.0000000000000000E+01
         AVEBETA     9.0000000000000000E+01
         AVEGAMMA     9.0000000000000000E+01
         AVE_ECONS    -3.8398431017240839E+00
         AVE_PRESS     0.0000000000000000E+00
         AVE_PXX     0.0000000000000000E+00
       &END RESTART_AVERAGES
     &END AVERAGES
     &PRINT
       &ENERGY  SILENT
         &EACH
           MD  10
         &END EACH
       &END ENERGY
     &END PRINT
   &END MD
   &PRINT
     &TRAJECTORY  SILENT
       &EACH
         MD  10
       &END EACH
     &END TRAJECTORY
     &CELL  SILENT
       &EACH
         MD  10
       &END EACH
     &END CELL
     &VELOCITIES  SILENT
       &EACH
         MD  10
       &END EACH
     &END VELOCITIES
     &FORCES  SILENT
       &EACH
         MD  10
       &END EACH
     &END FORCES
     &RESTART  SILENT
       &EACH
         MD  10
       &END EACH
     &END RESTART
   &END PRINT
 &END MOTION
 &FORCE_EVAL
   METHOD  FIST
   &MM
     &FORCEFIELD
       VDW_SCALE14     1.0000000000000000E+00
       EI_SCALE14     1.0000000000000000E+00
       SHIFT_CUTOFF  T
       DO_NONBONDED  T
       IGNORE_MISSING_CRITICAL_PARAMS  T
       &SPLINE
         R0_NB     2.5000000000000000E-01
       &END SPLINE
       &NONBONDED
         &LENNARD-JONES
           ATOMS Br Br
           EPSILON     1.2630795322675199E+02
           SIGMA     3.6900000000000004E+00
         &END LENNARD-JONES
         &LENNARD-JONES
           ATOMS Cs Pb
           EPSILON     8.6920055954630968E+01
           SIGMA     3.6699999999999999E+00
         &END LENNARD-JONES
         &LENNARD-JONES
           ATOMS Cs Cs
           EPSILON     2.2644852172126850E+01
           SIGMA     4.5300000000000002E+00
         &END LENNARD-JONES
         &LENNARD-JONES
           ATOMS Pb Pb
           EPSILON     3.3363415533600227E+02
           SIGMA     5.9000000000000004E+00
         &END LENNARD-JONES
         &LENNARD-JONES
           ATOMS Br Cs
           EPSILON     5.3481070753900497E+01
           SIGMA     3.6300000000000003E+00
         &END LENNARD-JONES
         &LENNARD-JONES
           ATOMS Br Pb
           EPSILON     2.0528187276773045E+02
           SIGMA     2.9800000000000000E+00
         &END LENNARD-JONES
       &END NONBONDED
       &CHARGE
         ATOM Cs
         CHARGE     4.1739999999999999E-01
       &END CHARGE
       &CHARGE
         ATOM Pb
         CHARGE     8.3479999999999999E-01
       &END CHARGE
       &CHARGE
         ATOM Br
         CHARGE    -4.1739999999999999E-01
       &END CHARGE
     &END FORCEFIELD
     &POISSON
       PERIODIC  XYZ
       &EWALD
         EWALD_TYPE  SPME
         GMAX  62 62 62
         O_SPLINE  4
       &END EWALD
     &END POISSON
     &PRINT
       &FF_INFO  LOW
         SPLINE_INFO  F
         SPLINE_DATA  F
       &END FF_INFO
     &END PRINT
   &END MM
   &SUBSYS
     &CELL
       A     1.0000000000000001E+02    0.0000000000000000E+00    0.0000000000000000E+00
       B     0.0000000000000000E+00    1.0000000000000001E+02    0.0000000000000000E+00
       C     0.0000000000000000E+00    0.0000000000000000E+00    1.0000000000000001E+02
       PERIODIC  XYZ
       MULTIPLE_UNIT_CELL  1 1 1
     &END CELL
     &COORD
Cs    4.4206204837119144E-02   -1.5534832958841320E+00   -5.8655185790517921E+00
Cs    7.6413382871952684E-01   -7.0956857144050014E+00   -4.1815661510427118E+00
Cs    1.2865383289470926E+00   -1.2110135747152372E+01   -3.7878720115653870E+00
Cs   -5.2592109249329058E+00   -7.0781320995139350E+00   -4.6297173242459957E+00
Br   -6.9251382177888212E+00   -1.4203337082365124E+01   -6.0898231540542129E+00
Br    1.1167997178095687E+01   -2.9081949689680116E+00   -9.1504399832750831E+00
Br   -3.9441789619686900E+00    2.9419440972567679E-01   -1.1859569235402658E+01
Cs   -9.2249992661706781E-01    4.5118567897369726E+00   -7.1739747241075129E+00
Cs    5.9001486212339926E-01   -7.6489966575658985E-01    2.5886708462576041E-01
Cs    5.8521161106627428E-01   -5.5026802015412368E+00    7.5528248398228603E-01
Br   -4.7697497752718014E+00   -3.6408944652026736E+00    3.6878798577109739E+00
Cs   -8.6356946208978673E+00   -6.1026475943496248E+00    1.3886626323983940E+01
Cs    1.4166760211388670E+01   -8.4411261719152080E+00    6.2775096820112286E-01
Cs   -6.3433695309070881E+00    4.4507216324429448E+00    1.0606112748487202E-01
Cs   -2.1764286015336660E+00    1.1616582867428146E+01   -1.3847570953431070E+00
Cs   -1.5816581431205732E+00    5.1084348646216959E+00   -1.4152461752936403E+00
Cs    4.5014561537765835E-01    5.0749081910675442E-01    5.4072347828298923E+00
Cs    2.8688347555680065E+00   -5.3744226891085152E+00    7.4359057545356606E+00
Cs    3.1829483883204830E+00   -1.0275414717176149E+01    7.2939742594785955E+00
Cs   -5.6020228010273074E+00    5.6303029786304943E+00    1.1127866640193053E+01
Cs   -6.2611510466206912E+00   -3.2841173408033177E+00   -1.0554524780267927E+01
Cs   -4.3975486405497843E+00   -1.2325071104185728E+01   -3.3070224698214630E+00
Cs   -5.2135799316691607E+00    1.1507207772038165E-03    5.4802233410152317E+00
Br   -2.2157012038262498E+00   -3.7751029573926274E+00    6.3425125439281771E-01
Cs   -3.3420973759759615E-01    6.6626835806343365E+00    3.7074557154621135E+00
Br    1.2057633000826320E+01   -8.3312105130577141E+00   -9.8439148087510979E+00
Cs    3.3842770055260241E+00   -4.0174375582540405E+00    1.3196338903116466E+01
Br   -2.5625148233263446E+00   -5.7115105850072523E-01    2.5109660565567866E+00
Br   -6.4489029000548328E+00   -2.4226328705740974E+00    1.3627548410691732E+01
Cs    8.8962140850993592E+00    1.1263447420125107E+01   -8.4386726992917680E+00
Cs   -9.7498251927059290E+00   -6.1252911965813661E+00    8.0338259493430062E+00
Cs   -3.6933724512132664E+00   -5.5406241132939638E+00    6.7073397488894102E+00
Cs   -8.4760659784101122E+00    9.1925110068384637E+00   -7.1822420266881393E+00
Br   -8.4059854763149779E+00   -8.9361502945930376E+00    1.2529127515539360E+01
Br   -6.0464819178252549E+00   -9.5569137781952076E+00    8.5653430393192984E+00
Cs   -1.0243848033959102E+01   -9.3490519311379536E+00   -3.1637467661893930E+00
Cs   -8.1541149676279705E+00    3.9695541422293568E+00   -7.0061352589999109E+00
Br   -6.5160111249219952E+00   -6.0803468495126127E+00    1.0504094537088651E+01
Cs    9.9866243841144993E+00    9.9707515067493357E+00    9.3122976720148891E+00
Br   -1.2624863026323490E+01    7.3199057275298136E+00    8.2929365521956004E+00
Br   -5.6557150571231363E+00   -4.7247301098077878E+00   -1.7188571543145530E+00
Cs    1.8913234774917642E-01    2.0196229142186422E+00    1.1116055654498092E+01
Cs    9.5805526116690150E+00    8.2661035483917171E+00   -2.4268126814344937E+00
Cs   -1.0862194623431442E+01   -9.1509651020476941E+00   -9.9359715464728264E+00
Cs    1.1290342886958472E+01    3.2878215538056881E+00    4.8564886287949314E+00
Cs   -1.2971142020713167E+01    8.8734585419349941E+00   -7.9417300334334024E+00
Cs    1.4760180076035128E+01   -6.9408352381089555E+00    7.3669331636120390E+00
Cs    5.1435773910856009E+00   -7.1335714227360345E+00   -1.0739300778205315E+01
Cs    9.9122555212214412E+00   -8.6548796693414705E+00    7.3070406487979511E+00
Cs   -4.3141398160056124E+00   -1.3317781763397342E+01    1.9333155152590580E+00
Cs    6.3860472334566767E+00   -1.2583449419309007E+01   -9.7946680307585510E+00
Cs    1.1958002847525739E+01    7.7896465749637729E+00   -7.3816208839645903E+00
Cs    8.7796225121006355E+00    1.5112740265095866E+01    2.1187947047045177E+00
Cs    9.9871850912404909E+00    6.2697608624421441E+00   -1.2683824558972514E+01
Cs    5.6566439261355350E-01   -7.6993115594464649E+00   -9.6227830431734063E+00
Cs   -1.1854521795346068E+01   -2.9420398087066197E+00   -4.8192648390290733E+00
Cs    7.9285871325289952E+00   -3.2726854726384955E+00    1.1403103108050708E+01
Cs    1.2402114535753901E+01   -1.8130884479460212E+00    6.2640920426507876E+00
Cs   -1.9147235402762910E+00   -7.5796540154809025E+00    1.5265813287854387E+01
Cs   -9.5116345498345722E-01   -1.8006611009754501E+00   -1.1255288600396653E+01
Cs   -2.1216901893790427E+00    1.1982318219311221E+01    4.0392121240373413E+00
Cs   -2.3990090907397295E+00    3.8589058720689593E+00   -1.2783252522780149E+01
Cs    5.9321345705655641E+00    3.7909385258403600E-01   -6.3536869413718557E+00
Cs    6.1847502182456635E+00   -6.5342027728381709E+00   -5.5930926077008625E+00
Cs   -2.8370829203205719E+00   -1.1026175720961085E+01    8.1354897140200020E+00
Cs   -1.0349810631266772E+01   -1.3190724495949102E+00    6.3618547121079700E+00
Cs    4.8352329168129362E+00   -1.1576861341309042E+00   -1.2042962431221545E+01
Cs    3.4281573046014371E+00    1.1593168727899700E+01   -1.3314217288056170E+01
Cs   -3.8595385954566512E-02    7.8620537152113830E+00    1.0876948779890988E+01
Cs   -7.4808301877471539E+00    1.0135852109844780E+01    4.1362364318438596E+00
Cs    3.4096234933568410E+00    1.1051443943369675E+01   -8.6879435134263794E+00
Cs    4.9347062666727659E+00    5.9437369965422473E+00   -8.2433317190328719E+00
Cs    6.6138059081174250E+00    8.6663766649502361E-01   -9.4678004815030203E-01
Cs    6.7988048437430502E+00   -5.5186783823088899E+00   -3.0451465414870055E-01
Cs    9.0747031721534768E+00   -1.0949365903380166E+01    2.0489964473232032E+00
Cs    3.6815966926805173E+00    5.0319356314228330E+00   -1.3159145598522969E+01
Cs   -6.8773984407333337E+00    5.3248574973011866E+00    5.2896148168205697E+00
Cs   -5.3688141991055671E+00   -8.3392371533184644E+00   -1.0090030190126152E+01
Cs    4.3916113982912197E+00    6.2519948648063020E+00   -2.2088086709269517E+00
Cs    6.4116243503087169E+00    2.0704417741813184E+00    5.4288462863001508E+00
Cs    7.9265980743041649E+00   -3.5969059530663787E+00    6.3152955265806270E+00
Cs   -6.7322239440211229E+00    9.8516545900554728E+00   -9.1550536090899914E-01
Cs    1.1112813319801372E+01    1.8248273398132870E+00   -1.0431428192615018E+00
Cs   -5.8284512506308532E+00   -1.4780252773932845E+00    1.1284614370247432E+00
Cs   -1.1673712503787394E+01    5.0487127101783633E+00    6.1857474145650526E+00
Cs   -5.1091928736377179E+00    7.9881408593891678E-01    1.1759241283378540E+01
Cs    3.2685831487902881E+00    1.3901498902980631E+01    3.4655301263623888E+00
Cs    4.9581761614895639E+00    7.6574662850487840E+00    4.8643027285521594E+00
Cs    6.5679844119352273E+00    2.4640263198256962E+00    1.1153685796591349E+01
Cs    3.8857316825213331E+00    1.2389935949362400E+01   -2.8011141290471659E+00
Cs    1.0893519340278470E+01    7.6409137176604991E-01   -6.7380545439058803E+00
Cs    1.1422873348262177E+01   -4.7281414136326978E+00   -6.4316663705456403E+00
Cs    1.0124044558368057E+01   -8.2420573003835855E+00    1.2517487652001940E+01
Cs    7.9978387692195207E+00    1.4593890446068622E+01   -3.3662626386912784E+00
Cs   -1.2459915960225930E+01    5.4358127404041507E+00    1.1245156130493994E+01
Cs   -8.6194035858589277E+00    2.4253436713646734E+00   -1.2305929562443954E+01
Cs   -1.2276804762489510E+01    1.0245809736363043E+01   -1.7875327699875345E+00
Cs   -3.0098929812850899E+00   -2.9558997619654201E+00    1.3832974556414271E+01
Cs   -2.0379312426590817E+00   -1.2323070315301065E+01    1.3038464255671217E+01
Cs    5.0629575693369784E+00    8.7309351255744918E+00    1.0059809484694657E+01
Cs    1.1895569880705695E+01   -3.5490747466890600E+00   -7.4842859602835721E-01
Cs   -1.0760283504699517E+01   -1.7371216619487324E+00    1.2885121015339265E+00
Cs   -8.6597325609938824E+00    7.5465479073096926E+00   -1.3220233666898107E+01
Cs   -1.2603374727702015E+01    3.0981413496317085E+00   -5.5238978397283256E-01
Cs   -1.2214466452863688E+01   -1.3216347391750801E+01   -1.2223698000817689E+00
Cs   -1.0062292551340038E+01   -7.8333801470840632E+00    2.4068049655156174E+00
Cs   -4.3691189165392759E+00   -6.7950708401051685E+00    1.6321861895979710E+00
Cs   -8.4009044731013134E+00   -1.1448058973708816E+01    1.0408306096832808E+01
Cs    1.2903395186415532E+01   -9.4624937832403044E-01    1.1578026454221739E+01
Cs    1.0041964117669831E+01    8.7502577900882841E+00    4.0342203515665984E+00
Cs   -1.4719837003936540E+01    1.6669834919292523E+00   -5.7937086718306725E+00
Cs   -6.9955235860793392E+00   -2.2309147373962057E+00   -5.3974569098662961E+00
Cs   -1.0069107710690041E+01   -1.2062432492607584E+01    3.2374499324851502E+00
Cs    9.7542498956714407E+00   -7.3963582428644514E+00   -1.2141322902107744E+01
Cs   -4.3904305788399745E+00   -1.3596533755215527E+01   -8.2054770140843463E+00
Cs   -2.8088949620434409E+00    9.6025991094076186E+00   -1.3486701107159073E+01
Cs    1.1359936835669493E+00   -1.3205649957759308E+01   -8.3900677218614508E+00
Cs   -2.2016646854824069E+00    9.4986592426307119E+00   -8.0771177379582024E+00
Cs   -7.1169259426557083E+00    1.3105927719744193E+01    6.9879366154444131E+00
Cs    2.5811519621348888E+00   -1.0711380482727815E+01    2.1401087390646096E+00
Cs   -1.2781005840765053E+01   -3.1281707872423556E+00   -1.0445544378468824E+01
Cs   -1.2231385714355817E+01    1.0362173206860126E+01    4.6790007567369383E+00
Cs    7.7807853671738858E+00   -1.1059549928491142E+01   -4.0474230257317094E+00
Cs    1.0548778218393487E+01    1.1290637062895253E-01   -1.2120752317025920E+01
Cs   -9.5198761059747750E-01    1.2687389001793056E+01    9.5831754755940306E+00
Pb    3.4041252216699571E+00   -3.7227851585979197E+00   -2.5648468434544545E+00
Pb    4.4507558179002000E+00   -9.1471012869169055E+00   -1.5340300409058392E+00
Pb   -7.8250893982571101E+00   -3.9329615083189160E+00    4.6281673945191795E+00
Pb   -1.3072888829714409E+00   -1.0003347213135896E+01   -8.5138716154576344E-01
Pb    1.0370726026506536E+00    8.5407684722947117E+00   -5.1341252079952087E+00
Pb    1.9953584150667016E+00    2.0678376968734695E+00   -3.9037819528599838E+00
Pb    3.5338138865826139E+00   -2.6666652712377594E+00    3.2962940166175296E+00
Pb    5.3586644935174235E+00   -7.9256747989018477E+00    4.2237534704355237E+00
Pb   -4.1742644152892163E+00    8.4652400860991275E+00    1.6683682641013400E+00
Pb    1.4634206124545677E+00    9.7254166733332141E+00    4.3682011943945015E-01
Pb    2.3233064172270281E+00    3.9043669160373069E+00    1.7215318220089635E+00
Pb    4.2366864216929061E+00   -1.1586450049599561E+00    9.0834620315179215E+00
Pb    5.9275901563923936E+00   -6.7647394625812236E+00    9.9601553800710825E+00
Pb   -3.2408741780594017E+00    2.6129023493155259E+00    2.0936559476866190E+00
Pb    1.9545366456398203E+00    1.0733489576070445E+01    6.5514844163134889E+00
Pb    2.8405318293553656E+00    4.4050384902641522E+00    7.6681667120859007E+00
Pb   -1.4915359478019472E+00   -1.8494260531404927E+00    9.3068893296037434E+00
Pb   -6.9915866551220418E+00   -9.4544495153033772E+00    5.9906817944607234E+00
Pb   -9.5657479592477728E+00    8.7244001266844284E-01   -2.8584363558328749E+00
Pb   -2.8721307660271278E+00   -4.6578640959040571E+00   -8.1627118551398183E+00
Pb   -6.8667086067528116E-01   -8.8722403236291445E+00    4.9403005718537925E+00
Pb   -4.7798574396387732E+00    7.5984860844651578E+00   -4.2323008298650162E+00
Pb   -1.4646341171514829E-02   -7.4701120998129147E+00    1.0516825706461928E+01
Pb   -8.6017328350153015E+00   -4.4521852930523185E+00   -1.3360746944439579E+00
Pb   -7.5863059349897428E+00   -1.0687412751969262E+01   -8.2805966969234784E-02
Pb   -3.8840994101630240E+00    1.4866496673701559E+00   -3.6735889992276070E+00
Pb   -5.5605305026788807E+00   -8.6481250129607510E+00    1.2090502036479863E+01
Pb   -8.8416464168452489E+00   -5.8274749280061009E+00   -7.4431344018097043E+00
Pb    8.3533457239783928E+00   -3.4386580783651439E+00   -9.5310598486923261E+00
Pb    9.3045316403925717E+00   -9.1636814617033426E+00   -7.8677078052653489E+00
Pb   -2.0852431144657495E+00   -1.0444360925525963E+01   -6.9071482873572601E+00
Pb   -1.1000557237625367E+01    5.5298278013163209E+00   -9.8902536877577170E+00
Pb    2.8772704254415307E+00   -3.9155538579067382E+00   -8.6386932209453189E+00
Pb    3.5417602231466043E+00   -9.9460510445683621E+00   -7.1478198946964726E+00
Pb   -4.1953149819665709E+00    9.3992069885904705E-01   -9.1329191876917317E+00
Pb    6.3888365066070174E-01    7.8057127075088104E+00   -1.0891891943322783E+01
Pb    1.8658465971809277E+00    1.9809555737105311E+00   -9.8002540556279616E+00
Pb    8.6319356408317738E+00   -2.2027291210008926E+00   -3.7039313570773720E+00
Pb    1.0244909414032719E+01   -7.9393355294972849E+00   -2.1778721065636861E+00
Pb   -7.4712848281079243E+00   -3.3551749056584916E+00    1.0404104890118274E+01
Pb    6.7883443852108591E+00    8.8435222668456301E+00   -1.1340944492694810E+01
Pb   -1.0062446461222063E+01   -3.1644168722708615E-01   -8.6860861211881755E+00
Pb   -3.8421655289994296E+00    9.5074024847894769E+00    7.5830242041819638E+00
Pb    6.8019565684440817E+00    9.5908832035813010E+00   -5.2820663940485062E+00
Pb    8.1184963688598408E+00    3.8958668904377718E+00   -4.1812804140917796E+00
Pb    9.4354848453450852E+00   -7.2746478339902410E-01    2.6813818914095129E+00
Pb    1.1220070305852772E+01   -6.4598993323245795E+00    3.7081991252590529E+00
Pb    7.9119398748668601E+00    2.7410495943900326E+00   -9.8269142202119681E+00
Pb   -3.1634402403816160E+00    3.5188367918485288E+00    8.0913791939935287E+00
Pb    7.5074842176610748E+00    1.1145411057576862E+01    2.0404622925692090E-01
Pb    7.9800449844195374E+00    4.8003094040170415E+00    1.6538345331405269E+00
Pb    9.6950363788879450E+00    6.2559186224722552E-01    8.4412564516602977E+00
Pb    1.1470767977275301E+01   -5.0213553947269736E+00    9.6391105209062236E+00
Pb    7.4429814195589223E+00    1.2299245304501492E+01    6.0656378354899667E+00
Pb    8.6850642952377388E+00    6.2760597534419151E+00    7.7973562735044215E+00
Pb   -8.9090249324877355E+00    2.5345345615924368E+00    9.0541785704953899E+00
Pb   -2.0393046052798356E+00   -3.2646317565031402E+00    3.5981419947326652E+00
Pb   -1.0310895120455111E+01    7.4328746019425411E+00    1.8581460234178200E+00
Pb   -1.0764818607834370E+01    6.6809265786081271E+00   -3.9276197247459486E+00
Pb   -7.8913650476203854E+00   -1.1703501923184527E+01   -5.9846609589954305E+00
Pb   -5.1153658105292052E+00    6.7822458497357561E+00   -1.0338082473018819E+01
Pb   -8.9719857213747929E+00    1.5375694121102670E+00    2.9921968369183913E+00
Pb   -9.9590050600017239E+00    8.5212199844616414E+00    7.9916635059887104E+00
Pb   -2.4227948909241550E+00   -4.1092874066431033E+00   -2.2355142999461028E+00
Br    5.3551040142890782E-01   -4.2228304589742587E+00   -2.3291904956644496E+00
Br    3.6323726014476585E+00   -3.6117531758293704E+00   -5.4494979277197659E+00
Br    2.6818053780632582E+00   -7.1266153130960830E-01   -3.1810774370913992E+00
Br    1.5431075297028702E+00   -9.7780291827843548E+00   -1.0809780032458454E+00
Br    3.9586516888347418E+00   -1.0114039532819577E+01   -4.1555586859919202E+00
Br    3.6570807758932942E+00   -6.4455564691257949E+00   -2.0977957738261863E+00
Br   -2.6483674704866007E+00   -5.1783166061679964E+00   -4.9283316453551409E+00
Br   -7.7075591321280541E+00   -3.9562730620790156E+00    7.5703169713054432E+00
Br   -3.4310048337900851E+00   -1.4152517429530018E+00   -3.2027611481795737E+00
Br    5.5696327193056021E+00   -1.1725311772500053E+01   -1.1378094192560650E+00
Br    1.2285553626783138E+01   -3.7702039710155399E-01    2.7596766966493007E+00
Br   -4.0914738621208526E+00   -1.0285721828059810E+01   -1.2421163825967650E-01
Br   -1.0596283623791891E+01   -4.1150076411900898E+00    5.3980426537021957E+00
Br   -8.5890426757748894E+00   -4.7981092293556777E+00    1.7809941817783570E+00
Br    1.4312370698934714E+01   -6.8527147437316112E+00    3.9991811699169304E+00
Br   -1.9164443976199497E+00    8.7142983051476559E+00   -4.7888809329221544E+00
Br    3.6466516976657659E-01    7.1704955945461775E+00   -7.8207741919393241E+00
Br    7.9951108613805533E-01    1.1194537789429097E+01   -6.4837002649046944E+00
Br   -8.8732811318963645E-01    1.4394476811287702E+00   -3.5889786220782356E+00
Br    2.2827248269092841E+00    2.0968749506668627E+00   -6.7355412701145960E+00
Br    1.0021609675165046E+00    5.3670547482881048E+00   -4.7165536877353622E+00
Br    7.1772575534794625E-01   -2.6220286071957202E+00    3.6602610251234906E+00
Br    3.1914812904608989E+00   -3.0680985021023979E+00    3.2991350593243579E-01
Br    2.7028295992733207E+00    9.7501546014914675E-01    2.4470777889306925E+00
Br    2.2940829376392866E+00   -8.4792944461153272E+00    4.9578141559647388E+00
Br    4.7469733482399556E+00   -8.2146004537933432E+00    9.0961521015672175E-01
Br    4.0305199716449494E+00   -5.2570321105952482E+00    4.1516980540504669E+00
Br   -7.8985269014812589E+00    5.6264260418249386E+00   -1.0229341855001344E+01
Br   -5.5288467087067055E+00    6.6771768265414124E+00   -1.3156466949039263E+01
Br    5.9597820529461352E+00   -1.0610220349396256E+01    3.7869051993079323E+00
Br   -5.1646034459777717E+00    9.9509165132848292E+00   -1.1056210848826725E+01
Br   -4.6848306917168641E+00    3.9275926514266155E+00   -1.0243863696185750E+01
Br   -8.1655495222252998E+00   -1.1852158423273262E+00    3.8056678523366392E+00
Br   -1.6722154133902418E+00   -9.7915194575822149E+00   -3.9385221375916393E+00
Br   -7.0700692536727354E+00    7.9856160214909888E+00    1.7021407990933934E+00
Br   -4.5502288412806475E+00    7.3620836713219182E+00   -1.0530440518639925E+00
Br   -4.3766461534646313E+00    1.1291013767844330E+01    1.1721506412025271E+00
Br   -1.6241036016975974E+00    8.7076915490967242E+00    7.3810125304444008E-01
Br    8.1669989953828304E-01    1.0089734674951076E+01   -2.6495379224037543E+00
Br    6.7276946168470886E-01    1.2633620726564763E+01    7.4487954634432330E-01
Br   -6.7280957778684913E-01    3.7832002590071836E+00    2.1891331359775021E+00
Br    1.9684921699858102E+00    2.5981099620507537E+00   -1.0706465410240269E+00
Br    1.6291001101400822E+00    6.4272433429498177E+00    7.9377225634122472E-01
Br    1.2074046958254701E+00   -1.1934722826008555E+00    8.9999485927070282E+00
Br    3.9918276250338822E+00   -2.3013147624112782E+00    6.3492272278204496E+00
Br    3.4032338371090667E+00    1.6648647483374868E+00    8.4627416673076858E+00
Br    2.6995218869985269E+00   -7.5548755964592242E+00    1.0438529240559200E+01
Br    5.3113167426188630E+00   -7.6034164105283857E+00    7.0672309860751215E+00
Br    4.7526993931828212E+00   -3.9382619820608786E+00    9.8095832007097314E+00
Br   -1.1690853272018504E+01    7.5567466156660679E-01    3.0794086280493769E+00
Br   -9.5667658924869645E+00    1.6325140831842457E+00    3.4556221260099984E-01
Br    7.8631563222252483E+00   -9.2210569786622276E+00    1.0108970913600368E+01
Br   -9.3293228425928287E+00    4.7619735528284082E+00    2.5626463877136079E+00
Br   -7.6003938342804567E+00   -7.1669987011512970E-01    9.1817765378747449E+00
Br   -2.0951040469541042E+00   -7.0038343108180534E+00   -1.1854447678427238E+00
Br   -6.1261901426587455E+00    1.8593080966897304E+00    2.3775537255106749E+00
Br   -3.1578563978595700E+00    2.1587702092452510E+00   -6.9053270559689772E-01
Br   -4.1018315842256730E+00    5.6640046651711335E+00    2.3123625498528542E+00
Br   -1.0848626674914557E+00    1.0336431664092970E+01    6.7836349569509782E+00
Br    1.3980407169962243E+00    9.6163856781333639E+00    3.3630895983528353E+00
Br    7.3517949430117857E-01    1.3561635448381184E+01    6.1895697777616068E+00
Br   -1.2846513220254716E-01    4.1033020361847914E+00    7.6441040965833924E+00
Br    3.3462153429816714E+00    4.2194391343750226E+00    4.8179700805028709E+00
Br    2.7069644946891724E+00    7.8489604244591584E+00    7.6226076118053188E+00
Br   -4.4176209923228829E+00   -2.2490697724470547E+00    9.9972210842539866E+00
Br    4.4320737440699896E+00   -7.1704388291251309E-01    1.1794359004842882E+01
Br   -2.2159094685424772E+00   -2.2641981766658605E+00    6.2667681452959396E+00
Br   -2.4202586561213839E+00    8.3608778850248844E-01    8.9694722797391222E+00
Br   -1.3357487880910448E+00   -1.2794853468590347E+01   -1.9359488927659019E+00
Br    6.2426305772147437E+00   -6.1705745591606957E+00    1.2854976524734699E+01
Br   -1.2379787228064004E+01    6.6461845479751216E-02   -2.9987954624473563E+00
Br   -1.6705286060500389E-02   -1.1538276943919028E+01    5.7777348330231293E+00
Br   -1.1670417276306679E+01   -3.7741238854141774E+00   -1.4945153561361768E+00
Br    2.2957176729672435E+00    1.1063206651051756E+01    9.5430267887416989E+00
Br   -8.7439518375665184E+00   -5.1769620113263395E+00   -4.2127544487986297E+00
Br   -8.7829001652863887E+00   -1.4394883329455654E+00   -1.6433450288735061E+00
Br    2.1307110814750692E+00    4.7048902315719259E+00    1.0694354608018170E+01
Br   -7.9291935953004664E+00    7.2370202178493681E+00   -3.8315978792750891E+00
Br   -5.0740064385210859E+00    7.7611324208072805E+00   -7.5346320642884361E+00
Br   -4.7776526523154841E+00    1.0582345626965862E+01   -3.5382969542463676E+00
Br   -6.5510636137018183E+00    1.2908668209105296E+00   -3.3540771474884856E+00
Br   -9.4809949692651863E+00   -9.7675915642123829E+00    7.5387174895130471E+00
Br   -4.4088219718741728E+00    1.9417809016117979E+00   -6.6101232812585033E+00
Br   -5.6020999111957535E+00   -5.0988990451622254E+00   -7.4778711040071792E+00
Br   -3.3871566117311942E+00   -5.4834131145887612E+00   -1.0784289502606976E+01
Br   -3.0273801709809751E+00   -1.9106179283618174E+00   -8.6963233354920977E+00
Br   -2.5242866320232538E+00    4.3214225648290130E+00    1.0895558809451066E+01
Br   -2.5942724113376778E+00   -8.4304010745272482E+00    1.1085479396346225E+01
Br    1.2094664472035922E-01   -8.8466825711718453E+00    8.0385019367356065E+00
Br   -5.0816707873191846E-01   -4.7505372577531970E+00    9.4566194631879483E+00
Br   -7.4982927409063738E+00   -1.0042839273172563E+01    2.9312445984597706E+00
Br   -7.7458422144987908E+00   -6.8647669244309650E+00    5.0732090688250615E+00
Br   -1.0018760504064145E+01    8.8357194854586005E+00    1.0825642847594622E+01
Br    9.6667625928425025E+00    1.3144421490367153E+01   -5.7606210518110312E-01
Br   -5.4820793154414416E+00   -7.5803541725906909E+00    1.4938493304435505E+01
Br    9.6356709151830593E+00    1.0034581152909954E+01   -5.4887174291536427E+00
Br    1.0915069015231442E+01    5.0242014725648501E+00    1.3197659178774030E+00
Br   -8.1889476507243568E+00    2.9945907118891917E+00    1.2086704583389876E+01
Br   -1.2141122128723406E+01   -6.0172636897404628E+00   -8.5456617352098903E+00
Br    1.2330008850763884E+01    5.5608789045156692E-01    8.6780387971462627E+00
Br   -4.0250281586743011E+00   -8.8982556779134452E+00    5.4490491806324810E+00
Br    5.5412928852084917E+00   -3.9033625946338519E+00   -9.4967993324365469E+00
Br    8.4188740808677327E+00   -4.2186326154920524E+00   -1.2260440173755299E+01
Br    1.4326628530918580E+01   -3.5703567081681129E+00    9.0575274628466751E+00
Br    7.7677280425015827E+00   -4.0999192697167486E-01   -9.2107238750435538E+00
Br   -4.7353125162866085E+00   -1.1243435296956410E+01    1.1813794943088569E+01
Br   -6.2110132503356441E-01   -9.0574935575129931E+00    1.9062262125652374E+00
Br   -1.5591154242030731E+00   -6.2941446560653471E+00    3.9500604082077282E+00
Br    6.2994711449847376E+00   -9.3522921003852488E+00   -7.3010880694935931E+00
Br   -5.1000593389554245E+00   -1.0459754616657092E+01   -6.2918347491844839E+00
Br    7.8883249440743679E+00   -9.4764330724570982E+00   -1.0454625107132339E+01
Br    8.9339738463622798E+00   -6.2634496784545997E+00   -8.3342184980161225E+00
Br    6.4074761734359320E-01   -9.4604667982735400E+00    1.3017205276761342E+01