 # Version information for this restart file 
 # current date 2021-06-17 12:39:40.011
 # current working dir /user/ub2042/exercises/2_fitting/MM_MD_workdir/md_settings.003
 # Program compiled at                              Thu Apr 22 21:44:59 EDT 2021
 # Program compiled on                cpn-k07-07-02.compute.cbls.ccr.buffalo.edu
 # Program compiled for                                                    local
 # Source code revision number                                       git:36754bb
 &GLOBAL
   PRINT_LEVEL  LOW
   PROJECT_NAME cp2k
   RUN_TYPE  MD
 &END GLOBAL
 &MOTION
   &MD
     ENSEMBLE  NVT
     STEPS  10000
     TIMESTEP     2.4999999999999996E+00
     STEP_START_VAL  5000
     TIME_START_VAL     1.2500000000000537E+04
     ECONS_START_VAL    -1.4031592531677251E+01
     TEMPERATURE     3.0000000000000000E+02
     &BAROSTAT
       PRESSURE     1.0100000000000000E+00
       TIMECON     9.9999999999999982E+03
     &END BAROSTAT
     &THERMOSTAT
       TYPE  CSVR
       &CSVR
         TIMECON     9.9999999999999982E+03
         &THERMOSTAT_ENERGY
              -1.8015644129364006E-01
         &END THERMOSTAT_ENERGY
         &RNG_INIT
Wiener process for Thermostat # 1        1 F T F   1.3298801444298969E-01        2410222925.0        2863843072.0        4179475288.0         853044666.0         507103514.0        1614793076.0             12345.0             12345.0             12345.0             12345.0             12345.0             12345.0             12345.0             12345.0             12345.0             12345.0             12345.0             12345.0
         &END RNG_INIT
       &END CSVR
     &END THERMOSTAT
     &AVERAGES  T
       &RESTART_AVERAGES
         ITIMES_START  1
         AVECPU     1.7490800436586126E-02
         AVEHUGONIOT     0.0000000000000000E+00
         AVETEMP_BARO     0.0000000000000000E+00
         AVEPOT    -1.4423867544973705E+01
         AVEKIN     4.6847333936757352E-01
         AVETEMP     2.3764177315777005E+02
         AVEKIN_QM     0.0000000000000000E+00
         AVETEMP_QM     0.0000000000000000E+00
         AVEVOL     6.7483345830907775E+06
         AVECELL_A     1.8897261328855762E+02
         AVECELL_B     1.8897261328855762E+02
         AVECELL_C     1.8897261328855762E+02
         AVEALPHA     9.0000000000000000E+01
         AVEBETA     9.0000000000000000E+01
         AVEGAMMA     9.0000000000000000E+01
         AVE_ECONS    -3.7728186008316786E+00
         AVE_PRESS     0.0000000000000000E+00
         AVE_PXX     0.0000000000000000E+00
       &END RESTART_AVERAGES
     &END AVERAGES
     &PRINT
       &ENERGY  SILENT
         &EACH
           MD  10
         &END EACH
       &END ENERGY
     &END PRINT
   &END MD
   &PRINT
     &TRAJECTORY  SILENT
       &EACH
         MD  10
       &END EACH
     &END TRAJECTORY
     &CELL  SILENT
       &EACH
         MD  10
       &END EACH
     &END CELL
     &VELOCITIES  SILENT
       &EACH
         MD  10
       &END EACH
     &END VELOCITIES
     &FORCES  SILENT
       &EACH
         MD  10
       &END EACH
     &END FORCES
     &RESTART  SILENT
       &EACH
         MD  10
       &END EACH
     &END RESTART
   &END PRINT
 &END MOTION
 &FORCE_EVAL
   METHOD  FIST
   &MM
     &FORCEFIELD
       VDW_SCALE14     1.0000000000000000E+00
       EI_SCALE14     1.0000000000000000E+00
       SHIFT_CUTOFF  T
       DO_NONBONDED  T
       IGNORE_MISSING_CRITICAL_PARAMS  T
       &SPLINE
         R0_NB     2.5000000000000000E-01
       &END SPLINE
       &NONBONDED
         &LENNARD-JONES
           ATOMS Br Br
           EPSILON     1.2630795322675199E+02
           SIGMA     3.6900000000000004E+00
         &END LENNARD-JONES
         &LENNARD-JONES
           ATOMS Cs Pb
           EPSILON     8.6920055954630968E+01
           SIGMA     3.6699999999999999E+00
         &END LENNARD-JONES
         &LENNARD-JONES
           ATOMS Cs Cs
           EPSILON     2.2644852172126850E+01
           SIGMA     4.5300000000000002E+00
         &END LENNARD-JONES
         &LENNARD-JONES
           ATOMS Pb Pb
           EPSILON     3.3363415533600227E+02
           SIGMA     5.9000000000000004E+00
         &END LENNARD-JONES
         &LENNARD-JONES
           ATOMS Br Cs
           EPSILON     5.3481070753900497E+01
           SIGMA     3.6300000000000003E+00
         &END LENNARD-JONES
         &LENNARD-JONES
           ATOMS Br Pb
           EPSILON     2.0528187276773045E+02
           SIGMA     2.9800000000000000E+00
         &END LENNARD-JONES
       &END NONBONDED
       &CHARGE
         ATOM Cs
         CHARGE     4.1739999999999999E-01
       &END CHARGE
       &CHARGE
         ATOM Pb
         CHARGE     8.3479999999999999E-01
       &END CHARGE
       &CHARGE
         ATOM Br
         CHARGE    -4.1739999999999999E-01
       &END CHARGE
     &END FORCEFIELD
     &POISSON
       PERIODIC  XYZ
       &EWALD
         EWALD_TYPE  SPME
         GMAX  62 62 62
         O_SPLINE  4
       &END EWALD
     &END POISSON
     &PRINT
       &FF_INFO  LOW
         SPLINE_INFO  F
         SPLINE_DATA  F
       &END FF_INFO
     &END PRINT
   &END MM
   &SUBSYS
     &CELL
       A     1.0000000000000001E+02    0.0000000000000000E+00    0.0000000000000000E+00
       B     0.0000000000000000E+00    1.0000000000000001E+02    0.0000000000000000E+00
       C     0.0000000000000000E+00    0.0000000000000000E+00    1.0000000000000001E+02
       PERIODIC  XYZ
       MULTIPLE_UNIT_CELL  1 1 1
     &END CELL
     &COORD
Cs   -9.8059835131749640E-01   -8.5063486541833411E-01   -5.5808596371218888E+00
Cs   -3.0190539226237215E-02   -6.9788253204370649E+00   -5.8201894174954711E+00
Cs    1.8022003149048124E-01   -1.2042962520019806E+01   -3.5277069347533017E+00
Cs   -5.9974011454853065E+00   -6.9104606409647129E+00   -4.5464564098453586E+00
Br   -8.4728887942743292E+00   -1.2960541402059123E+01   -7.2013413479534201E+00
Br    1.1870755513842038E+01   -1.3647898127393265E+00   -9.2693146862755516E+00
Br   -3.6403789727046427E+00    1.8348011250519294E+00   -1.2152238589158657E+01
Cs   -4.8780482904900208E-01    4.9773435130084067E+00   -6.8249191505663678E+00
Cs    3.4634808754183882E-01    7.2322089879306184E-01    1.7847495607529201E-01
Cs    1.0142605265589444E+00   -5.2096519331808189E+00   -3.3356307217412290E-01
Br   -5.3460595773457200E+00   -2.7665550714973821E+00    3.8388114187623334E+00
Cs   -1.1850279702347105E+01   -4.7817333187891178E+00    1.1713129153030762E+01
Cs    1.1510818393376267E+01   -1.0227652883348098E+01    4.0514853815086377E-01
Cs   -5.9180400140049052E+00    5.3927752712652630E+00   -8.5781477155223010E-02
Cs   -2.6867022864993773E-01    1.1176181091269921E+01   -1.0602310407343243E+00
Cs   -1.2498477973588149E+00    6.6021602200478950E+00   -1.4229828785933105E-01
Cs    1.0961512294066841E-01    5.1757745254539356E-01    6.2031340793285308E+00
Cs    1.3790269089885843E+00   -5.5523182247076708E+00    5.9597282404988094E+00
Cs    1.4413312668747229E+00   -1.1606307365815121E+01    8.4835319551415367E+00
Cs   -6.2007035165239861E+00    6.1964521346813131E+00    1.0788639252847505E+01
Cs   -6.0383016968730674E+00   -1.7954007166022921E+00   -1.0696577586741707E+01
Cs   -5.6839701341626965E+00   -1.2041054225093669E+01   -4.6686205641083385E+00
Cs   -6.2534793083008262E+00    1.3036543807420103E-01    6.7056034207267921E+00
Br   -2.7558095125112154E+00   -3.3199948330714073E+00    4.1800400065809795E-01
Cs   -2.9572601025734960E-02    5.0050046153356593E+00    5.5575244034795750E+00
Br    1.2909518566076420E+01   -7.7862349287775938E+00   -8.8426480683840882E+00
Cs    8.5825662192965047E-01   -6.0237931176041384E+00    1.1538952779075156E+01
Br   -2.2880576209337646E+00    1.5455897763024629E-01    2.4296349825679489E+00
Br   -8.0081905452481283E+00   -3.2005504430701897E+00    1.2373383946579880E+01
Cs    9.5130648030745739E+00    1.1948163970725480E+01   -7.8876195630102428E+00
Cs   -1.0149099695347775E+01   -6.0417684419186308E+00    6.5711391354061650E+00
Cs   -4.8358144221118220E+00   -5.8082482780675360E+00    6.1381183766718737E+00
Cs   -6.8591151599617604E+00    1.0881225959321400E+01   -5.7811736216856042E+00
Br   -1.1017917311752914E+01   -7.9345770218284279E+00    1.1428744308707829E+01
Br   -7.9178589351161328E+00   -8.5093155202301851E+00    7.0581535258594545E+00
Cs   -1.1552787168766249E+01   -7.5952280431902750E+00   -3.8720921813764040E+00
Cs   -6.8213955297605420E+00    5.1274901587368404E+00   -5.9664949977836184E+00
Br   -8.0076097771470174E+00   -6.0836022183702028E+00    9.6342347528519117E+00
Cs    1.1252881101341323E+01    7.5507768024859514E+00    1.0267267062834213E+01
Br   -1.2324761115662728E+01    7.9167583004423907E+00    7.6943725903724598E+00
Br   -5.8011662531728687E+00   -3.6157011886605663E+00   -2.2987512139518502E+00
Cs    6.1085619949280456E-01   -1.9109260979860640E-01    1.1864375947375057E+01
Cs    1.2039990408909041E+01    6.9250311966728075E+00   -2.8185904849018417E+00
Cs   -1.1050222480122853E+01   -7.2655986868543021E+00   -1.0250825586731235E+01
Cs    1.1946288691301401E+01    1.6684627685090159E+00    5.5220350479881670E+00
Cs   -1.1638706172947916E+01    1.0461913559810078E+01   -7.0785362638870239E+00
Cs    1.3278080849166541E+01   -9.8631857417430027E+00    7.1260285713922134E+00
Cs    7.3755575622096101E+00   -6.0860734224871642E+00   -1.1244588461268158E+01
Cs    7.3031583552427373E+00   -1.0382850021664014E+01    6.1650477229683327E+00
Cs   -5.0587843883530974E+00   -1.1857334996075487E+01    8.5311825390164164E-01
Cs    5.6866479351814485E+00   -1.2473908719537693E+01   -1.1268918067312917E+01
Cs    1.1910377813046551E+01    5.9857008685870801E+00   -7.4835956851900711E+00
Cs    1.0025796288846113E+01    1.2416171093821246E+01    4.7028467606087307E+00
Cs    1.0723330823638578E+01    6.3455041260462677E+00   -1.2487588207916909E+01
Cs    9.4277489818996107E-01   -6.8948612856127385E+00   -1.0440732562315862E+01
Cs   -1.1892411956767926E+01   -2.4387788796024221E+00   -4.6622458680886698E+00
Cs    6.5032126049619983E+00   -5.1440434780042983E+00    1.1825439054772795E+01
Cs    1.1708552911500332E+01   -4.3510653579671379E+00    5.4040015106410486E+00
Cs   -1.0350198335147255E+01   -1.0018768091409962E+01    1.4061127044556383E+01
Cs   -1.2663139353818670E-01   -7.7307568080286837E-01   -1.1530973746587106E+01
Cs   -8.9356512372422947E-01    1.1760176017399846E+01    4.8803814853967804E+00
Cs   -5.4576808653785247E-01    5.7176436468067440E+00   -1.2405757748349588E+01
Cs    5.1736446255899367E+00   -3.7757279189834153E-01   -6.3613602997448515E+00
Cs    6.0091378651512279E+00   -6.2960568486609061E+00   -5.9147637318572821E+00
Cs   -4.7787504076505067E+00   -1.0846436669846161E+01    7.2560350483389398E+00
Cs   -1.1058131965723691E+01   -8.8597876554332700E-01    5.9618324765060473E+00
Cs    5.7464507599304735E+00   -4.1726628269344435E-01   -1.1583691169597273E+01
Cs    4.6623570078752721E+00    1.0196138539533253E+01   -1.2709023627796462E+01
Cs    4.7041012794206905E-01    6.0183057280354699E+00    1.1704013603430369E+01
Cs   -6.4448840385478361E+00    1.1899607303733752E+01    5.5029070528955506E+00
Cs    4.8445093886028729E+00    1.1601949408078701E+01   -6.4299808827908285E+00
Cs    4.6692656257633827E+00    5.3297332933024570E+00   -6.6640861241037470E+00
Cs    6.5995983165072243E+00   -1.6328517614663079E-01   -8.0607055887329460E-01
Cs    5.9905037141246131E+00   -5.1934301061069910E+00   -8.0605099557366347E-02
Cs    6.8754768179970815E+00   -1.0612122699753758E+01    9.2138870636433434E-01
Cs    5.1530939281634502E+00    5.0265160199430268E+00   -1.2011043695793404E+01
Cs   -6.8803747184343100E+00    5.9549114584835676E+00    5.0543944751667951E+00
Cs   -5.4964455424619221E+00   -7.3361161406213160E+00   -1.0292724515915713E+01
Cs    4.6888145238567098E+00    6.2800770899130107E+00   -3.7271765437407317E-01
Cs    6.4246514286337746E+00    5.7834644737800878E-01    4.9505747303422627E+00
Cs    7.1590678844146742E+00   -5.3147817469733996E+00    5.5989255953129415E+00
Cs   -5.9556354636211832E+00    1.1368662127229491E+01   -6.8292510240441451E-01
Cs    1.1063593467709016E+01    1.3048603001488435E+00   -4.5304608938328145E-01
Cs   -5.6452829973885237E+00   -5.1397869734894897E-01    9.4701049725063302E-01
Cs   -1.1634849596180223E+01    4.9197798386976777E+00    6.0742778717341555E+00
Cs   -4.9573448458271594E+00    1.9630072678322413E-01    1.1589145936523202E+01
Cs    5.0713348531761486E+00    1.2021449903466236E+01    4.8468888777477988E+00
Cs    5.5211483841357447E+00    6.8585221872265363E+00    5.4927260921763645E+00
Cs    6.3269367357890811E+00    1.4473625758775390E+00    1.1503323111389470E+01
Cs    4.8435300992250392E+00    1.1475653431550212E+01   -4.5274912435380793E-01
Cs    1.1426006713137900E+01    9.9275703348964139E-01   -7.0818387713827535E+00
Cs    1.2086523254326689E+01   -5.9777224801670448E+00   -5.2746964205448705E+00
Cs    7.7230232066391880E+00   -1.0935098991775931E+01    1.1222750955799823E+01
Cs    9.5521865123885821E+00    1.2897893602892113E+01   -2.0607502932635242E+00
Cs   -1.1114850475682820E+01    4.6110946529421684E+00    1.1729427381662239E+01
Cs   -5.9264005894828893E+00    4.4019879077487785E+00   -1.2307500932888546E+01
Cs   -1.1820610327108151E+01    1.1067076348557096E+01   -7.0726882028698734E-01
Cs   -5.3456090107261334E+00   -5.3562411082331671E+00    1.1466495792234657E+01
Cs   -4.8118337147759975E+00   -1.0056357893493205E+01    1.3289510733530314E+01
Cs    7.0989893417797001E+00    7.3627762117719087E+00    1.1262902076110185E+01
Cs    1.1644043080819500E+01   -5.4068683258370349E+00    3.4772024626483711E-01
Cs   -1.0983321395850616E+01   -1.0008557167797794E+00    9.5396132536900280E-01
Cs   -6.4920149700602598E+00    1.0406116881057972E+01   -1.1056680733553550E+01
Cs   -1.1547358362233684E+01    5.5532076641067230E+00   -9.4610300975769512E-01
Cs   -1.0604133001083120E+01   -1.2585377866053864E+01   -4.5892951814271070E+00
Cs   -1.0495298078281818E+01   -7.0580061916831855E+00    6.3657335491489586E-01
Cs   -5.0961143593284426E+00   -5.5004622762451385E+00    1.8979591366356330E-01
Cs   -9.8702558039576207E+00   -1.1497245665695958E+01    6.7839875191061587E+00
Cs    1.3276112838380358E+01   -3.5435484018894070E+00    9.8296942004407537E+00
Cs    1.1162697504634739E+01    7.1556244660497583E+00    4.8091922559334135E+00
Cs   -1.2098046030541104E+01    4.8879488227153214E+00   -5.7748324067449417E+00
Cs   -6.8637274806776576E+00   -7.1351543311863086E-01   -5.2122126140409133E+00
Cs   -9.7842402107553994E+00   -1.1787980931048619E+01    1.6840929969437384E+00
Cs    1.2849792341117540E+01   -4.4274911696149237E+00   -1.0458791398417796E+01
Cs   -8.5726806705928222E+00   -1.3345622494337373E+01   -1.1116937676324612E+01
Cs   -4.5575757328260563E-01    1.0881896387399063E+01   -1.1030503164002827E+01
Cs    2.0995932219880314E-01   -1.2342619179293695E+01   -1.1103074068175482E+01
Cs   -8.2411486619974539E-01    1.0924545011045367E+01   -6.0685104401027008E+00
Cs   -8.2005743928094681E+00    1.1301688843200237E+01    1.0764272729762126E+01
Cs    4.8844901073973485E-01   -1.1687262527848855E+01    7.6491154322661525E-01
Cs   -1.0315407247434802E+01   -1.1813940986656388E+00   -1.1736111101605559E+01
Cs   -1.2598323508108217E+01    1.0812019159758814E+01    6.3556974855310866E+00
Cs    7.4972367357988645E+00   -1.1939497910864398E+01   -6.1023417171363761E+00
Cs    1.0621251730290842E+01    1.5802881470219327E-01   -1.2424861179522036E+01
Cs   -8.3485272277365696E-01    1.1920557595153040E+01    9.8614203267808573E+00
Pb    3.4555477750704537E+00   -3.2873291513200700E+00   -3.1919559337603403E+00
Pb    3.4420715118228400E+00   -9.5165048299781834E+00   -2.3264292538617353E+00
Pb   -8.3201001605696892E+00   -3.2654894264449914E+00    3.6858147091521345E+00
Pb   -2.4220202955056860E+00   -9.2968850905111395E+00   -2.0571318700139121E+00
Pb    2.1065716459788595E+00    8.2920438039860365E+00   -3.5917736505802473E+00
Pb    2.6648569684470789E+00    2.4933512933635580E+00   -3.6027187730978114E+00
Pb    3.3778111116914142E+00   -2.3099459447339301E+00    2.7399812091728890E+00
Pb    3.7961166824932251E+00   -8.1708095091890858E+00    3.2751727519791025E+00
Pb   -3.8818633254594777E+00    8.5857191190307613E+00    2.6891753018659261E+00
Pb    2.2061468251425085E+00    9.5100674113402519E+00    2.0444557977598583E+00
Pb    3.0040138797170597E+00    3.4996686094403264E+00    2.6162192821610755E+00
Pb    3.4528705115503318E+00   -2.5288091226812668E+00    8.8089818385320999E+00
Pb    4.4604688915150632E+00   -8.5300304935784794E+00    9.1920276875656786E+00
Pb   -2.6322716159592292E+00    2.9904381849676307E+00    2.8372150671763836E+00
Pb    2.2267057208723195E+00    9.3325899314730645E+00    8.0005813909497441E+00
Pb    3.2322821269923141E+00    3.4814319472138946E+00    8.7633768294157210E+00
Pb   -2.2705721300485289E+00   -2.4754563126071365E+00    9.2384722009933888E+00
Pb   -7.8610667971998147E+00   -9.0899947854505356E+00    4.4065220735077641E+00
Pb   -9.0546578037933294E+00    2.2295232302491312E+00   -2.8753683741872580E+00
Pb   -2.8848811640117269E+00   -4.1696009565957350E+00   -8.5500459251076784E+00
Pb   -2.0538345072145292E+00   -8.5458325559564923E+00    3.7134515399344790E+00
Pb   -3.6245582555451503E+00    8.3986168792169060E+00   -3.3134601369140850E+00
Pb   -1.8235289076553323E+00   -8.6951081778810071E+00    9.5587937825143232E+00
Pb   -8.8490386848545111E+00   -3.5992265939371788E+00   -2.2137864781948093E+00
Pb   -8.3989308834336960E+00   -9.9598555853399819E+00   -1.6296110481885970E+00
Pb   -3.3745891129456109E+00    2.4347092195828082E+00   -2.7178186506328621E+00
Pb   -8.5306322604869820E+00   -8.6855874538647377E+00    1.0533596618375450E+01
Pb   -8.8384404294553356E+00   -4.2275390725698321E+00   -7.8375442609541004E+00
Pb    8.9891087562818086E+00   -2.9305110690413154E+00   -8.8405718656048720E+00
Pb    1.0120389183201812E+01   -8.8968842586212116E+00   -8.8372078778045342E+00
Pb   -2.2517792628574727E+00   -1.0576026667169668E+01   -7.9638433041744721E+00
Pb   -9.6323522902395453E+00    7.3542658535276919E+00   -9.4701545002942975E+00
Pb    3.0022642522954488E+00   -3.5465301275445129E+00   -8.9702826479436446E+00
Pb    3.7317853399478698E+00   -9.4462472245629314E+00   -8.4074619884943136E+00
Pb   -3.1272075390616947E+00    1.9756262949631154E+00   -8.9050020767995370E+00
Pb    1.9739997133672962E+00    8.1319779317726262E+00   -9.5814543353926673E+00
Pb    2.8084036045627920E+00    2.2549910573346956E+00   -9.4603495416548267E+00
Pb    9.3510425566774060E+00   -2.3448604370705981E+00   -3.2169872950228582E+00
Pb    9.0733061734438429E+00   -8.5490454952956458E+00   -2.8334916179156329E+00
Pb   -8.1664495928811309E+00   -2.7055979515427726E+00    9.5447500559763157E+00
Pb    7.8944028992407116E+00    8.8102177768712799E+00   -1.0308639853854148E+01
Pb   -9.4616737678300513E+00    1.5789247678834541E+00   -8.4659039183368101E+00
Pb   -3.7455483199638802E+00    9.4841123275076438E+00    8.7476561478439727E+00
Pb    8.2400657590250876E+00    9.6907982551815426E+00   -4.3889683239136650E+00
Pb    8.5482311531703896E+00    3.6018063050932150E+00   -3.8119291682858192E+00
Pb    9.2612690006776681E+00   -1.9807183876010002E+00    2.5656161592478490E+00
Pb    9.6452066292965757E+00   -7.7001793321955461E+00    3.2832820093438633E+00
Pb    8.4492816676339526E+00    3.0857436853635432E+00   -9.7230157538280135E+00
Pb   -2.9195516528458172E+00    3.4618289920201049E+00    9.1874929686761266E+00
Pb    8.2285268106589786E+00    9.6313672310389933E+00    1.8604001748168213E+00
Pb    8.7196418706149927E+00    3.8674887181090725E+00    2.2974994149049146E+00
Pb    9.0357439778067725E+00   -1.7165963300532889E+00    8.5449429688172778E+00
Pb    1.0312318071309594E+01   -7.4061725078305782E+00    8.9496607413614289E+00
Pb    8.2979514904115437E+00    1.0221930048550139E+01    7.6909772237057474E+00
Pb    8.8642138846540650E+00    4.5381539833779527E+00    8.3374356396480565E+00
Pb   -8.8319890217365362E+00    2.8972424683708371E+00    9.1862206640312625E+00
Pb   -2.2116404700373971E+00   -2.8056382044268680E+00    3.3913348124302862E+00
Pb   -9.7333295673381208E+00    8.5256214868450186E+00    2.0712714999272719E+00
Pb   -9.5965156437438921E+00    8.2582602623769823E+00   -3.6321028719402695E+00
Pb   -8.5896720415584387E+00   -1.0265573182884568E+01   -7.3915729308663263E+00
Pb   -3.8588250988745152E+00    7.8347804132831991E+00   -9.0715383281647810E+00
Pb   -8.8312585111780990E+00    2.7257640452657168E+00    3.1079192167995253E+00
Pb   -9.6632383630049041E+00    8.7235679740748306E+00    7.8790606244282797E+00
Pb   -2.8555808693273526E+00   -3.5736433098129670E+00   -2.5980891549516230E+00
Br    2.3680659603935446E-03   -3.1339316119809091E+00   -2.6754598572370694E+00
Br    3.9812302558672972E+00   -3.4606954125598799E+00   -6.1626261193048242E+00
Br    2.6871059310762835E+00   -2.2863016995549923E-01   -3.6002547606425757E+00
Br    4.8818662428358400E-01   -9.0197688090252122E+00   -1.8854337864149724E+00
Br    3.3771471588600579E+00   -9.1303496871633048E+00   -5.3306531957674785E+00
Br    2.8437205190435706E+00   -5.9069082334017198E+00   -2.9706887702905558E+00
Br   -2.6590693883544598E+00   -3.9197044873270297E+00   -5.7340398867151734E+00
Br   -8.2192270910743286E+00   -2.7163634051835230E+00    6.4921749461987268E+00
Br   -3.2872357899867679E+00   -4.2730733993944520E-01   -2.9123914680937424E+00
Br    2.6544185108786191E+00   -1.2192298841490047E+01   -1.7958435814942537E+00
Br    1.2249790767384688E+01   -2.4671680544658270E+00    2.1273965072636347E+00
Br   -5.6875015444794785E+00   -9.6677752954195721E+00   -2.3041455270755722E+00
Br   -1.1114769338584358E+01   -3.8295655367785506E+00    3.7825165978654431E+00
Br   -8.1986905064309354E+00   -3.3174590998397302E+00    8.9085030674298160E-01
Br    1.2466457019745668E+01   -7.0441953079334478E+00    3.1376723142651231E+00
Br   -7.5793456097848422E-01    8.4738600621059099E+00   -3.4482001053399016E+00
Br    1.5637597443974449E+00    8.1431655484104013E+00   -6.4603272744995603E+00
Br    2.2253862238229325E+00    1.1372683257322427E+01   -3.5711593888844346E+00
Br   -2.7119677232300016E-01    2.2806596132311854E+00   -2.9488764520791526E+00
Br    2.0505824136083879E+00    2.9043296333805251E+00   -6.6501478426170175E+00
Br    1.9663685150841843E+00    5.2189154598270679E+00   -3.5722041500198851E+00
Br    4.1329740356788824E-01   -2.2390896040520616E+00    2.3452333295143082E+00
Br    3.2348141699036863E+00   -2.8253670095239012E+00   -5.1891561276524933E-01
Br    3.4938484154893517E+00    6.5892598273805203E-01    2.7391150390162586E+00
Br    7.5992326866740045E-01   -8.5290557335182591E+00    3.8003325770739353E+00
Br    3.5925190841775994E+00   -7.9916243053740601E+00    4.2761143894960663E-01
Br    3.7164424426232539E+00   -5.2977920590481853E+00    3.2173312891528036E+00
Br   -6.5421889986017696E+00    7.8123080016563389E+00   -8.2868100219291847E+00
Br   -3.5978277311535809E+00    8.1862685474899930E+00   -1.1839744735077618E+01
Br    4.5281830225423416E+00   -1.0783159622842149E+01    2.9682154673440841E+00
Br   -4.0383157626485584E+00    1.1033426110237997E+01   -8.8528447608308767E+00
Br   -3.1984996786701143E+00    4.7420475169705263E+00   -9.2795196188345823E+00
Br   -8.2768737443894445E+00   -9.5690378309625498E-02    3.4438474424566401E+00
Br   -2.3987829537685581E+00   -9.6104155928174606E+00   -5.0025746397684916E+00
Br   -6.5499818348673831E+00    8.1950321289001700E+00    2.5682281769057744E+00
Br   -3.7690553495662988E+00    8.3838531727166661E+00   -4.2283372332840075E-01
Br   -4.4283511742423904E+00    1.1418271492585269E+01    2.6894189951904015E+00
Br   -1.0481239584375053E+00    9.3385817057312330E+00    2.6031190929512880E+00
Br    2.3373475637879921E+00    8.8605976023753232E+00   -7.6583250298457961E-01
Br    1.8454393539156175E+00    1.2361745049579708E+01    1.7204313143427306E+00
Br    1.6855616363513498E-01    3.3305647810073729E+00    2.7041780431804647E+00
Br    3.0752122126921577E+00    3.0314436894004588E+00   -5.6549102847070520E-01
Br    2.4904762067559258E+00    6.5639502460512720E+00    2.1005230044404830E+00
Br    5.8892633925304172E-01   -3.1872043333871414E+00    9.1890049438354016E+00
Br    3.1317355462575489E+00   -2.3447833367301980E+00    5.7047578476440837E+00
Br    2.6426998274226401E+00    5.8109393236798734E-01    8.9993716819803886E+00
Br    8.9014486164209139E-01   -8.3895252751365295E+00    9.3154369813918692E+00
Br    4.5565955551770214E+00   -8.5846727395311770E+00    6.2609833314184433E+00
Br    3.8419533177128766E+00   -5.5677610448346888E+00    8.5772581170176867E+00
Br   -1.1489142277304301E+01    1.3851324470842139E+00    3.4180914937204441E+00
Br   -8.5587761338287986E+00    2.1526498949623178E+00   -3.7948130562539956E-02
Br    4.4951307324763361E+00   -1.1344325973039437E+01    9.3480105050757576E+00
Br   -9.1908635143930422E+00    5.4966006977209441E+00    2.6581190618890127E+00
Br   -8.1090404998367180E+00    9.2091007913224984E-02    9.4721940828949691E+00
Br   -3.1563754633632843E+00   -6.5001093990853596E+00   -2.4167505203468873E+00
Br   -5.5916126143496845E+00    3.0261670265940244E+00    3.6008911633816187E+00
Br   -3.1960277968288744E+00    2.9422859573551605E+00    1.8719039739686710E-01
Br   -3.1117452873248612E+00    5.7416011217855498E+00    2.5569157304515491E+00
Br   -6.7869553589459874E-01    9.3286651353246679E+00    7.6037105840951602E+00
Br    2.3339815317247732E+00    8.9377972628621709E+00    4.7472370759370355E+00
Br    1.5901147552975938E+00    1.1908204255307698E+01    7.1792027076194662E+00
Br    2.0383690074564087E-01    3.7556305173099140E+00    9.4127371542679459E+00
Br    3.0514820249632706E+00    3.2181620584960409E+00    5.8760800250278855E+00
Br    2.9314889595588274E+00    6.5109722612311911E+00    8.2409169860448621E+00
Br   -5.2546477453870173E+00   -2.8609206593736745E+00    9.0757129787581796E+00
Br    3.9278593147708412E+00   -2.0147292372888344E+00    1.1620563373446242E+01
Br   -2.0441565311700209E+00   -2.3150556943295415E+00    6.3882507144719369E+00
Br   -2.5820669145436814E+00    6.4376965607121095E-01    9.3863147644059559E+00
Br   -2.4907945903229516E+00   -1.2314465884278727E+01   -1.4442126231130394E+00
Br    4.3968389591150707E+00   -8.3721968737794157E+00    1.2140633680477555E+01
Br   -1.1932691724532900E+01    2.1632076642919609E+00   -2.9342815525341095E+00
Br   -2.7268817669413470E+00   -1.1217206027396259E+01    3.9537289203563870E+00
Br   -1.1634526186708646E+01   -4.5474003831413876E+00   -2.0890829413425900E+00
Br    1.3015018105513274E+00    9.7457395977126247E+00    1.0612919146914999E+01
Br   -8.6908743972557776E+00   -3.9222506988090338E+00   -5.0477398180923840E+00
Br   -8.8089725542731134E+00   -8.3394693827963529E-01   -2.3497458887866740E+00
Br    3.0478807734529427E+00    3.3038294372516477E+00    1.1791108261219161E+01
Br   -6.5765774960413026E+00    8.3749480750953040E+00   -3.8676674542046436E+00
Br   -3.2596914894349500E+00    8.4802993315887196E+00   -6.3520054198430520E+00
Br   -3.6949494616936440E+00    1.1145849519509527E+01   -3.8273707083027984E+00
Br   -6.1501913841876314E+00    2.3055427562520374E+00   -3.0461028649702944E+00
Br   -1.0652039297689237E+01   -9.4770065295656352E+00    4.4737970196008856E+00
Br   -2.3682550571674690E+00    2.0160060682581364E+00   -6.1790009396444017E+00
Br   -6.0365314826542695E+00   -4.0279796627195701E+00   -8.2282741246872710E+00
Br   -3.7844039702335253E+00   -4.3606629739806237E+00   -1.1063045457786265E+01
Br   -2.5386609318632818E+00   -1.1859874702656477E+00   -8.6791586637750342E+00
Br   -3.0891305285113635E+00    3.8289228304206060E+00    1.2014399891286848E+01
Br   -5.5158129485432630E+00   -9.4150495737738282E+00    9.9126895527372429E+00
Br   -2.0962009893108422E+00   -8.5378548231468265E+00    6.6637390474209512E+00
Br   -2.4954319721284168E+00   -5.3935293502088646E+00    9.3515894600881868E+00
Br   -7.9340658776714488E+00   -9.4023546124912460E+00    1.2992749437753439E+00
Br   -8.5219691385799532E+00   -6.5140960921609397E+00    3.7678464569074679E+00
Br   -1.0204208498682242E+01    8.7859312918264791E+00    1.1004777239133967E+01
Br    1.1022067555521481E+01    1.0231460903123674E+01    2.2540168397593554E+00
Br   -7.5749284502832079E+00   -8.0668014240369743E+00    1.3158327280496733E+01
Br    1.0959248716600342E+01    1.0060487274862044E+01   -3.8830492333452518E+00
Br    1.1672733307387483E+01    3.5287905649537188E+00    1.8601312705561783E+00
Br   -8.2018926916982462E+00    3.1758036817748820E+00    1.1945056524992898E+01
Br   -1.1565443006641752E+01   -5.3594557512184515E+00   -7.1298749006186233E+00
Br    1.2596120897778057E+01   -1.1983565056481258E+00    7.4460521148078112E+00
Br   -5.1253810786202774E+00   -8.4998340061521755E+00    4.0825967217967341E+00
Br    6.2529897398258782E+00   -3.1112513067895824E+00   -9.3769116703400464E+00
Br    9.5295433238376628E+00   -3.4598294072612634E+00   -1.1500860417090836E+01
Br    1.3254781367791695E+01   -7.1871616609858044E+00    9.1656984306297602E+00
Br    8.5904398468131991E+00    7.9527115875098725E-02   -9.4057647879014681E+00
Br   -8.6739649027582448E+00   -1.1476668438854581E+01    1.0095175069990194E+01
Br   -2.5749512563355892E+00   -9.0018896039320353E+00    9.2063645180166831E-01
Br   -2.5760539158530480E+00   -5.6926161298174875E+00    3.4547673191388766E+00
Br    6.8084582605251711E+00   -9.2925442947914387E+00   -8.3788004437969441E+00
Br   -5.5169112885427189E+00   -1.0251013610803820E+01   -7.6478876006545846E+00
Br    9.5816682795437380E+00   -8.6922606463027421E+00   -1.1711151321358672E+01
Br    9.3979403138481761E+00   -5.7334409399434838E+00   -8.3409868564473086E+00
Br   -1.8563399081434331E+00   -1.1441621800541691E+01    9.3555816430342187E+00