 # Version information for this restart file 
 # current date 2021-06-17 12:41:07.854
 # current working dir /user/ub2042/exercises/2_fitting/MM_MD_workdir/md_settings.003
 # Program compiled at                              Thu Apr 22 21:44:59 EDT 2021
 # Program compiled on                cpn-k07-07-02.compute.cbls.ccr.buffalo.edu
 # Program compiled for                                                    local
 # Source code revision number                                       git:36754bb
 &GLOBAL
   PRINT_LEVEL  LOW
   PROJECT_NAME cp2k
   RUN_TYPE  MD
 &END GLOBAL
 &MOTION
   &MD
     ENSEMBLE  NVT
     STEPS  10000
     TIMESTEP     2.4999999999999996E+00
     STEP_START_VAL  10000
     TIME_START_VAL     2.4999999999995482E+04
     ECONS_START_VAL    -1.4031592531677251E+01
     TEMPERATURE     3.0000000000000000E+02
     &BAROSTAT
       PRESSURE     1.0100000000000000E+00
       TIMECON     9.9999999999999982E+03
     &END BAROSTAT
     &THERMOSTAT
       TYPE  CSVR
       &CSVR
         TIMECON     9.9999999999999982E+03
         &THERMOSTAT_ENERGY
              -2.7802280779610988E-01
         &END THERMOSTAT_ENERGY
         &RNG_INIT
Wiener process for Thermostat # 1        1 F T F   7.6625087601539843E-01         259340563.0         549358240.0        2316100698.0        3346386813.0        1933804780.0        3700774362.0             12345.0             12345.0             12345.0             12345.0             12345.0             12345.0             12345.0             12345.0             12345.0             12345.0             12345.0             12345.0
         &END RNG_INIT
       &END CSVR
     &END THERMOSTAT
     &AVERAGES  T
       &RESTART_AVERAGES
         ITIMES_START  1
         AVECPU     1.7527771486202260E-02
         AVEHUGONIOT     0.0000000000000000E+00
         AVETEMP_BARO     0.0000000000000000E+00
         AVEPOT    -1.4390379657558539E+01
         AVEKIN     5.0319327613414666E-01
         AVETEMP     2.5525410377251148E+02
         AVEKIN_QM     0.0000000000000000E+00
         AVETEMP_QM     0.0000000000000000E+00
         AVEVOL     6.7483345830912264E+06
         AVECELL_A     1.8897261328855686E+02
         AVECELL_B     1.8897261328855686E+02
         AVECELL_C     1.8897261328855686E+02
         AVEALPHA     9.0000000000000000E+01
         AVEBETA     9.0000000000000000E+01
         AVEGAMMA     9.0000000000000000E+01
         AVE_ECONS    -3.8398308164072192E+00
         AVE_PRESS     0.0000000000000000E+00
         AVE_PXX     0.0000000000000000E+00
       &END RESTART_AVERAGES
     &END AVERAGES
     &PRINT
       &ENERGY  SILENT
         &EACH
           MD  10
         &END EACH
       &END ENERGY
     &END PRINT
   &END MD
   &PRINT
     &TRAJECTORY  SILENT
       &EACH
         MD  10
       &END EACH
     &END TRAJECTORY
     &CELL  SILENT
       &EACH
         MD  10
       &END EACH
     &END CELL
     &VELOCITIES  SILENT
       &EACH
         MD  10
       &END EACH
     &END VELOCITIES
     &FORCES  SILENT
       &EACH
         MD  10
       &END EACH
     &END FORCES
     &RESTART  SILENT
       &EACH
         MD  10
       &END EACH
     &END RESTART
   &END PRINT
 &END MOTION
 &FORCE_EVAL
   METHOD  FIST
   &MM
     &FORCEFIELD
       VDW_SCALE14     1.0000000000000000E+00
       EI_SCALE14     1.0000000000000000E+00
       SHIFT_CUTOFF  T
       DO_NONBONDED  T
       IGNORE_MISSING_CRITICAL_PARAMS  T
       &SPLINE
         R0_NB     2.5000000000000000E-01
       &END SPLINE
       &NONBONDED
         &LENNARD-JONES
           ATOMS Br Br
           EPSILON     1.2630795322675199E+02
           SIGMA     3.6900000000000004E+00
         &END LENNARD-JONES
         &LENNARD-JONES
           ATOMS Cs Pb
           EPSILON     8.6920055954630968E+01
           SIGMA     3.6699999999999999E+00
         &END LENNARD-JONES
         &LENNARD-JONES
           ATOMS Cs Cs
           EPSILON     2.2644852172126850E+01
           SIGMA     4.5300000000000002E+00
         &END LENNARD-JONES
         &LENNARD-JONES
           ATOMS Pb Pb
           EPSILON     3.3363415533600227E+02
           SIGMA     5.9000000000000004E+00
         &END LENNARD-JONES
         &LENNARD-JONES
           ATOMS Br Cs
           EPSILON     5.3481070753900497E+01
           SIGMA     3.6300000000000003E+00
         &END LENNARD-JONES
         &LENNARD-JONES
           ATOMS Br Pb
           EPSILON     2.0528187276773045E+02
           SIGMA     2.9800000000000000E+00
         &END LENNARD-JONES
       &END NONBONDED
       &CHARGE
         ATOM Cs
         CHARGE     4.1739999999999999E-01
       &END CHARGE
       &CHARGE
         ATOM Pb
         CHARGE     8.3479999999999999E-01
       &END CHARGE
       &CHARGE
         ATOM Br
         CHARGE    -4.1739999999999999E-01
       &END CHARGE
     &END FORCEFIELD
     &POISSON
       PERIODIC  XYZ
       &EWALD
         EWALD_TYPE  SPME
         GMAX  62 62 62
         O_SPLINE  4
       &END EWALD
     &END POISSON
     &PRINT
       &FF_INFO  LOW
         SPLINE_INFO  F
         SPLINE_DATA  F
       &END FF_INFO
     &END PRINT
   &END MM
   &SUBSYS
     &CELL
       A     1.0000000000000001E+02    0.0000000000000000E+00    0.0000000000000000E+00
       B     0.0000000000000000E+00    1.0000000000000001E+02    0.0000000000000000E+00
       C     0.0000000000000000E+00    0.0000000000000000E+00    1.0000000000000001E+02
       PERIODIC  XYZ
       MULTIPLE_UNIT_CELL  1 1 1
     &END CELL
     &COORD
Cs    9.6868601298486567E-02   -1.5498689563846682E+00   -5.8345630889345559E+00
Cs    8.0157161344505479E-01   -7.1359903354523979E+00   -4.1369923483039148E+00
Cs    1.2601899947856734E+00   -1.2116952014386843E+01   -3.7674829989636764E+00
Cs   -5.2340768460899989E+00   -7.1097861411026031E+00   -4.5935462814663230E+00
Br   -6.9108442389539384E+00   -1.4239307862773417E+01   -6.0343181591200308E+00
Br    1.1209198504660337E+01   -2.9118186526805312E+00   -9.1724610066573629E+00
Br   -3.8802076771551501E+00    3.2620152897630716E-01   -1.1886733270684166E+01
Cs   -9.6336160793879810E-01    4.5365728187292911E+00   -7.2073875225925761E+00
Cs    6.4068198242299268E-01   -7.8328104750604477E-01    2.1404732214040764E-01
Cs    5.6804877706275014E-01   -5.5056240719808391E+00    7.5129739527014194E-01
Br   -4.7924718032059479E+00   -3.6442130438615896E+00    3.6443630926788924E+00
Cs   -8.6964989699253206E+00   -6.0993463578480682E+00    1.3886442092065584E+01
Cs    1.4122648006320368E+01   -8.4552487400462635E+00    6.3174812848797035E-01
Cs   -6.4019073322582845E+00    4.4601841505310480E+00    9.4370446487942308E-02
Cs   -2.1435816952401834E+00    1.1592593618107488E+01   -1.3095650544740653E+00
Cs   -1.5646401007608195E+00    5.1248039312676337E+00   -1.3965367762813146E+00
Cs    4.8682690311906485E-01    5.0238365260684892E-01    5.3998738020385275E+00
Cs    2.8566527694771398E+00   -5.3790367908339434E+00    7.4676601182106959E+00
Cs    3.1630540888607972E+00   -1.0257907371294413E+01    7.3275752806286247E+00
Cs   -5.6005312277918442E+00    5.6370310031890458E+00    1.1111234854389052E+01
Cs   -6.2425840899229801E+00   -3.3215786978133637E+00   -1.0532650710538062E+01
Cs   -4.3527330354835190E+00   -1.2345727596326194E+01   -3.3099297397615386E+00
Cs   -5.1964484758017742E+00   -2.3620662261507979E-02    5.5060063291041432E+00
Br   -2.1362379848085857E+00   -3.7572629198810912E+00    6.4321815686731909E-01
Cs   -3.4821150715539417E-01    6.6730449555538502E+00    3.7015865651770463E+00
Br    1.2046543772325272E+01   -8.3410396329912295E+00   -9.8527544155053093E+00
Cs    3.3883107097862881E+00   -4.0039255800812859E+00    1.3193823554629589E+01
Br   -2.5381653971011593E+00   -6.2075303765732626E-01    2.5193144566280630E+00
Br   -6.4750925970430631E+00   -2.4883547565094095E+00    1.3624114221740696E+01
Cs    8.8343613254818401E+00    1.1267829978179009E+01   -8.5124481225550674E+00
Cs   -9.7794199532768467E+00   -6.1541666958282208E+00    8.0100162689276093E+00
Cs   -3.6927896169850136E+00   -5.5648660961004923E+00    6.6777407161840090E+00
Cs   -8.4713364848070825E+00    9.1765816114338055E+00   -7.1852772821682347E+00
Br   -8.4544975271005249E+00   -8.9392440599462262E+00    1.2522413557312122E+01
Br   -6.0407709449385134E+00   -9.5902808969402642E+00    8.5284374647366299E+00
Cs   -1.0265535730069574E+01   -9.3036516978084567E+00   -3.1636357815803433E+00
Cs   -8.1883264182299857E+00    3.9641009703588845E+00   -7.0083532647169218E+00
Br   -6.4571902360287430E+00   -6.1098145341722860E+00    1.0541869253547262E+01
Cs    9.9858723685024096E+00    9.9966472296102680E+00    9.3113610257052155E+00
Br   -1.2589299195214506E+01    7.3323573703105565E+00    8.2705979816726245E+00
Br   -5.6480583964474631E+00   -4.6899052293330383E+00   -1.6812203288604135E+00
Cs    2.1800883886627798E-01    2.0321876699337933E+00    1.1113193470498889E+01
Cs    9.6168420178302796E+00    8.3216752668598701E+00   -2.4020046983840180E+00
Cs   -1.0876855166153023E+01   -9.1641486873589209E+00   -9.9166249037838785E+00
Cs    1.1279187902627958E+01    3.2701234881588963E+00    4.8392262677293738E+00
Cs   -1.2973391190059463E+01    8.9131212600723373E+00   -7.9899047148180955E+00
Cs    1.4770243572173033E+01   -6.8942260151434862E+00    7.3330623785867823E+00
Cs    5.1014444225833921E+00   -7.0582769796413336E+00   -1.0781345571106986E+01
Cs    9.9480547072257046E+00   -8.6361823292087792E+00    7.2648017358108872E+00
Cs   -4.3063095681352603E+00   -1.3332893979749990E+01    2.0045684928017033E+00
Cs    6.3249676494168652E+00   -1.2547341433288212E+01   -9.8061138005300066E+00
Cs    1.1965708300535420E+01    7.7956698789544516E+00   -7.4010792153133433E+00
Cs    8.8470621941344909E+00    1.5124066226004830E+01    2.1141011097947264E+00
Cs    9.9349597802681870E+00    6.2805175681004810E+00   -1.2632584085455456E+01
Cs    5.8852400214353962E-01   -7.6959414139371489E+00   -9.6411006004089668E+00
Cs   -1.1878567107850765E+01   -2.9445104597590168E+00   -4.8178153591768034E+00
Cs    7.9524574919989304E+00   -3.2175286539751076E+00    1.1423260768372813E+01
Cs    1.2374834509377122E+01   -1.7737968935112995E+00    6.2747540156967458E+00
Cs   -1.9209868528356921E+00   -7.5996696196879654E+00    1.5304732774443705E+01
Cs   -9.0465499171391262E-01   -1.7944601865683409E+00   -1.1262853564130005E+01
Cs   -2.1085687112328886E+00    1.1996204199467044E+01    4.0274021765849080E+00
Cs   -2.3708951459968595E+00    3.8571469438557910E+00   -1.2772059962614486E+01
Cs    5.8899259473875274E+00    3.9603835748186417E-01   -6.3501538020935842E+00
Cs    6.2358876285569318E+00   -6.5191877677472183E+00   -5.6034536540238635E+00
Cs   -2.9192043145518665E+00   -1.1016534715165532E+01    8.1313193236069310E+00
Cs   -1.0324374056858622E+01   -1.3597922742742936E+00    6.3239386349880053E+00
Cs    4.8240375941629781E+00   -1.1521375558337739E+00   -1.2087230987185785E+01
Cs    3.4591923293930029E+00    1.1581872701286564E+01   -1.3394080044775507E+01
Cs   -8.2330124418848780E-02    7.8575534830769014E+00    1.0837469541451206E+01
Cs   -7.4749117667200133E+00    1.0111821747761905E+01    4.1379082981075692E+00
Cs    3.4761903071598654E+00    1.1084253619480274E+01   -8.6808629688371859E+00
Cs    4.9575774706464451E+00    5.9348000957288569E+00   -8.2453691794899182E+00
Cs    6.6193453868965397E+00    8.6092491257750536E-01   -9.6611854799643393E-01
Cs    6.7788164121811700E+00   -5.4913541472216574E+00   -3.4876118894525643E-01
Cs    9.0937711584213297E+00   -1.0978887431435508E+01    2.0886349099374506E+00
Cs    3.6822025221654227E+00    5.0800622000747033E+00   -1.3185800358266480E+01
Cs   -6.8703558928635013E+00    5.3330427971023493E+00    5.2831207945711416E+00
Cs   -5.3679219097568120E+00   -8.2999735468722964E+00   -1.0076892153618465E+01
Cs    4.3881368870178790E+00    6.2869287077917626E+00   -2.1911956057720925E+00
Cs    6.4148017462927855E+00    2.0893269219274950E+00    5.4186059162784028E+00
Cs    7.9306396267494810E+00   -3.5476457512083779E+00    6.3478613985962378E+00
Cs   -6.6867594278635964E+00    9.8589624148555579E+00   -9.7862779426566715E-01
Cs    1.1160686873843815E+01    1.8480468409088828E+00   -1.0520428748043629E+00
Cs   -5.8137563884555163E+00   -1.4710111993976973E+00    1.2186118098903447E+00
Cs   -1.1642810622845632E+01    5.0342048041180849E+00    6.1564330622828214E+00
Cs   -5.0542820106408479E+00    8.2123712350528055E-01    1.1800584339436220E+01
Cs    3.1964725836502721E+00    1.3920523835846899E+01    3.4494072724562677E+00
Cs    4.9389707828963108E+00    7.6854342402638682E+00    4.8463649061213765E+00
Cs    6.5627822770340849E+00    2.4894078410521141E+00    1.1181451951190697E+01
Cs    3.8474624234014660E+00    1.2417308305935943E+01   -2.7793741082080405E+00
Cs    1.0851692200592575E+01    7.4854497333826697E-01   -6.7411883743960992E+00
Cs    1.1480600881190057E+01   -4.7556262453281555E+00   -6.4188589078938696E+00
Cs    1.0147084749590714E+01   -8.2715884646284756E+00    1.2571799056789878E+01
Cs    8.0160190151401949E+00    1.4625148780846088E+01   -3.3625168715446589E+00
Cs   -1.2443560156674012E+01    5.4083696960627270E+00    1.1204857218459255E+01
Cs   -8.6746267541707329E+00    2.4440114393115491E+00   -1.2285130061484844E+01
Cs   -1.2288075446585159E+01    1.0298335328358856E+01   -1.8291399292869426E+00
Cs   -2.9941992451276840E+00   -2.9079163201220233E+00    1.3842818690714795E+01
Cs   -1.9992200794750195E+00   -1.2327565520933060E+01    1.3024004018202449E+01
Cs    5.0578274500270011E+00    8.7479816382627877E+00    1.0080365921715073E+01
Cs    1.1891149198314185E+01   -3.5905550611204844E+00   -7.6119023676964037E-01
Cs   -1.0776287866608435E+01   -1.7207568311666164E+00    1.3110559148752563E+00
Cs   -8.6760961954602518E+00    7.5570742761501934E+00   -1.3262661752980325E+01
Cs   -1.2565095123910424E+01    3.0864820967131403E+00   -5.6481196496996999E-01
Cs   -1.2204301898762651E+01   -1.3259515289767812E+01   -1.1942711465599256E+00
Cs   -1.0142987976045939E+01   -7.7876085285063894E+00    2.4849748339875326E+00
Cs   -4.3875781546028891E+00   -6.7518294518288444E+00    1.6022892306715333E+00
Cs   -8.4377241366910454E+00   -1.1433922135419694E+01    1.0428632003063719E+01
Cs    1.3008497028438553E+01   -9.3557929798105488E-01    1.1599163258296064E+01
Cs    1.0049175942451027E+01    8.7112657897364159E+00    4.0971128642311081E+00
Cs   -1.4701412082507840E+01    1.6928979775508961E+00   -5.8429740963676071E+00
Cs   -6.9676939448278459E+00   -2.1981682398170399E+00   -5.4225952645737010E+00
Cs   -1.0023966887023599E+01   -1.2091262779523305E+01    3.2876329891318559E+00
Cs    9.7133096816001760E+00   -7.3413572440395800E+00   -1.2187799335896480E+01
Cs   -4.4222334630493121E+00   -1.3615708826937297E+01   -8.2223013468241621E+00
Cs   -2.8033922477634792E+00    9.5963251415967310E+00   -1.3541866038843789E+01
Cs    1.1643455218772059E+00   -1.3229984055444399E+01   -8.4188734507578786E+00
Cs   -2.2571650291793297E+00    9.4513020349777577E+00   -8.0551032286277771E+00
Cs   -7.1627411970416004E+00    1.3065247851592156E+01    6.9525682931570874E+00
Cs    2.6567435312811578E+00   -1.0669529914512189E+01    2.1560534295057319E+00
Cs   -1.2776628783506030E+01   -3.0930634421470304E+00   -1.0433894949753894E+01
Cs   -1.2203453576176088E+01    1.0404001809061020E+01    4.6285393229551337E+00
Cs    7.7747207783980627E+00   -1.1018691757563911E+01   -4.0656529510635142E+00
Cs    1.0508162619412355E+01    1.3874796743306170E-01   -1.2130287916867024E+01
Cs   -9.1065804838497721E-01    1.2601078599503438E+01    9.5746624043875812E+00
Pb    3.3972836690627113E+00   -3.7460063615417765E+00   -2.5502081224290172E+00
Pb    4.4840892860088735E+00   -9.1147887085384056E+00   -1.5687583798110254E+00
Pb   -7.8826610317925354E+00   -3.9473767497412173E+00    4.6167913224578863E+00
Pb   -1.3100243794636190E+00   -9.9819703948685365E+00   -8.3837718316078380E-01
Pb    1.0276959996708954E+00    8.5880970976273581E+00   -5.1586827299576425E+00
Pb    1.9811812072666526E+00    2.0762298385356028E+00   -3.9536918071014613E+00
Pb    3.5311264862187448E+00   -2.6619575535199433E+00    3.2669474107720835E+00
Pb    5.3707194905691411E+00   -7.9289499984113290E+00    4.2441688419359185E+00
Pb   -4.2067794539424463E+00    8.4823699067486249E+00    1.6600603282135042E+00
Pb    1.4585191530418078E+00    9.7430560541792719E+00    4.3880902471620509E-01
Pb    2.3513689117445971E+00    3.9519513568441753E+00    1.7349721388991548E+00
Pb    4.2186170014057298E+00   -1.2244411684409575E+00    9.1218985843334917E+00
Pb    5.8998838171595782E+00   -6.7392389626164455E+00    9.9462353908181829E+00
Pb   -3.2361475699383870E+00    2.6100055763290229E+00    2.0854311866378241E+00
Pb    1.9533501616051265E+00    1.0718945542740361E+01    6.5739952862157311E+00
Pb    2.8324931990240039E+00    4.4266929009613811E+00    7.6605055408790115E+00
Pb   -1.4671172596338471E+00   -1.8872935581053674E+00    9.3180846380245619E+00
Pb   -6.9962997936866973E+00   -9.4921416319241274E+00    5.9762964755089962E+00
Pb   -9.5519955670495076E+00    8.5607649347761794E-01   -2.8567970222727173E+00
Pb   -2.9065642510381702E+00   -4.6152657445038425E+00   -8.1476583785058896E+00
Pb   -7.0297920068552056E-01   -8.8680537274047992E+00    4.9445161344098665E+00
Pb   -4.8279486599166752E+00    7.6024754878503131E+00   -4.2734822398740278E+00
Pb   -1.2657735598648074E-02   -7.4377267680338992E+00    1.0532346740525204E+01
Pb   -8.5786358086853216E+00   -4.4700320215316189E+00   -1.3576529816990770E+00
Pb   -7.5467929382583385E+00   -1.0686698143455803E+01   -4.8798824287648299E-02
Pb   -3.8825843417702051E+00    1.4445677351924537E+00   -3.6760507757085672E+00
Pb   -5.5731443526144053E+00   -8.7001265258514024E+00    1.2092569788474712E+01
Pb   -8.7832035518550189E+00   -5.8447418123438215E+00   -7.4223841859327759E+00
Pb    8.3048660982096099E+00   -3.4836029349232960E+00   -9.5659960192104272E+00
Pb    9.2712274712020744E+00   -9.1694832704731866E+00   -7.8479702672752900E+00
Pb   -2.0694140453880041E+00   -1.0418129068484477E+01   -6.9068396084211603E+00
Pb   -1.1015025758452092E+01    5.4620207698305849E+00   -9.9156818510563092E+00
Pb    2.8718915970896965E+00   -3.9184741226949100E+00   -8.6366429753956950E+00
Pb    3.5477416045811676E+00   -9.9591890626174191E+00   -7.1438195512646194E+00
Pb   -4.2993043647451170E+00    9.5420843817405465E-01   -9.1527238193760070E+00
Pb    6.8726920550981596E-01    7.8340875805200429E+00   -1.0889640633206911E+01
Pb    1.9339158178880955E+00    1.9749550362272024E+00   -9.7503370300807415E+00
Pb    8.6186903626844007E+00   -2.2231091866148653E+00   -3.7292757228741729E+00
Pb    1.0234263459853537E+01   -7.9647029114306838E+00   -2.1442893958786282E+00
Pb   -7.4888305260090293E+00   -3.3342323356865071E+00    1.0410937219753144E+01
Pb    6.7869900706465627E+00    8.8042806574924732E+00   -1.1340962939116283E+01
Pb   -1.0052189444116971E+01   -3.3254307051667148E-01   -8.7246843422611473E+00
Pb   -3.8758093933954330E+00    9.5257856695431808E+00    7.6118020991708022E+00
Pb    6.7801683754424618E+00    9.5882332097519551E+00   -5.2964257789561326E+00
Pb    8.0779566605450075E+00    3.8973452687644206E+00   -4.1875038281362222E+00
Pb    9.4384764250190223E+00   -7.1330273337033967E-01    2.6878560454479730E+00
Pb    1.1219447248029635E+01   -6.4667144711823834E+00    3.7373252334239089E+00
Pb    7.9235441306866354E+00    2.7397078617929038E+00   -9.8562375084700946E+00
Pb   -3.1660674118025853E+00    3.5469464040841707E+00    8.0483121360517806E+00
Pb    7.5176860687126590E+00    1.1135756114528720E+01    2.1660819842291645E-01
Pb    7.9741408728308469E+00    4.8018270160532692E+00    1.6307697473234990E+00
Pb    9.7042528149193394E+00    6.2010792006231219E-01    8.4674814213269958E+00
Pb    1.1457870997323226E+01   -5.0502991227467815E+00    9.6603048956742246E+00
Pb    7.4557482333485128E+00    1.2319068244531776E+01    6.0688234919382271E+00
Pb    8.7061571754001843E+00    6.3147382896245992E+00    7.8255280841477930E+00
Pb   -8.8905199646109399E+00    2.5813143778219430E+00    9.0987590228703432E+00
Pb   -2.0261113535082220E+00   -3.2585371681196631E+00    3.6189249885187245E+00
Pb   -1.0338694244615958E+01    7.3897409416337956E+00    1.8651557964338099E+00
Pb   -1.0765459764849137E+01    6.6483333949050554E+00   -3.9574841843501800E+00
Pb   -7.9211779265641304E+00   -1.1680838674240887E+01   -5.9599120959546257E+00
Pb   -5.1694568793503777E+00    6.7335776636578446E+00   -1.0359234002133649E+01
Pb   -8.9470694066788798E+00    1.5311696631525455E+00    2.9702743068052304E+00
Pb   -9.9416970496661623E+00    8.5112502649093624E+00    7.9881741351387232E+00
Pb   -2.3950881218266522E+00   -4.1050564041217203E+00   -2.2093854339772570E+00
Br    5.1824331827867731E-01   -4.2373047339427812E+00   -2.2898612297067844E+00
Br    3.5990858670193577E+00   -3.6456625035659767E+00   -5.4332734230241790E+00
Br    2.6310734544205441E+00   -6.9736720555609955E-01   -3.0958413227640595E+00
Br    1.4936462762373475E+00   -9.7608640787728174E+00   -1.1774544291348417E+00
Br    3.9740775331263265E+00   -1.0121129258274843E+01   -4.1075263986561952E+00
Br    3.6692517365069959E+00   -6.5262808045704439E+00   -2.1581570824103364E+00
Br   -2.6494898008303678E+00   -5.1667789540635960E+00   -4.9596329630136360E+00
Br   -7.7153881324575417E+00   -3.9639159375875068E+00    7.6023881420124466E+00
Br   -3.3925147727469707E+00   -1.4525573909997647E+00   -3.1499124353443841E+00
Br    5.5870313072000366E+00   -1.1777275837664801E+01   -1.1104654703250580E+00
Br    1.2215169304147292E+01   -3.9822984042925152E-01    2.7582194997150191E+00
Br   -4.1231453695179656E+00   -1.0262206465294751E+01   -8.8536646171796046E-02
Br   -1.0682477175280090E+01   -4.2034782387269116E+00    5.4028779688630895E+00
Br   -8.5515568004240468E+00   -4.7999219987971715E+00    1.7209315896775732E+00
Br    1.4285801138293870E+01   -6.8183382389156915E+00    3.9469236000135455E+00
Br   -1.9116932196681617E+00    8.7277234183571171E+00   -4.8222468359596755E+00
Br    4.3267239426702209E-01    7.2103072854726440E+00   -7.8135542699359011E+00
Br    7.3377111757675584E-01    1.1157402106363095E+01   -6.5223245423602014E+00
Br   -9.4066019280949531E-01    1.4501827482910572E+00   -3.6143494768034410E+00
Br    2.2048747343153705E+00    2.1389714439980114E+00   -6.7462040099315743E+00
Br    9.8088890754915947E-01    5.3336977941945793E+00   -4.7022010238497609E+00
Br    7.3887080605149369E-01   -2.6842103275868867E+00    3.6046898704213741E+00
Br    3.1537160804727264E+00   -3.1421736013865678E+00    2.6197892937412931E-01
Br    2.7087716269824345E+00    9.9945113423085852E-01    2.4628897175708042E+00
Br    2.2308774521187842E+00   -8.4788770327725302E+00    5.0065553896375095E+00
Br    4.6825306421280679E+00   -8.1792685833956522E+00    9.0039722640491127E-01
Br    4.0055375036442333E+00   -5.2657654240655782E+00    4.1393560700709360E+00
Br   -7.8106164837318515E+00    5.6491371556232002E+00   -1.0227062503468661E+01
Br   -5.5120929608899978E+00    6.7080902801353961E+00   -1.3142983409043266E+01
Br    5.9829141274231414E+00   -1.0575637073591741E+01    3.8394516820972950E+00
Br   -5.1681150150745161E+00    9.8859113442063293E+00   -1.1038529868630878E+01
Br   -4.7408933689452510E+00    3.9022434671719362E+00   -1.0206715546318572E+01
Br   -8.0656912262415865E+00   -1.1676676587387036E+00    3.7047298553222276E+00
Br   -1.6533063872076958E+00   -9.8041395560642783E+00   -3.9249765655167796E+00
Br   -7.0897027131030228E+00    8.0289279418766384E+00    1.7156561030736350E+00
Br   -4.5555915624236158E+00    7.3064930497606531E+00   -1.0373736560688511E+00
Br   -4.4427494255779294E+00    1.1262651444809203E+01    1.0901582351180417E+00
Br   -1.5558949042743466E+00    8.6892712756231347E+00    7.2358500741886955E-01
Br    8.0362807718349205E-01    1.0068614224575418E+01   -2.6706524249839925E+00
Br    7.1755257076131274E-01    1.2581371267783030E+01    7.4688748868947352E-01
Br   -6.4690567752091299E-01    3.8644168310512437E+00    2.1513250142369436E+00
Br    1.9596164487291408E+00    2.6228447582027652E+00   -1.0449853467184365E+00
Br    1.5939413974059455E+00    6.4695103464577608E+00    8.1017186694892096E-01
Br    1.2384963142680498E+00   -1.1557958069894141E+00    9.0709149120191697E+00
Br    3.9307880743132273E+00   -2.2870608456058590E+00    6.3407008081972895E+00
Br    3.4102382979650607E+00    1.6206416622935251E+00    8.4423392359973821E+00
Br    2.7455051020339645E+00   -7.4538310205367031E+00    1.0460893852659138E+01
Br    5.3159306700813236E+00   -7.5694042813988025E+00    7.0173184833796372E+00
Br    4.7279989449391699E+00   -3.9737082704129940E+00    9.8888752726473630E+00
Br   -1.1663657919023333E+01    7.5738354426288135E-01    3.0820289727601988E+00
Br   -9.5338767475299075E+00    1.6030851966158397E+00    2.9949341456878692E-01
Br    7.9100551471934120E+00   -9.1371634213501967E+00    1.0041918893055463E+01
Br   -9.3112654621412432E+00    4.8330612010193175E+00    2.5437542275014029E+00
Br   -7.6594585266210435E+00   -7.4140400385598126E-01    9.1996770624628610E+00
Br   -2.1329107446461353E+00   -7.0442559397365638E+00   -1.1715059736557141E+00
Br   -6.1827326039980797E+00    1.8938732827314138E+00    2.3266667911265624E+00
Br   -3.2088966801173031E+00    2.1700951169545735E+00   -6.3526162097518357E-01
Br   -4.1222988230931188E+00    5.6860908947436073E+00    2.3510352496531706E+00
Br   -1.0716571752475319E+00    1.0255530988783528E+01    6.7284892117917101E+00
Br    1.3927413179309591E+00    9.6593703780823112E+00    3.3601999386880661E+00
Br    7.5841696588084317E-01    1.3615978242799848E+01    6.1689011259841324E+00
Br   -1.7623114712084828E-01    4.0573174811253336E+00    7.6585157630341438E+00
Br    3.3781807372075980E+00    4.2456690931859349E+00    4.9019429307954132E+00
Br    2.6238190394545002E+00    7.7855103903890805E+00    7.6033302569212466E+00
Br   -4.5022141936973741E+00   -2.2920956877436875E+00    9.9607334738373883E+00
Br    4.4442887864564273E+00   -7.1612597913320286E-01    1.1864159641589955E+01
Br   -2.2872238027773251E+00   -2.2845528853378965E+00    6.2508934983539097E+00
Br   -2.4371770623250009E+00    8.3629892313492105E-01    8.9987666060279849E+00
Br   -1.3398388788316873E+00   -1.2832695203394410E+01   -1.9380280585937328E+00
Br    6.2450796185499700E+00   -6.2419949028382424E+00    1.2868438979929600E+01
Br   -1.2369348769433744E+01    6.0031717166524029E-02   -3.0173944988955776E+00
Br    7.7347311889664361E-03   -1.1527519932983884E+01    5.7295464249976451E+00
Br   -1.1674169091356887E+01   -3.8642035132975017E+00   -1.5630719417997863E+00
Br    2.3264353117011387E+00    1.1054387630714384E+01    9.4933449441299409E+00
Br   -8.7900972591642148E+00   -5.1931799245044861E+00   -4.2206967621300064E+00
Br   -8.7492935071784963E+00   -1.4300106551036100E+00   -1.6372998276675761E+00
Br    2.1590880816926066E+00    4.6875908106681869E+00    1.0652816673371783E+01
Br   -7.9164111174326255E+00    7.2328734854012673E+00   -3.7384944364757704E+00
Br   -5.0357749857882670E+00    7.7815615858317777E+00   -7.4554631258447399E+00
Br   -4.7631449647675899E+00    1.0591274613701291E+01   -3.5855554967475549E+00
Br   -6.5408354923805199E+00    1.2736199190152673E+00   -3.3147300999389411E+00
Br   -9.5032530051330433E+00   -9.7123278941368358E+00    7.5774523139721435E+00
Br   -4.3470612483234010E+00    1.9506050773874501E+00   -6.5287318027102987E+00
Br   -5.5817556900631633E+00   -5.1202669762074331E+00   -7.4598671991318177E+00
Br   -3.4036443112245540E+00   -5.4838810306655423E+00   -1.0808609361635691E+01
Br   -3.0444585121632306E+00   -1.9094287188436898E+00   -8.6813867934359763E+00
Br   -2.4531753704055426E+00    4.2943427277205251E+00    1.0867066932865878E+01
Br   -2.6649119496081779E+00   -8.3847559664002258E+00    1.1066953719260916E+01
Br    1.3558231992177047E-01   -8.8390415936021824E+00    8.1143936252594404E+00
Br   -5.2270893128705864E-01   -4.8237528035762889E+00    9.5166719241460918E+00
Br   -7.4942666472913819E+00   -1.0046312796142933E+01    3.0204030255294469E+00
Br   -7.7482555555556436E+00   -6.8042266400751936E+00    5.1200165084768745E+00
Br   -1.0037622385858736E+01    8.8373679254672606E+00    1.0841889981631658E+01
Br    9.6080130810644544E+00    1.3060212506919875E+01   -5.9019448483159920E-01
Br   -5.4347527489752760E+00   -7.5758515817106122E+00    1.4833773835469680E+01
Br    9.5431569682508304E+00    1.0042061146209235E+01   -5.4791880049403385E+00
Br    1.0888418838911351E+01    5.0254808774381967E+00    1.3393117497252223E+00
Br   -8.1937133521500591E+00    2.9960259805317468E+00    1.2101692845091161E+01
Br   -1.2049089405784965E+01   -6.0766195491411219E+00   -8.5576912048841383E+00
Br    1.2379624042312964E+01    5.3044806898084884E-01    8.7640969617905125E+00
Br   -4.0423349187926609E+00   -8.8522127310940224E+00    5.4088570559221827E+00
Br    5.5423028117381339E+00   -3.8671907969721095E+00   -9.4542525047982000E+00
Br    8.4977805633008767E+00   -4.2038345375196569E+00   -1.2222426828066427E+01
Br    1.4318408637578720E+01   -3.5858178243839203E+00    8.9968886067760696E+00
Br    7.7976077993611375E+00   -3.7424328692545261E-01   -9.1506475378158338E+00
Br   -4.7155621463899324E+00   -1.1298504208739789E+01    1.1833855198239338E+01
Br   -4.9429461681203857E-01   -8.9980973572366452E+00    1.8392209055681301E+00
Br   -1.5156723492850268E+00   -6.3149378169677997E+00    3.9826101104946834E+00
Br    6.3153640616673563E+00   -9.3347619882227999E+00   -7.2999122671214707E+00
Br   -5.1007186866583298E+00   -1.0499649585843258E+01   -6.2900756902796724E+00
Br    7.8622851053617673E+00   -9.4171465291541860E+00   -1.0454207702011924E+01
Br    8.9099907083261964E+00   -6.2181999850906973E+00   -8.3966570868869894E+00
Br    6.0113515729310207E-01   -9.5315994302124043E+00    1.3030485035487127E+01