 # Version information for this restart file 
 # current date 2021-06-17 12:39:57.645
 # current working dir /user/ub2042/exercises/2_fitting/MM_MD_workdir/md_settings.003
 # Program compiled at                              Thu Apr 22 21:44:59 EDT 2021
 # Program compiled on                cpn-k07-07-02.compute.cbls.ccr.buffalo.edu
 # Program compiled for                                                    local
 # Source code revision number                                       git:36754bb
 &GLOBAL
   PRINT_LEVEL  LOW
   PROJECT_NAME cp2k
   RUN_TYPE  MD
 &END GLOBAL
 &MOTION
   &MD
     ENSEMBLE  NVT
     STEPS  10000
     TIMESTEP     2.4999999999999996E+00
     STEP_START_VAL  6000
     TIME_START_VAL     1.4999999999999609E+04
     ECONS_START_VAL    -1.4031592531677251E+01
     TEMPERATURE     3.0000000000000000E+02
     &BAROSTAT
       PRESSURE     1.0100000000000000E+00
       TIMECON     9.9999999999999982E+03
     &END BAROSTAT
     &THERMOSTAT
       TYPE  CSVR
       &CSVR
         TIMECON     9.9999999999999982E+03
         &THERMOSTAT_ENERGY
              -1.9119885233929002E-01
         &END THERMOSTAT_ENERGY
         &RNG_INIT
Wiener process for Thermostat # 1        1 F T F  -1.0069755728574066E+00        3529487211.0         892566978.0         113824115.0        3681411532.0        3123167529.0        1101700212.0             12345.0             12345.0             12345.0             12345.0             12345.0             12345.0             12345.0             12345.0             12345.0             12345.0             12345.0             12345.0
         &END RNG_INIT
       &END CSVR
     &END THERMOSTAT
     &AVERAGES  T
       &RESTART_AVERAGES
         ITIMES_START  1
         AVECPU     1.7514500851665279E-02
         AVEHUGONIOT     0.0000000000000000E+00
         AVETEMP_BARO     0.0000000000000000E+00
         AVEPOT    -1.4415647162104406E+01
         AVEKIN     4.7710581621886111E-01
         AVETEMP     2.4202075683366670E+02
         AVEKIN_QM     0.0000000000000000E+00
         AVETEMP_QM     0.0000000000000000E+00
         AVEVOL     6.7483345830909275E+06
         AVECELL_A     1.8897261328855745E+02
         AVECELL_B     1.8897261328855745E+02
         AVECELL_C     1.8897261328855745E+02
         AVEALPHA     9.0000000000000000E+01
         AVEBETA     9.0000000000000000E+01
         AVEGAMMA     9.0000000000000000E+01
         AVE_ECONS    -3.8396979338428259E+00
         AVE_PRESS     0.0000000000000000E+00
         AVE_PXX     0.0000000000000000E+00
       &END RESTART_AVERAGES
     &END AVERAGES
     &PRINT
       &ENERGY  SILENT
         &EACH
           MD  10
         &END EACH
       &END ENERGY
     &END PRINT
   &END MD
   &PRINT
     &TRAJECTORY  SILENT
       &EACH
         MD  10
       &END EACH
     &END TRAJECTORY
     &CELL  SILENT
       &EACH
         MD  10
       &END EACH
     &END CELL
     &VELOCITIES  SILENT
       &EACH
         MD  10
       &END EACH
     &END VELOCITIES
     &FORCES  SILENT
       &EACH
         MD  10
       &END EACH
     &END FORCES
     &RESTART  SILENT
       &EACH
         MD  10
       &END EACH
     &END RESTART
   &END PRINT
 &END MOTION
 &FORCE_EVAL
   METHOD  FIST
   &MM
     &FORCEFIELD
       VDW_SCALE14     1.0000000000000000E+00
       EI_SCALE14     1.0000000000000000E+00
       SHIFT_CUTOFF  T
       DO_NONBONDED  T
       IGNORE_MISSING_CRITICAL_PARAMS  T
       &SPLINE
         R0_NB     2.5000000000000000E-01
       &END SPLINE
       &NONBONDED
         &LENNARD-JONES
           ATOMS Br Br
           EPSILON     1.2630795322675199E+02
           SIGMA     3.6900000000000004E+00
         &END LENNARD-JONES
         &LENNARD-JONES
           ATOMS Cs Pb
           EPSILON     8.6920055954630968E+01
           SIGMA     3.6699999999999999E+00
         &END LENNARD-JONES
         &LENNARD-JONES
           ATOMS Cs Cs
           EPSILON     2.2644852172126850E+01
           SIGMA     4.5300000000000002E+00
         &END LENNARD-JONES
         &LENNARD-JONES
           ATOMS Pb Pb
           EPSILON     3.3363415533600227E+02
           SIGMA     5.9000000000000004E+00
         &END LENNARD-JONES
         &LENNARD-JONES
           ATOMS Br Cs
           EPSILON     5.3481070753900497E+01
           SIGMA     3.6300000000000003E+00
         &END LENNARD-JONES
         &LENNARD-JONES
           ATOMS Br Pb
           EPSILON     2.0528187276773045E+02
           SIGMA     2.9800000000000000E+00
         &END LENNARD-JONES
       &END NONBONDED
       &CHARGE
         ATOM Cs
         CHARGE     4.1739999999999999E-01
       &END CHARGE
       &CHARGE
         ATOM Pb
         CHARGE     8.3479999999999999E-01
       &END CHARGE
       &CHARGE
         ATOM Br
         CHARGE    -4.1739999999999999E-01
       &END CHARGE
     &END FORCEFIELD
     &POISSON
       PERIODIC  XYZ
       &EWALD
         EWALD_TYPE  SPME
         GMAX  62 62 62
         O_SPLINE  4
       &END EWALD
     &END POISSON
     &PRINT
       &FF_INFO  LOW
         SPLINE_INFO  F
         SPLINE_DATA  F
       &END FF_INFO
     &END PRINT
   &END MM
   &SUBSYS
     &CELL
       A     1.0000000000000001E+02    0.0000000000000000E+00    0.0000000000000000E+00
       B     0.0000000000000000E+00    1.0000000000000001E+02    0.0000000000000000E+00
       C     0.0000000000000000E+00    0.0000000000000000E+00    1.0000000000000001E+02
       PERIODIC  XYZ
       MULTIPLE_UNIT_CELL  1 1 1
     &END CELL
     &COORD
Cs    1.4979088230154181E-01   -1.0181671051116350E+00   -6.1199645016418520E+00
Cs    8.0394762760441352E-01   -6.0398032939039448E+00   -5.6579136756276815E+00
Cs    1.1397368059084896E+00   -1.1996518633570219E+01   -5.2589267060325531E+00
Cs   -4.9540155482871420E+00   -6.4790094376735103E+00   -5.6054083166816220E+00
Br   -7.4251180613142820E+00   -1.3633806722174585E+01   -7.3047310623782176E+00
Br    1.1468957382072704E+01   -1.6211539004649678E+00   -1.0632717129086316E+01
Br   -3.3726545562212755E+00    1.3286497769844023E+00   -1.2138228477094193E+01
Cs   -1.7056527625168333E-01    4.9979919810638460E+00   -5.7738117075853159E+00
Cs    7.4993290345904129E-01   -1.4821064763202679E-01    9.3413970721253556E-02
Cs    7.6260685569093711E-01   -5.6508849185309504E+00   -2.9557232772025166E-01
Br   -5.0512698154599276E+00   -3.0625769651069779E+00    3.8110332963429112E+00
Cs   -1.0384761661764395E+01   -4.4203209359800937E+00    1.2893112074429432E+01
Cs    1.3571265576824777E+01   -9.8697087581193745E+00    7.1630998579369398E-01
Cs   -5.0968229677411969E+00    4.8015504738242063E+00   -4.3488164744014901E-01
Cs   -1.4189639575774151E+00    1.1115601414478904E+01   -1.8888543615654245E+00
Cs   -4.5002691445507177E-02    5.5692656134883718E+00   -4.1502132623056737E-01
Cs   -9.9756763482799077E-03    8.2572513951155779E-01    5.7530279275767855E+00
Cs    4.1602977850365069E-01   -4.8714291000883465E+00    6.7372835143687251E+00
Cs    1.0269199886051603E+00   -1.1183019270522962E+01    8.5372340039033414E+00
Cs   -6.3754073232313546E+00    6.4169545118152156E+00    1.0309274979676115E+01
Cs   -5.6993370276737929E+00   -1.5616788082099764E+00   -1.0911565650124087E+01
Cs   -5.0339215327646460E+00   -1.2794239928844178E+01   -4.2698761443001434E+00
Cs   -5.7323806776695250E+00   -2.9962988803604501E-01    6.0332890403365171E+00
Br   -2.5684065092236028E+00   -3.3054464229985712E+00    6.0022027627748453E-01
Cs    6.1837274630040084E-01    6.8977686690144830E+00    5.1588947285868940E+00
Br    1.2303695249385424E+01   -7.4771395781233574E+00   -9.7342982728140122E+00
Cs    1.1181774111446567E+00   -5.0433374570412361E+00    1.1441689683910951E+01
Br   -2.0589413754496464E+00    3.1145991025406977E-01    3.2109885545024168E+00
Br   -8.0678107605127298E+00   -1.7092463547441241E+00    1.2190845743951563E+01
Cs    1.1003662137422847E+01    1.0723017206262895E+01   -7.2298081697748984E+00
Cs   -1.1425312896379850E+01   -5.5135077522046751E+00    7.0851617797360884E+00
Cs   -5.0915218817016603E+00   -5.9029326683102346E+00    6.9115599281079447E+00
Cs   -8.3372810546295888E+00    1.0213542082975113E+01   -7.5299714859497584E+00
Br   -1.0746033685701619E+01   -9.8358979293701552E+00    1.0740098482779171E+01
Br   -7.7841203349606420E+00   -8.8707181674630213E+00    7.5724538401853891E+00
Cs   -1.0645590233850761E+01   -7.7966456448375503E+00   -4.2858368624455982E+00
Cs   -6.5490809442532019E+00    4.6124186498865010E+00   -6.3904538824380213E+00
Br   -7.7412431503467332E+00   -5.6103716238161079E+00    1.0465979547504643E+01
Cs    1.1666502586067047E+01    7.5447918319744929E+00    9.4339248609029536E+00
Br   -1.2465536272811551E+01    9.1238966746271419E+00    7.8220572206826198E+00
Br   -5.2111359959061767E+00   -3.8356179113722755E+00   -2.4294959950195616E+00
Cs    4.8526164369023894E-01    1.0322341771710362E+00    1.1484099964771747E+01
Cs    1.0206427534394875E+01    6.7935217830091537E+00   -5.8707610041560876E-01
Cs   -9.4095371132819636E+00   -8.9116165760742394E+00   -1.1069923468965740E+01
Cs    1.2020273781782045E+01    1.5243321622018133E+00    6.3698179214707125E+00
Cs   -1.3786456862051610E+01    9.3316393580761439E+00   -5.8422896495689578E+00
Cs    1.1405832091644173E+01   -1.1440919484249518E+01    6.3998055594436254E+00
Cs    6.1456997962711126E+00   -6.6111733529099590E+00   -1.2108913347147322E+01
Cs    6.9750015589806580E+00   -1.0555616623307639E+01    6.9426390801603288E+00
Cs   -4.2409515592794103E+00   -1.1977346337524835E+01    1.4643802199700049E+00
Cs    6.4258604548331864E+00   -1.1466760029538479E+01   -1.1072746496458560E+01
Cs    1.0557441862344017E+01    6.3378325689283548E+00   -6.9637383403986339E+00
Cs    1.0980806528258181E+01    1.2077004050671963E+01    4.3165358374062768E+00
Cs    9.3698759744550983E+00    6.7583769399467553E+00   -1.3324071519475188E+01
Cs    8.3341105424574735E-01   -6.4814892480648894E+00   -1.1194202663709746E+01
Cs   -1.1858216128666623E+01   -1.5735732594868526E+00   -4.9660245403390348E+00
Cs    6.4856480843960957E+00   -4.8290825195765334E+00    1.0947527750716366E+01
Cs    1.2248780494543968E+01   -4.9116134180494573E+00    5.7316670112071595E+00
Cs   -9.6724673987922980E+00   -1.1093941705594906E+01    1.3561812336765021E+01
Cs   -4.2917843937307371E-01   -1.0388392968050379E+00   -1.1998684172672094E+01
Cs   -3.3035202042701073E-01    1.1085557193621435E+01    4.6888740905311890E+00
Cs   -1.3327971583864480E+00    4.2931597370511421E+00   -1.1984310182133086E+01
Cs    5.2520575137829848E+00   -1.4632877695893776E-01   -5.6340769060369231E+00
Cs    6.7991766997300909E+00   -5.9591800891163560E+00   -5.6434761207217727E+00
Cs   -4.0197094085026865E+00   -1.0682046195158275E+01    7.8183261266242905E+00
Cs   -1.1578743397334026E+01   -5.8263683481659390E-01    6.6756485474703737E+00
Cs    5.6026075864566920E+00   -1.6282595262117971E-01   -1.1782264279959721E+01
Cs    4.2296230446533771E+00    1.1409305320688000E+01   -1.2020319454218644E+01
Cs   -1.0345804311429627E+00    7.1556393048878206E+00    1.0840592461077096E+01
Cs   -6.9557963487081995E+00    1.1990108567772092E+01    4.8180000575285566E+00
Cs    4.2349279221574667E+00    1.1705217833753952E+01   -7.0124628512413834E+00
Cs    5.2308511267384494E+00    5.9903955812739245E+00   -5.8518653032851624E+00
Cs    6.3051190907875601E+00    8.0966756791215888E-01    2.9090060973304366E-01
Cs    6.5891408832756246E+00   -5.7979254846738062E+00    1.7319972278582879E-01
Cs    6.9665439142992636E+00   -1.0416290729496291E+01    3.4763146323654764E-01
Cs    4.0628365692570876E+00    6.2650173656983794E+00   -1.1826173979070994E+01
Cs   -5.6696744844403852E+00    5.8350637917736403E+00    5.5123750798321884E+00
Cs   -5.2989057678293818E+00   -7.6260111806962314E+00   -9.6162277520244590E+00
Cs    4.9548212411416515E+00    5.6605941147260692E+00   -1.8091365926760211E-01
Cs    6.0466448132359334E+00    1.7055725334878602E+00    6.7209888554526183E+00
Cs    6.3347571745228324E+00   -4.4358068737800140E+00    5.7312754888420505E+00
Cs   -7.1103483462883421E+00    1.1241849539487420E+01   -1.2877406718425672E+00
Cs    1.1738836833993858E+01    1.0987186802109712E+00   -8.0694591010343453E-01
Cs   -5.3628866038650935E+00   -1.3369749409790423E+00    6.4999716021446652E-01
Cs   -1.1503125545564220E+01    5.4087662333688575E+00    5.1151810233333137E+00
Cs   -5.7884757766591983E+00    1.1589606500264613E+00    1.1585435982521743E+01
Cs    5.0716593856796424E+00    1.2098244034762203E+01    4.8982054362067045E+00
Cs    6.1729125934672817E+00    7.1065396668968832E+00    5.1462274118696012E+00
Cs    7.2895314437009215E+00    2.3487281992604663E+00    1.1577577919551146E+01
Cs    5.0145616035775644E+00    1.1677234203704664E+01   -5.9261162673040058E-01
Cs    1.1095550239716335E+01    3.4350272318516584E-01   -6.8566950776129083E+00
Cs    1.1895627709901511E+01   -6.4733199055690136E+00   -5.7988350319634554E+00
Cs    6.2477186375356757E+00   -1.0032893223134984E+01    1.2082029470481862E+01
Cs    1.1277381828151540E+01    1.2364725872165184E+01   -1.4273757893300263E+00
Cs   -1.1506270942939491E+01    6.2981203824922911E+00    1.1171881443225347E+01
Cs   -7.3746935063964703E+00    3.6429154926603831E+00   -1.2778366621906979E+01
Cs   -1.2454398912815192E+01    9.0218509149642188E+00   -3.2244987333943204E-01
Cs   -4.5503129427481888E+00   -4.8121415047970926E+00    1.1927022861985762E+01
Cs   -3.8295147083782410E+00   -9.6843504280782771E+00    1.3638722533311418E+01
Cs    4.8017208342419329E+00    7.8670341556579739E+00    1.0604973409984408E+01
Cs    1.1998394508142500E+01   -4.6018067324326202E+00   -1.1746301804221118E+00
Cs   -1.0995750737930477E+01   -1.4364483202517324E+00    6.0306800006479677E-01
Cs   -8.2410666078553163E+00    8.8119930347536570E+00   -1.2868326188782339E+01
Cs   -1.1687979309905003E+01    4.2302490047584715E+00   -7.3499366126664833E-01
Cs   -9.6577688646846660E+00   -1.4082296479680929E+01   -3.9104485060560488E+00
Cs   -1.0074282045472570E+01   -6.5949132381807702E+00    1.3543865569121349E+00
Cs   -5.0244735821942523E+00   -6.8271563047461381E+00    9.4267150102583863E-01
Cs   -9.5306857323055194E+00   -1.1460522001528270E+01    7.7211107833110741E+00
Cs    1.2824730883854288E+01   -4.1387243117389509E+00    1.0349588911253225E+01
Cs    1.1320409697484971E+01    6.5759404877926046E+00    4.9312649739975143E+00
Cs   -1.2544982585611010E+01    3.3432541265501641E+00   -5.6257675722783365E+00
Cs   -6.3473333647325703E+00   -1.2652003800867904E+00   -5.8091476375231945E+00
Cs   -1.2003321391846669E+01   -1.1164493128453429E+01    1.9730699478851690E+00
Cs    1.1875104248586286E+01   -5.2284647813290173E+00   -1.2467693220195921E+01
Cs   -4.4767185253687396E+00   -1.2967362241436390E+01   -9.5128953361242861E+00
Cs   -1.4280546202034148E+00    1.0327896994594211E+01   -1.2802389931175387E+01
Cs    5.2685929297366807E-01   -1.0887376676040834E+01   -1.1851793352896511E+01
Cs   -1.7938415352355672E+00    1.0526225752660077E+01   -6.9706381564921482E+00
Cs   -6.7209200014002626E+00    1.2188412998950549E+01    1.0046198832716549E+01
Cs    1.0301172154857519E+00   -1.1960779766345901E+01    4.1392133215562721E-01
Cs   -1.2804241137456726E+01   -2.8788909084282874E+00   -1.0298372559099096E+01
Cs   -1.1839725820420817E+01    1.0905530475951149E+01    4.9295350925658958E+00
Cs    6.6199075161102421E+00   -1.1185747764220734E+01   -5.9096087082389612E+00
Cs    1.1412719237063229E+01    1.2179747826237770E+00   -1.2735932150561668E+01
Cs   -8.4249588953471288E-01    1.2517696427916924E+01    1.0280203098195413E+01
Pb    3.5307700399613120E+00   -3.0458157788658111E+00   -2.7568233816848244E+00
Pb    3.6264452675550198E+00   -8.8393788051965991E+00   -2.3597192773951945E+00
Pb   -7.8464811965244667E+00   -3.3685810734123485E+00    3.7040132449863803E+00
Pb   -2.0714394801185954E+00   -9.1715838078397542E+00   -1.7311020731776716E+00
Pb    2.0181506896618102E+00    8.8880011073177023E+00   -3.6562679108505014E+00
Pb    2.6880447949877277E+00    2.7723501530161916E+00   -3.1158269265162457E+00
Pb    3.5335978664021215E+00   -2.4813528762309454E+00    2.9953964622325446E+00
Pb    3.7367032061755454E+00   -8.4426093479994773E+00    3.5133617246812632E+00
Pb   -3.6107994666084200E+00    9.2178117218747708E+00    1.9014208975756113E+00
Pb    2.5235754895254203E+00    9.1246567330245494E+00    2.0819829595903578E+00
Pb    2.7762078300547692E+00    3.4338688638309951E+00    2.9157942100953500E+00
Pb    3.8448331341801172E+00   -1.9018265127894594E+00    8.7443152523927949E+00
Pb    3.9926953389981801E+00   -7.7755818436484692E+00    9.0132235513759120E+00
Pb   -2.9329357066103419E+00    3.1547546019440911E+00    2.9322701864090366E+00
Pb    2.5471678254984713E+00    9.9777740576318887E+00    7.8315128177291564E+00
Pb    2.8516850681993420E+00    4.2404347743523552E+00    8.9633352202631773E+00
Pb   -2.3611285756882960E+00   -1.8340858996549247E+00    9.5373150158581943E+00
Pb   -7.8896329174796627E+00   -8.9907932788531877E+00    4.4064502558388732E+00
Pb   -9.0661474679612777E+00    1.6743908983147993E+00   -2.7142782097820128E+00
Pb   -2.7652296449662490E+00   -4.0450895062468035E+00   -8.6913107760922337E+00
Pb   -1.8532957157505041E+00   -8.8499643530573842E+00    4.3028653539454993E+00
Pb   -4.1569606136486748E+00    8.0759103002897312E+00   -4.1047940764068596E+00
Pb   -1.7384573401385299E+00   -7.9395749706327452E+00    1.0366300113902851E+01
Pb   -8.1466724031574991E+00   -4.2054376981106403E+00   -2.1813506977095591E+00
Pb   -8.4477845848374216E+00   -1.0227940753797947E+01   -1.2510931580873017E+00
Pb   -3.1709534196855791E+00    2.1324716640116557E+00   -3.2268496223600343E+00
Pb   -7.5604741448691515E+00   -8.7029238178451411E+00    1.0545225048686220E+01
Pb   -8.9596284228103720E+00   -4.9647279106965998E+00   -8.1371466516467716E+00
Pb    9.0024936359100405E+00   -2.8040377899083602E+00   -9.4358085772911693E+00
Pb    9.8233683447331561E+00   -8.6092648508565954E+00   -9.4197175852463779E+00
Pb   -2.2057608354231646E+00   -9.7620022761674949E+00   -7.5979095832548706E+00
Pb   -1.0900873583958896E+01    6.6066722837154677E+00   -9.6427698074227024E+00
Pb    3.0792213033205438E+00   -3.3472793136435137E+00   -8.6272140499449783E+00
Pb    3.8043442411820543E+00   -9.2067249768552362E+00   -8.3006599369762544E+00
Pb   -3.5930446211487310E+00    1.9029639867590320E+00   -9.1108262044684398E+00
Pb    1.1830441268819265E+00    8.3621144009856678E+00   -9.6082240762167004E+00
Pb    2.3495138592160347E+00    2.3646772285111717E+00   -9.3881334963927259E+00
Pb    9.0734011909764902E+00   -2.6120032899659309E+00   -3.7791610399660076E+00
Pb    9.5491318809431096E+00   -8.6246167651132044E+00   -2.7178389692309248E+00
Pb   -8.3654327320328559E+00   -2.8369850645785255E+00    9.6915729463558655E+00
Pb    7.5422927482618949E+00    9.1068648697140677E+00   -9.8457051082601570E+00
Pb   -9.6776835729566955E+00    8.8698401421311190E-01   -8.9584405152338658E+00
Pb   -3.4166507588455679E+00    9.8290278001126499E+00    7.9689038758412183E+00
Pb    8.0237916576199328E+00    9.2552001621869291E+00   -3.9576737239673347E+00
Pb    8.3516391000713828E+00    3.3703524858218814E+00   -3.1912530526338965E+00
Pb    9.4086987250325169E+00   -2.1400119172941880E+00    2.3572604385492864E+00
Pb    9.5778847208010500E+00   -8.1137394986908991E+00    3.1855808480548036E+00
Pb    8.0951292244168567E+00    3.0668963179486535E+00   -9.9381995580631504E+00
Pb   -3.1198749624089479E+00    3.9466617168710130E+00    8.8142216794288597E+00
Pb    8.2048650734260171E+00    9.3113474187432317E+00    1.8252056812589998E+00
Pb    8.7378602188211918E+00    3.8286941976407531E+00    2.6725469497843433E+00
Pb    9.8109090568453166E+00   -1.7364703027030230E+00    8.2849356275269201E+00
Pb    9.9662144594636342E+00   -7.6675970725865374E+00    9.4067430924524249E+00
Pb    8.6493096305515973E+00    1.0455844765580355E+01    8.1013019810680937E+00
Pb    9.0119641314279342E+00    4.4503121295775019E+00    8.4984750395961282E+00
Pb   -8.7612793305189900E+00    3.2943400785137626E+00    9.0073582586203322E+00
Pb   -1.9431729443935806E+00   -2.7665192883175274E+00    3.4038389542141836E+00
Pb   -9.3270764558429384E+00    8.2006766038505639E+00    2.1554331989435012E+00
Pb   -1.0190232065908598E+01    7.6386956550646650E+00   -3.7049992272992971E+00
Pb   -8.1810699815542627E+00   -1.0912090898330831E+01   -7.3323871781827163E+00
Pb   -4.8122839095172409E+00    7.6695483066533958E+00   -9.8367381553155333E+00
Pb   -9.0502493231497638E+00    2.5627106571111238E+00    3.0540405096874288E+00
Pb   -9.2792852943336559E+00    9.0728188094458559E+00    7.9897905695859457E+00
Pb   -2.1913559374654947E+00   -3.5059933093373945E+00   -2.6457078830257861E+00
Br    5.8897910831966338E-01   -2.7967884012845565E+00   -2.7086038060651014E+00
Br    2.5681258610596966E+00   -2.7406516958851328E+00   -5.9450278008620332E+00
Br    3.3208338228001879E+00    1.1060413253375387E-01   -2.6077899972389189E+00
Br    6.4976759003315221E-01   -8.8357736619768676E+00   -2.2373171041225284E+00
Br    3.9059899210925275E+00   -9.2145962708487943E+00   -5.3617671698674174E+00
Br    3.8865682390421097E+00   -5.8772067574868450E+00   -2.6099863491979618E+00
Br   -2.7799901505737594E+00   -3.6757698457784169E+00   -5.6209019565274385E+00
Br   -8.3740481324051590E+00   -3.3649819572496753E+00    6.6576464458660736E+00
Br   -2.8054975706067844E+00   -6.7549983531108815E-01   -2.0558329789892600E+00
Br    3.6521398516110177E+00   -1.2097060514477084E+01   -2.2158860437194594E+00
Br    1.2191477116153933E+01   -2.2137768642998292E+00    2.7447244946837612E+00
Br   -4.7569704659226817E+00   -9.6496206675151051E+00   -7.3572143341393126E-01
Br   -1.0609941950194649E+01   -3.8526557468533840E+00    3.3908305547480158E+00
Br   -8.0086858543784967E+00   -3.9677728750283041E+00    6.7248688965994330E-01
Br    1.2554880657448205E+01   -8.1714003384377634E+00    3.1913870219263543E+00
Br   -8.6446662456663892E-01    8.0293108185256710E+00   -4.1268096185142209E+00
Br    1.4348162195617400E+00    9.1853008674371726E+00   -6.3892278944503742E+00
Br    1.6513163230113368E+00    1.2055020611016149E+01   -3.1523262033465924E+00
Br   -1.2803239922545545E-01    2.2669060575514428E+00   -3.4050990811884576E+00
Br    2.4932209904566016E+00    2.4737418124243646E+00   -6.0831459369756313E+00
Br    2.2700198214673870E+00    5.9443050727808471E+00   -3.3931676185411304E+00
Br    8.5735784004890181E-01   -2.1317121608388141E+00    2.7668052017430083E+00
Br    3.7974177036554830E+00   -3.2995637721409170E+00    4.5599799020860789E-02
Br    3.4473317409291813E+00    4.7973080193834811E-01    2.1454881141298752E+00
Br    1.0609280346956549E+00   -8.6552040210653747E+00    4.5074959727418360E+00
Br    3.8422172485145718E+00   -8.6662549724681917E+00    5.5634302051635753E-01
Br    3.5047029702659565E+00   -5.4329916922779429E+00    3.5335866848766799E+00
Br   -7.6886879228526253E+00    6.3421514104782615E+00   -9.3842235250719508E+00
Br   -5.3469824938195760E+00    7.5314174147572333E+00   -1.2730728225957323E+01
Br    3.8289354563020428E+00   -1.1323103141555078E+01    3.0322040773040606E+00
Br   -4.7254134027273569E+00    1.0524146354261294E+01   -9.9607576723108586E+00
Br   -3.8275532298226991E+00    4.6770395278904981E+00   -1.0000641863379508E+01
Br   -8.1617434082314873E+00   -2.8687967186217200E-01    3.3251617180826760E+00
Br   -2.6501319170784181E+00   -9.4231599329960911E+00   -4.5416573801124489E+00
Br   -6.7357949714883221E+00    9.2331318294453126E+00    1.5223614080436063E+00
Br   -3.4426500937750895E+00    8.1845993997845383E+00   -9.2916971457712838E-01
Br   -2.9600144601355534E+00    1.1755991736228685E+01    8.0944579728839616E-01
Br   -4.6769538928597632E-01    8.6031102584691546E+00    2.4173259095429698E+00
Br    2.5771764516191631E+00    8.6603835875379307E+00   -7.7486248058994567E-01
Br    1.7451389489300777E+00    1.1657149086109710E+01    2.0803970158267089E+00
Br    6.7692222104455510E-02    3.8002217656868300E+00    2.8265465151122688E+00
Br    2.2973732969571183E+00    3.0934117866593529E+00   -3.1231667584880590E-01
Br    3.0028685794076915E+00    6.3648814904811131E+00    2.9535810323297729E+00
Br    5.7382025789292535E-01   -2.1130058840507688E+00    8.9732524180851883E+00
Br    3.5210066922749501E+00   -1.8025004062035166E+00    5.8020091039426704E+00
Br    3.0275391384238675E+00    8.6312414957517369E-01    8.6538373558436064E+00
Br    9.2155212544708531E-01   -7.7463154769698139E+00    8.9081503966309565E+00
Br    4.3755794159465031E+00   -8.5134421314071176E+00    6.3129959248339569E+00
Br    3.8497938957749689E+00   -4.7972823254210644E+00    8.8254231669483758E+00
Br   -1.1957619530344033E+01    2.0058111434031423E+00    3.4817326927091541E+00
Br   -9.1112338060741802E+00    1.8534425789199960E+00    1.7668688200427773E-01
Br    4.3641330612889204E+00   -1.0772394426037284E+01    9.4851311072066178E+00
Br   -9.6778233506413738E+00    5.1732517412156716E+00    2.2765682186188450E+00
Br   -8.2169341410913503E+00    3.5886824031359627E-01    9.0684831024844286E+00
Br   -1.8991134748591600E+00   -6.2402423967097711E+00   -2.4447887096143353E+00
Br   -5.8791429983281267E+00    2.5882502949171071E+00    3.2540721136874122E+00
Br   -2.3495928446161898E+00    2.7246104418585140E+00   -2.1278160266046478E-01
Br   -3.3304472288937155E+00    6.1147013474104996E+00    2.2118909458383604E+00
Br   -5.0095920327939680E-01    9.1741624421422792E+00    7.4266397934276203E+00
Br    2.6816206426517701E+00    9.7543760899505312E+00    5.0708115622249563E+00
Br    1.3810133747197102E+00    1.2655308484155674E+01    7.3460403705684145E+00
Br   -1.0263831752723707E-01    3.5440621836790194E+00    9.0894662490603313E+00
Br    2.5330288550251390E+00    3.4872217110448109E+00    5.6808738478490159E+00
Br    2.6056423125570993E+00    6.8900147691317430E+00    7.8799969064444868E+00
Br   -5.3675547852754484E+00   -2.4556639916100380E+00    9.4288632417671092E+00
Br    4.2795039516058546E+00   -2.2860995258592482E+00    1.1402894837331297E+01
Br   -1.9691638677714862E+00   -1.5419396070555864E+00    6.5122775491261189E+00
Br   -2.8878315035729316E+00    9.8196977885398795E-01    9.8905691250975725E+00
Br   -1.9930807153777763E+00   -1.1972248539545060E+01   -1.1603312443477525E+00
Br    3.4284665948820443E+00   -7.1256787696854529E+00    1.2046150712499255E+01
Br   -1.1848631601327124E+01    1.4697887316291856E+00   -2.6427445072454159E+00
Br   -2.3361206005144739E+00   -1.1982029715776495E+01    4.7687355371850195E+00
Br   -1.1068827380834094E+01   -4.1243774283680983E+00   -2.0223702389321900E+00
Br    1.3471601514651630E+00    9.7124906523541163E+00    1.0487089254244617E+01
Br   -7.9429354252047144E+00   -4.8378404605720675E+00   -5.1098702901487814E+00
Br   -8.8465869749170416E+00   -1.2196336113225288E+00   -2.4285367220634901E+00
Br    3.6873487627138770E+00    4.2080746373289859E+00    1.1697034259053501E+01
Br   -7.1997901414632715E+00    8.6680670978349585E+00   -3.8558587750471887E+00
Br   -4.9152400666209237E+00    7.2979618860014108E+00   -6.9845438608158137E+00
Br   -3.9306566118718362E+00    1.0721936114274889E+01   -4.2962953574794769E+00
Br   -6.1314698048348628E+00    2.2132318872759074E+00   -2.5818442303538371E+00
Br   -1.0748396614607177E+01   -8.4950406322903067E+00    4.9856101621162630E+00
Br   -3.0954619478367618E+00    1.9131649387804237E+00   -6.1712538271984965E+00
Br   -5.8185349653535887E+00   -4.1228907943764570E+00   -8.3322728969946471E+00
Br   -3.0057806152192668E+00   -4.4928564933141839E+00   -1.1397562314065048E+01
Br   -2.9517946238988642E+00   -9.3891390497211091E-01   -8.3574119034465966E+00
Br   -3.3035602201198251E+00    4.9074222579873998E+00    1.1897839338642349E+01
Br   -4.7465285763334428E+00   -8.0347125591357500E+00    1.0284442428203425E+01
Br   -2.2223766836408139E+00   -8.0329528153509937E+00    7.0461048317008768E+00
Br   -1.5764751498500829E+00   -4.9095271273341794E+00    9.4131737749581461E+00
Br   -8.8700660478878230E+00   -1.0098644467490004E+01    1.6677086863964594E+00
Br   -7.4971974642967787E+00   -6.3715914913101335E+00    3.5897910976608105E+00
Br   -9.3057248232165595E+00    9.2188742694933055E+00    1.0824157714336422E+01
Br    1.1168384947765453E+01    9.0706507214601810E+00    1.7762525581600859E+00
Br   -7.2666928680627398E+00   -8.3498901856634635E+00    1.3295533151324888E+01
Br    1.1250833232532145E+01    8.2569376982444034E+00   -4.3283754645574488E+00
Br    1.1481342717848376E+01    4.9781810992661644E+00    2.3296199905789674E+00
Br   -8.3532312184806550E+00    4.4386689291311789E+00    1.1930119600673686E+01
Br   -1.1875393892519146E+01   -4.4631886347902139E+00   -7.6825353236394482E+00
Br    1.2582291162765717E+01   -1.5403358849663737E+00    7.7569905766715177E+00
Br   -4.7221470349233963E+00   -8.4943997950586745E+00    3.6599709535687159E+00
Br    5.8394769622662794E+00   -3.0837892833579623E+00   -8.8733917040581911E+00
Br    7.7850755409030175E+00   -2.9653972623895455E+00   -1.2205170254823846E+01
Br    1.2562617917328458E+01   -7.0753503277964080E+00    8.3839032886679625E+00
Br    8.1998880900327489E+00    3.0062122596599916E-01   -9.3691298463003108E+00
Br   -7.1492267960755811E+00   -1.1520331342646326E+01    1.0780266035383240E+01
Br   -1.8738389630295078E+00   -8.7570821518343624E+00    1.5274543391871997E+00
Br   -1.4737617162744616E+00   -5.8590607416056066E+00    3.9899956405592762E+00
Br    6.5946399087968999E+00   -8.8741629903899977E+00   -8.9163480195714797E+00
Br   -5.1452853360127850E+00   -1.0223367598754880E+01   -7.0927750181967548E+00
Br    9.2072282202485471E+00   -8.2914775865356098E+00   -1.2411666771047772E+01
Br    9.1728794819743626E+00   -5.8667668903665833E+00   -9.1415979173183928E+00
Br   -1.8332610194688879E+00   -1.0491561344760331E+01    1.0927498511354717E+01