&CONTROL
  calculation   = 'scf',
  pseudo_dir    = '/util/academic/espresso/6.2.1/pseudopotentials/upf_files/',
  outdir        = './',
  prefix        = 'x0',
  disk_io       = 'low',
/

&SYSTEM
  ibrav       = 0,
  nat         = 6,
  ntyp        = 2,
  nspin       = 1,
  nbnd        = 40,
  ecutwfc     = 30,
  ecutrho     = 300,
  occupations = 'smearing',
  smearing    = 'gaussian',
  degauss     = 0.01,
  nosym       = true,
/

&ELECTRONS
  electron_maxstep = 300,
  conv_thr         = 1.D-4,
  mixing_beta      = 0.30,
/

ATOMIC_SPECIES
Ti 47.867 Ti.pbe-mt_fhi.UPF
O  15.999 O.pbe-n-rrkjus_psl.0.1.UPF

K_POINTS gamma

CELL_PARAMETERS  angstrom
        4.6067771912         0.0000000000         0.0000000000
        0.0000000000         4.6067771912         0.0000000000
        0.0000000000         0.0000000000         2.9917566776

ATOMIC_POSITIONS (angstrom)
Ti      -0.048489752   0.026455483  -0.028838819
Ti       2.260934834   2.344629106   1.495667543
O        3.252064769   3.008364731   0.063843926
O        1.510442872   1.464236164   0.046371576
O        0.894476818   3.744549776   1.497968345
O        3.828661562   0.793865855   1.470485634


