&CONTROL
  calculation   = 'scf',
  pseudo_dir    = '/util/academic/espresso/6.2.1/pseudopotentials/upf_files/',
  outdir        = './',
  prefix        = 'x0',
  disk_io       = 'low',
/

&SYSTEM
  ibrav       = 0,
  nat         = 6,
  ntyp        = 2,
  nspin       = 1,
  nbnd        = 40,
  ecutwfc     = 30,
  ecutrho     = 300,
  occupations = 'smearing',
  smearing    = 'gaussian',
  degauss     = 0.01,
  nosym       = true,
/

&ELECTRONS
  electron_maxstep = 300,
  conv_thr         = 1.D-4,
  mixing_beta      = 0.30,
/

ATOMIC_SPECIES
Ti 47.867 Ti.pbe-mt_fhi.UPF
O  15.999 O.pbe-n-rrkjus_psl.0.1.UPF

K_POINTS gamma

CELL_PARAMETERS  angstrom
        4.6067771912         0.0000000000         0.0000000000
        0.0000000000         4.6067771912         0.0000000000
        0.0000000000         0.0000000000         2.9917566776

ATOMIC_POSITIONS (angstrom)
Ti      -0.003011526  -0.010354165  -0.022499151
Ti       2.294931770   2.350931995   1.478424144
O        3.176797472   3.031481673   0.043162379
O        1.508017543   1.452387969   0.032056827
O        0.739205702   3.794850336   1.493649482
O        3.823845597   0.823568941   1.542423387


