&CONTROL
  calculation   = 'scf',
  pseudo_dir    = '/util/academic/espresso/6.2.1/pseudopotentials/upf_files/',
  outdir        = './',
  prefix        = 'x0',
  disk_io       = 'low',
/

&SYSTEM
  ibrav       = 0,
  nat         = 6,
  ntyp        = 2,
  nspin       = 1,
  nbnd        = 40,
  ecutwfc     = 30,
  ecutrho     = 300,
  occupations = 'smearing',
  smearing    = 'gaussian',
  degauss     = 0.01,
  nosym       = true,
/

&ELECTRONS
  electron_maxstep = 300,
  conv_thr         = 1.D-4,
  mixing_beta      = 0.30,
/

ATOMIC_SPECIES
Ti 47.867 Ti.pbe-mt_fhi.UPF
O  15.999 O.pbe-n-rrkjus_psl.0.1.UPF

K_POINTS gamma

CELL_PARAMETERS  angstrom
        4.6067771912         0.0000000000         0.0000000000
        0.0000000000         4.6067771912         0.0000000000
        0.0000000000         0.0000000000         2.9917566776

ATOMIC_POSITIONS (angstrom)
Ti      -0.057112856   0.026854699  -0.028638335
Ti       2.230314959   2.352573207   1.489006379
O        3.265327597   3.020456146   0.054171660
O        1.520457669   1.445638246   0.039511267
O        0.963228777   3.730460991   1.546925834
O        3.854042046   0.789498987   1.457390263


