&CONTROL
  calculation   = 'scf',
  pseudo_dir    = '/util/academic/espresso/6.2.1/pseudopotentials/upf_files/',
  outdir        = './',
  prefix        = 'x0',
  disk_io       = 'low',
/

&SYSTEM
  ibrav       = 0,
  nat         = 6,
  ntyp        = 2,
  nspin       = 1,
  nbnd        = 40,
  ecutwfc     = 30,
  ecutrho     = 300,
  occupations = 'smearing',
  smearing    = 'gaussian',
  degauss     = 0.01,
  nosym       = true,
/

&ELECTRONS
  electron_maxstep = 300,
  conv_thr         = 1.D-4,
  mixing_beta      = 0.30,
/

ATOMIC_SPECIES
Ti 47.867 Ti.pbe-mt_fhi.UPF
O  15.999 O.pbe-n-rrkjus_psl.0.1.UPF

K_POINTS gamma

CELL_PARAMETERS  angstrom
        4.6067771912         0.0000000000         0.0000000000
        0.0000000000         4.6067771912         0.0000000000
        0.0000000000         0.0000000000         2.9917566776

ATOMIC_POSITIONS (angstrom)
Ti      -0.105753390  -0.079870567  -0.045005830
Ti       2.221813405   2.376078067   1.511980885
O        3.242466752   3.081210504   0.071215316
O        1.649802353   1.465237477   0.023230868
O        0.946372309   3.817430149   1.467733454
O        3.935376631   0.871161250   1.516052040


