 # Version information for this restart file 
 # current date 2021-06-17 12:47:48.295
 # current working dir /user/ub2042/exercises/2_fitting/MM_MD_workdir/md_settings.006
 # Program compiled at                              Thu Apr 22 21:44:59 EDT 2021
 # Program compiled on                cpn-k07-07-02.compute.cbls.ccr.buffalo.edu
 # Program compiled for                                                    local
 # Source code revision number                                       git:36754bb
 &GLOBAL
   PRINT_LEVEL  LOW
   PROJECT_NAME cp2k
   RUN_TYPE  MD
 &END GLOBAL
 &MOTION
   &MD
     ENSEMBLE  NVT
     STEPS  10000
     TIMESTEP     2.4999999999999996E+00
     STEP_START_VAL  1500
     TIME_START_VAL     3.7499999999999500E+03
     ECONS_START_VAL    -1.3043899953808431E+01
     TEMPERATURE     3.0000000000000000E+02
     &BAROSTAT
       PRESSURE     1.0100000000000000E+00
       TIMECON     9.9999999999999982E+03
     &END BAROSTAT
     &THERMOSTAT
       TYPE  CSVR
       &CSVR
         TIMECON     9.9999999999999982E+03
         &THERMOSTAT_ENERGY
              -5.7541901992886113E-02
         &END THERMOSTAT_ENERGY
         &RNG_INIT
Wiener process for Thermostat # 1        1 F T F   1.1382529309756741E+00        2887901994.0        1068922118.0        3409092692.0        1438995407.0        1790216091.0        3655652836.0             12345.0             12345.0             12345.0             12345.0             12345.0             12345.0             12345.0             12345.0             12345.0             12345.0             12345.0             12345.0
         &END RNG_INIT
       &END CSVR
     &END THERMOSTAT
     &AVERAGES  T
       &RESTART_AVERAGES
         ITIMES_START  1
         AVECPU     1.7490679894729202E-02
         AVEHUGONIOT     0.0000000000000000E+00
         AVETEMP_BARO     0.0000000000000000E+00
         AVEPOT    -1.3440281304431059E+01
         AVEKIN     4.2016240632867385E-01
         AVETEMP     2.1313515810520593E+02
         AVEKIN_QM     0.0000000000000000E+00
         AVETEMP_QM     0.0000000000000000E+00
         AVEVOL     6.7483345830898769E+06
         AVECELL_A     1.8897261328856047E+02
         AVECELL_B     1.8897261328856047E+02
         AVECELL_C     1.8897261328856047E+02
         AVEALPHA     9.0000000000000000E+01
         AVEBETA     9.0000000000000000E+01
         AVEGAMMA     9.0000000000000000E+01
         AVE_ECONS    -2.8005948243022063E+00
         AVE_PRESS     0.0000000000000000E+00
         AVE_PXX     0.0000000000000000E+00
       &END RESTART_AVERAGES
     &END AVERAGES
     &PRINT
       &ENERGY  SILENT
         &EACH
           MD  10
         &END EACH
       &END ENERGY
     &END PRINT
   &END MD
   &PRINT
     &TRAJECTORY  SILENT
       &EACH
         MD  10
       &END EACH
     &END TRAJECTORY
     &CELL  SILENT
       &EACH
         MD  10
       &END EACH
     &END CELL
     &VELOCITIES  SILENT
       &EACH
         MD  10
       &END EACH
     &END VELOCITIES
     &FORCES  SILENT
       &EACH
         MD  10
       &END EACH
     &END FORCES
     &RESTART  SILENT
       &EACH
         MD  10
       &END EACH
     &END RESTART
   &END PRINT
 &END MOTION
 &FORCE_EVAL
   METHOD  FIST
   &MM
     &FORCEFIELD
       VDW_SCALE14     1.0000000000000000E+00
       EI_SCALE14     1.0000000000000000E+00
       SHIFT_CUTOFF  T
       DO_NONBONDED  T
       IGNORE_MISSING_CRITICAL_PARAMS  T
       &SPLINE
         R0_NB     2.5000000000000000E-01
       &END SPLINE
       &NONBONDED
         &LENNARD-JONES
           ATOMS Br Br
           EPSILON     1.2630795322675199E+02
           SIGMA     3.6900000000000004E+00
         &END LENNARD-JONES
         &LENNARD-JONES
           ATOMS Cs Pb
           EPSILON     8.6920055954630968E+01
           SIGMA     3.6699999999999999E+00
         &END LENNARD-JONES
         &LENNARD-JONES
           ATOMS Cs Cs
           EPSILON     2.2644852172126850E+01
           SIGMA     4.3300000000000001E+00
         &END LENNARD-JONES
         &LENNARD-JONES
           ATOMS Pb Pb
           EPSILON     3.3363415533600227E+02
           SIGMA     5.9000000000000004E+00
         &END LENNARD-JONES
         &LENNARD-JONES
           ATOMS Br Cs
           EPSILON     5.3481070753900497E+01
           SIGMA     3.6300000000000003E+00
         &END LENNARD-JONES
         &LENNARD-JONES
           ATOMS Br Pb
           EPSILON     2.0528187276773045E+02
           SIGMA     2.9800000000000000E+00
         &END LENNARD-JONES
       &END NONBONDED
       &CHARGE
         ATOM Cs
         CHARGE     4.0230055499999995E-01
       &END CHARGE
       &CHARGE
         ATOM Pb
         CHARGE     8.0460110999999990E-01
       &END CHARGE
       &CHARGE
         ATOM Br
         CHARGE    -4.0230055499999995E-01
       &END CHARGE
     &END FORCEFIELD
     &POISSON
       PERIODIC  XYZ
       &EWALD
         EWALD_TYPE  SPME
         GMAX  62 62 62
         O_SPLINE  4
       &END EWALD
     &END POISSON
     &PRINT
       &FF_INFO  LOW
         SPLINE_INFO  F
         SPLINE_DATA  F
       &END FF_INFO
     &END PRINT
   &END MM
   &SUBSYS
     &CELL
       A     1.0000000000000001E+02    0.0000000000000000E+00    0.0000000000000000E+00
       B     0.0000000000000000E+00    1.0000000000000001E+02    0.0000000000000000E+00
       C     0.0000000000000000E+00    0.0000000000000000E+00    1.0000000000000001E+02
       PERIODIC  XYZ
       MULTIPLE_UNIT_CELL  1 1 1
     &END CELL
     &COORD
Cs   -9.1393749605052865E-01    5.4866005765632531E-01   -6.6814974112299090E+00
Cs    1.1843669888692693E-01   -5.6907470426001687E+00   -6.7936265185472227E+00
Cs   -1.0689466220592640E-01   -1.1679680028522808E+01   -5.6399191061388514E+00
Cs   -4.7516780255089284E+00   -6.0149217469222016E+00   -5.8113119134296145E+00
Br   -7.6583112508465181E+00   -1.2299758697742110E+01   -8.1779542513280195E+00
Br    1.2066526630440686E+01   -2.5131069017532792E+00   -8.4712659073774255E+00
Br   -4.3535570911242401E+00    2.6100141876912057E+00   -1.1899728532921838E+01
Cs    1.5248228025574859E-01    5.7380825160209756E+00   -5.4372299346124171E+00
Cs    3.8520891649040412E-01   -6.0598961390725722E-02    1.8700364213965007E-01
Cs    1.8177511255308643E-01   -5.5342443247846109E+00    1.2103691628711223E-01
Br   -5.7572980681364676E+00   -3.3756906634238617E+00    3.0757471451282608E+00
Cs   -1.0644819578541060E+01   -5.0068849133936881E+00    1.2736339377515268E+01
Cs    1.1322161694866267E+01   -1.1411291086744109E+01   -5.6421316600881199E-01
Cs   -5.9487688609984088E+00    6.1263180380695168E+00    5.0966951208212274E-01
Cs   -8.0485062293571374E-01    1.2290597087536428E+01    7.3375566458776853E-01
Cs   -8.4502587417390571E-02    6.3199495384960800E+00   -6.1249770773245782E-02
Cs    2.2138699412227669E-01    5.1320930045753221E-01    5.4753335454972678E+00
Cs    4.0115151132024657E-01   -5.3496102030891004E+00    6.6323849516495708E+00
Cs    7.0239651454572694E-01   -1.1019114502411416E+01    6.3916357020232013E+00
Cs   -6.1326925553750193E+00    6.0328629145650252E+00    1.1165725442515246E+01
Cs   -6.5233365858801546E+00    2.5445285737526448E-02   -1.1717763753737678E+01
Cs   -4.9290844548384305E+00   -1.1708591949849721E+01   -5.7322224702545865E+00
Cs   -5.3850766352972714E+00    2.9617885626387258E-01    6.2567368065092834E+00
Br   -2.7891388293328787E+00   -3.0025277601314624E+00   -1.8099972031602896E-01
Cs    1.3860831070206669E-01    5.6117412523084065E+00    6.0488318653665347E+00
Br    1.1901512671894467E+01   -9.7051469544720135E+00   -9.7003290222263097E+00
Cs    1.0052869174833925E+00   -5.3726504883950676E+00    1.2338596406692108E+01
Br   -2.6887620936414915E+00    2.2809260927099964E-01    2.5411898658200727E+00
Br   -7.8925112015393699E+00   -2.9227657124803543E+00    1.1780539474261541E+01
Cs    1.1102631853777330E+01    1.1345625523290822E+01   -6.7605490682517715E+00
Cs   -1.2011059002650086E+01   -5.8302167434057743E+00    6.5839906013150076E+00
Cs   -5.4260506703717555E+00   -6.0657876586854487E+00    5.8969050172102486E+00
Cs   -6.1637715435144873E+00    1.0752169144264755E+01   -6.2694389027457920E+00
Br   -1.1797868116690619E+01   -1.0422337771985791E+01    8.8868228146549004E+00
Br   -8.9817351554988374E+00   -9.3794200600589441E+00    6.0849722602460456E+00
Cs   -1.1442023044197201E+01   -5.4307172763065967E+00   -4.9634922953354907E+00
Cs   -5.2463169640165370E+00    5.5106861625260857E+00   -5.6816040561709062E+00
Br   -9.5170988110630148E+00   -5.7232329901213017E+00    9.0334621387500782E+00
Cs    1.0924935524639723E+01    6.0841981687630735E+00    1.1490218904260484E+01
Br   -1.1831739783548059E+01    1.0539880872321215E+01    8.8750047644632755E+00
Br   -5.7437449028329501E+00   -4.0110317265610256E+00   -2.2622357913259079E+00
Cs   -4.5916532674420046E-01   -5.6389507516285209E-01    1.1469657293959287E+01
Cs    1.1167636767930839E+01    6.0116371598372718E+00   -3.4345352562376996E-01
Cs   -1.1309477983848891E+01   -6.5478233399047188E+00   -1.0867294794317262E+01
Cs    1.0969082792181389E+01    5.4995921007844728E-01    5.8003759203171823E+00
Cs   -1.1472101213381027E+01    1.1329582170415041E+01   -6.1445983007770568E+00
Cs    1.2635911393058601E+01   -1.0675888780355479E+01    5.7299128864388109E+00
Cs    6.6773415147124444E+00   -5.7309216339010494E+00   -1.1033507248355271E+01
Cs    6.7146888701285086E+00   -1.1018488830725152E+01    6.0605614244133168E+00
Cs   -5.4402309463502885E+00   -1.1677620804359702E+01   -3.3233373178087611E-01
Cs    6.2785220143663691E+00   -1.1630381328173540E+01   -1.1348945703004292E+01
Cs    1.0830125492338166E+01    5.2598308357165635E+00   -6.1405157518823348E+00
Cs    1.1420393095712559E+01    1.1874476927119073E+01    5.9240873467627635E+00
Cs    1.1292228654790959E+01    6.1514803388319459E+00   -1.1190785897283456E+01
Cs    1.8478315197733713E-01   -6.8121075956671389E+00   -1.1986630044495300E+01
Cs   -1.1865055905984573E+01   -6.0987987986789671E-01   -6.1871368905256325E+00
Cs    6.0409469612832094E+00   -5.6617877847321134E+00    1.0599451423464567E+01
Cs    1.2400388518080177E+01   -5.0593646967736854E+00    5.7004775149931923E+00
Cs   -1.0918281379409889E+01   -1.0946016615947929E+01    1.2237419373431324E+01
Cs   -6.5116057655630732E-01   -9.0332696469282581E-01   -1.1725592995040085E+01
Cs   -6.9152659329761890E-02    1.1277778717211005E+01    5.3985285724952092E+00
Cs    5.1985197865255783E-01    5.4585493835211398E+00   -1.1862045433175076E+01
Cs    5.3535737179153395E+00   -1.7254953579728245E-02   -6.1326457607752172E+00
Cs    6.3886688801694858E+00   -5.7976149240904791E+00   -5.6842670982515262E+00
Cs   -5.3510217260143049E+00   -1.0800789210172553E+01    5.7513223541616334E+00
Cs   -1.1952834161167893E+01    5.1866417933019382E-01    5.7589017437919425E+00
Cs    6.0639624992722103E+00    5.3900100460555356E-01   -1.1837848088262696E+01
Cs    6.4724131985287414E+00    1.1178121411663323E+01   -1.2412099321723893E+01
Cs    1.8451483786099512E-01    6.2308057405585560E+00    1.1644769898709450E+01
Cs   -5.4698422011924590E+00    1.1072375456832297E+01    5.3104817671072375E+00
Cs    5.8031645367214848E+00    1.1827871382307992E+01   -7.8972387429904751E+00
Cs    5.6729970038923945E+00    6.2665384724151512E+00   -5.4109285916201291E+00
Cs    5.8181181210226676E+00   -1.9492467192300836E-01   -3.7695397918931395E-02
Cs    6.2179181658520211E+00   -5.6634620348942777E+00   -3.5228585906041826E-01
Cs    6.2050263995343293E+00   -1.1370575345039089E+01    9.4840333759919415E-01
Cs    6.0979195118371292E+00    5.6840316415297147E+00   -1.1093270660779156E+01
Cs   -5.0227312998716771E+00    5.9260154548877928E+00    5.9826168448369446E+00
Cs   -5.6801697249785370E+00   -6.7140703684326191E+00   -1.0645803060793696E+01
Cs    5.9911226657532826E+00    6.2459940429395111E+00    6.6202755233842381E-01
Cs    6.2598456525734880E+00    5.4073179097808333E-01    5.6415536617502431E+00
Cs    6.1866922461854683E+00   -6.0693529528083054E+00    6.3630927214557147E+00
Cs   -5.7638064491153971E+00    1.1529437202220667E+01    4.6681223831403586E-02
Cs    1.1452898548218348E+01   -1.2424747712038356E-01    3.6969447937364497E-01
Cs   -5.5422230966381409E+00    5.6083691760674004E-01    1.7147670170356236E-01
Cs   -1.1433798736837980E+01    5.9894654528789033E+00    5.7454019456702348E+00
Cs   -5.8843627749421819E+00   -9.5171717359818025E-02    1.2033693982650020E+01
Cs    5.2056898376380314E+00    1.1919535256741828E+01    6.1396525929087193E+00
Cs    5.7615979037665390E+00    6.7998763166315550E+00    6.0704995651863802E+00
Cs    5.5594980560667056E+00    8.0057252078836405E-01    1.1068176575213487E+01
Cs    5.6542037314890248E+00    1.1695912702675249E+01   -1.1387375603385830E+00
Cs    1.1656520194400050E+01   -1.5046287286593801E-01   -6.2177986812580919E+00
Cs    1.1354421817560647E+01   -6.1338637661910651E+00   -5.3635445809608964E+00
Cs    6.0753667735020906E+00   -1.1060954271845144E+01    1.1338134338514395E+01
Cs    1.1564585930059421E+01    1.0888593741553159E+01   -7.1252422893697576E-01
Cs   -1.0743812929655078E+01    7.5465521085618215E-01    1.1977679547075351E+01
Cs   -6.8048805756963588E+00    5.4852811800712766E+00   -1.1130203090531035E+01
Cs   -1.1247152815572054E+01    1.1242623202049705E+01    4.5302937620157646E-01
Cs   -4.8112760646043311E+00   -5.5191553901126094E+00    1.2018575237295002E+01
Cs   -5.2451060186003993E+00   -1.0881239513022596E+01    1.1480572332380341E+01
Cs    6.0714337406153520E+00    6.6054529841031515E+00    1.0970801109250399E+01
Cs    1.1766425236275145E+01   -5.5150518400355306E+00    1.2365067084265208E-01
Cs   -1.1237419276026275E+01   -9.2624287838097924E-02   -2.4236117795021636E-01
Cs   -6.8623397125028847E+00    1.0006621266651011E+01   -1.1870042275825242E+01
Cs   -1.1393602544754467E+01    5.0025125074188974E+00    2.5655723508701161E-01
Cs   -1.0066688777728746E+01   -1.1993695670289929E+01   -6.1459920250360929E+00
Cs   -1.1054391709290455E+01   -7.0116392704784758E+00    2.6914139316933794E-01
Cs   -5.6573866407150817E+00   -5.8707773003306736E+00    6.0216711195025352E-01
Cs   -1.0405908395536699E+01   -1.3127801969795629E+01    7.0003129153910741E+00
Cs    1.0882202866270308E+01   -5.5796068644369159E+00    1.2145643911053961E+01
Cs    1.1409608301125171E+01    6.5992802757867066E+00    6.4082018539565233E+00
Cs   -1.1630304586343184E+01    6.2173012792430749E+00   -6.4213191846042417E+00
Cs   -5.8439857369480510E+00    1.1703960497327982E-01   -6.3222203630034812E+00
Cs   -1.1072431948352392E+01   -1.2583469642146806E+01    2.7301064938769848E-01
Cs    1.0550732893196319E+01   -1.2073487125279390E+01   -1.2022271816174543E+01
Cs   -9.0189272357378201E+00   -1.2667010120280750E+01   -1.1961968417304680E+01
Cs   -1.9499271073829930E-01    1.1839526512884532E+01   -1.1206679664365994E+01
Cs    2.6205431599824247E-01   -1.2079652073728562E+01   -1.0743149650940310E+01
Cs   -7.0994076443772569E-01    1.1906361595883121E+01   -5.3360369741977429E+00
Cs   -1.0109803474790269E+01    1.2807485072030451E+01    1.1265655898351845E+01
Cs    3.0075921301808234E-01   -1.0796749160959774E+01   -2.8073043326083430E-01
Cs   -1.1142114960315105E+01    1.1219287278476965E-01   -1.1854201569858375E+01
Cs   -1.0263994217449712E+01    1.2211057523807366E+01    5.9129266526314161E+00
Cs    5.8551419686659436E+00   -1.2006868705421832E+01   -5.6999430126818051E+00
Cs    1.1561209954254553E+01   -4.1237893904088185E-01   -1.2026875492692163E+01
Cs    2.3503846285558658E-03    1.1791501200934382E+01    1.0959582199712708E+01
Pb    2.8936474733154887E+00   -3.0254066690996413E+00   -3.2149138492517282E+00
Pb    3.1463126153660288E+00   -8.9893957179241291E+00   -2.8887675712702565E+00
Pb   -8.7673226721395991E+00   -3.2413404518184277E+00    3.1233834463722436E+00
Pb   -2.3145889827065260E+00   -8.9774690380056956E+00   -2.7857824738375725E+00
Pb    2.5814400815232794E+00    9.0737692772858836E+00   -3.0162317564036680E+00
Pb    2.7757422321260354E+00    2.8078474792917825E+00   -3.0281495046904334E+00
Pb    3.1419385524786727E+00   -2.8953115402664213E+00    2.7347532257593241E+00
Pb    3.1388442018159011E+00   -8.6512814138507323E+00    3.1351177155106771E+00
Pb   -3.0677307826564322E+00    8.5660333711337344E+00    2.8435158305948809E+00
Pb    3.1828637485104205E+00    8.9672432999161966E+00    2.7458531181943036E+00
Pb    3.0303017164309161E+00    3.0715381017826857E+00    2.6436178744020284E+00
Pb    3.0217262123543214E+00   -2.6241609247552926E+00    8.5252812865458782E+00
Pb    3.2434136092483250E+00   -8.4541167728196083E+00    9.1954541576485074E+00
Pb   -2.9186723960875423E+00    2.9303267167797094E+00    3.0230053949485995E+00
Pb    3.0023154719487906E+00    9.6978803089268961E+00    8.8856657766068494E+00
Pb    3.1500296766883493E+00    3.3568567981316346E+00    8.5161410627498189E+00
Pb   -2.9376957827223134E+00   -2.8600041366728388E+00    8.6481665078412622E+00
Pb   -8.9081989560334733E+00   -9.2784071378754440E+00    3.2449209520978970E+00
Pb   -9.0847479313689981E+00    2.8350897238027444E+00   -2.7907589738190519E+00
Pb   -3.2978833154788516E+00   -2.8139170685923225E+00   -9.0919959890928048E+00
Pb   -2.6474680886132367E+00   -9.2165385884667561E+00    3.0652294912660683E+00
Pb   -3.3927401051867641E+00    8.5933304404597362E+00   -3.1039475085836679E+00
Pb   -2.5276567982368929E+00   -8.7817837563228256E+00    9.1664074707160381E+00
Pb   -8.4750677655254716E+00   -3.1363010738644594E+00   -2.7008289519417832E+00
Pb   -8.4477720346073646E+00   -9.3149902874909820E+00   -2.5540626170650556E+00
Pb   -2.9359955574429977E+00    2.8246360112715898E+00   -3.0292749253692945E+00
Pb   -8.7895831906709780E+00   -8.8424805992626414E+00    9.0756147551055157E+00
Pb   -8.9704309362065224E+00   -3.6899989901378056E+00   -8.5152322415352852E+00
Pb    9.2884548356565748E+00   -2.9367103891597655E+00   -9.3198751621480564E+00
Pb    9.2326761121964385E+00   -9.0028318239172034E+00   -8.9759580106317536E+00
Pb   -2.3933544929809045E+00   -9.1786384432310282E+00   -8.8587851120369621E+00
Pb   -9.4015446686317201E+00    8.5119702493101865E+00   -9.1637421939578942E+00
Pb    2.8782514551964260E+00   -3.1430698785673212E+00   -9.2567775553579903E+00
Pb    3.3653674446807127E+00   -9.1218162456009484E+00   -8.5854571424006263E+00
Pb   -3.4113832488350910E+00    2.9010870562549966E+00   -9.0082040620046140E+00
Pb    2.5656428625407970E+00    8.9946404164999532E+00   -8.8988900151725492E+00
Pb    2.9450858080089666E+00    2.5554946164689598E+00   -9.1136046915830278E+00
Pb    8.9542453858525555E+00   -2.7993181020952753E+00   -3.2361299648134412E+00
Pb    8.9870467419650595E+00   -8.8670288098947250E+00   -2.5220966200507386E+00
Pb   -8.8774457694632893E+00   -2.6642795847466174E+00    9.0425706128083743E+00
Pb    8.7081680199177676E+00    8.8421804890941793E+00   -9.6132964805399830E+00
Pb   -9.2308169302093006E+00    2.5914670325479809E+00   -8.3702304140220800E+00
Pb   -2.9041162576132487E+00    9.0290007695729972E+00    8.8533402233853966E+00
Pb    8.5107069896302967E+00    9.1049505545367513E+00   -3.6398273054745838E+00
Pb    8.8386832456013238E+00    3.0654026562948178E+00   -2.9423424850915625E+00
Pb    8.8377120582214790E+00   -2.8313598162747433E+00    2.9958690663678786E+00
Pb    9.2735415127077570E+00   -8.6643018110686043E+00    3.1851027242091772E+00
Pb    9.0602548683001576E+00    2.8095997654346978E+00   -8.9801799256851993E+00
Pb   -2.6962773177053814E+00    3.1030553593202748E+00    8.8763882492268316E+00
Pb    9.1691750120925413E+00    8.7755618228417287E+00    2.8170946794607565E+00
Pb    8.9435449146286263E+00    2.8491462721847651E+00    2.9436534749336953E+00
Pb    9.0131997055447926E+00   -2.5086048747487268E+00    9.0229802541177584E+00
Pb    9.2032631229873090E+00   -8.6877788345410618E+00    9.1874913426206088E+00
Pb    8.9743018471970952E+00    9.6021381646647015E+00    8.5964189522553287E+00
Pb    9.0421934607622205E+00    3.5293264391199375E+00    8.9054491810849541E+00
Pb   -8.5499983322403850E+00    3.1784738679005629E+00    8.8073110986026677E+00
Pb   -2.7000778775104330E+00   -2.9641880306083226E+00    2.7540652628122491E+00
Pb   -9.0363768038011401E+00    8.3998278952797563E+00    3.1135022017549048E+00
Pb   -9.3662213705805168E+00    8.8306560645168766E+00   -3.2246536657129754E+00
Pb   -8.1562362555811934E+00   -9.5764279739611045E+00   -8.7175661570386787E+00
Pb   -3.1835354703344665E+00    8.5339311251914989E+00   -9.1313607078746841E+00
Pb   -8.8738661524505762E+00    2.6412177699923598E+00    3.0958074845314592E+00
Pb   -8.8511027586458493E+00    9.0735650510311778E+00    8.8473443435954220E+00
Pb   -2.8988010380005549E+00   -3.1362850859079265E+00   -3.2505347075967816E+00
Br   -1.1939308069717743E-01   -3.0446742333767904E+00   -4.0823539024147397E+00
Br    3.7443454901838717E+00   -3.4109107816097284E+00   -6.3088859245685747E+00
Br    3.1802535100486344E+00   -1.1755780382445800E-01   -3.1716925433462468E+00
Br    5.4377716205465121E-01   -9.0066695607541085E+00   -3.3531144742206078E+00
Br    3.7608527839904160E+00   -9.0588117977580964E+00   -5.5383757696994245E+00
Br    3.2721286562244369E+00   -6.1338540400425998E+00   -2.8035450565520641E+00
Br   -3.2108472097269725E+00   -2.6758439531510958E+00   -6.0353124573167314E+00
Br   -9.3542120805162092E+00   -2.8058341858579672E+00    6.2337898277257384E+00
Br   -3.8987562846569541E+00   -2.0783314111308637E-01   -3.0678978692612233E+00
Br    2.6944984935588487E+00   -1.1802648804579842E+01   -2.5347495437491880E+00
Br    1.1605075826508042E+01   -2.6996774814917250E+00    2.5668680898369942E+00
Br   -5.2855740583124469E+00   -8.8774201280839815E+00   -2.5194762487556241E+00
Br   -1.1673259517131362E+01   -4.6189508489624185E+00    3.1624822579845064E+00
Br   -9.0350796403270675E+00   -3.8367054135387328E+00   -3.3193360602360313E-02
Br    1.2056776347370299E+01   -8.5638373454023995E+00    2.5434469171533105E+00
Br   -4.3816486166626373E-01    8.6797987586616827E+00   -3.7213473555600936E+00
Br    2.8197309931927808E+00    8.4227933141265918E+00   -6.1752054984958171E+00
Br    1.6807454670404791E+00    1.1998634172079147E+01   -2.6303495649527271E+00
Br   -6.7801587817517810E-03    2.9352239820933335E+00   -3.1546304213632790E+00
Br    2.7716763862524672E+00    2.8771732836806438E+00   -6.0851020813499348E+00
Br    2.5391432782300680E+00    5.9325317679720708E+00   -2.8362180183390815E+00
Br    9.7191062468412137E-02   -2.2553191856413917E+00    2.9486763836320002E+00
Br    2.5229223819578825E+00   -2.9922463533259740E+00   -2.0468476027676938E-01
Br    3.4328593302041606E+00    9.3859414137838201E-02    3.0187476081994542E+00
Br    2.4529721664891752E-01   -8.7883871636391238E+00    3.2858773952058549E+00
Br    2.8937228855473984E+00   -8.8710352504910350E+00    2.8000219472740351E-01
Br    2.7491971053708819E+00   -5.7981321271519102E+00    2.6193042203996582E+00
Br   -6.3766131423538512E+00    8.0827684798417874E+00   -8.8780736080389673E+00
Br   -3.8443517756369201E+00    8.8371969276655449E+00   -1.1819463240592835E+01
Br    3.6185455805250970E+00   -1.1368384448794993E+01    3.1764661054362930E+00
Br   -2.9903189408785638E+00    1.1688742340724705E+01   -8.8519210129188668E+00
Br   -3.2238919698724087E+00    5.6513953556204806E+00   -9.6784578098007259E+00
Br   -8.0378411446836822E+00   -2.7827278555455764E-01    3.2309862900860455E+00
Br   -2.4831787563188001E+00   -8.9988363629760091E+00   -5.8424366104467147E+00
Br   -5.9718118091156214E+00    8.4647986446851267E+00    3.4678363615390917E+00
Br   -2.9205808428417530E+00    8.3347962471947454E+00   -2.8285998053308520E-01
Br   -3.4300669347137460E+00    1.1378829716881398E+01    2.4125572055880942E+00
Br   -1.5744692696583995E-01    8.4440791847581682E+00    3.1713023544516505E+00
Br    3.0975395867677991E+00    9.0541963554149447E+00   -6.6966864687912547E-02
Br    2.6714966875612349E+00    1.1772914051375688E+01    2.5343738932784174E+00
Br    2.4807527080277825E-01    2.6050230789600128E+00    2.7552192904719117E+00
Br    3.1412076941710576E+00    2.3282038707392014E+00   -1.2271033530200613E-01
Br    3.4806642046655019E+00    5.7475316794751494E+00    2.3880128965049652E+00
Br   -7.2862622432331936E-02   -2.6689120051360664E+00    8.5484008277869847E+00
Br    3.0911049095121603E+00   -3.0372794837071377E+00    5.7692583383519880E+00
Br    3.6204656316793775E+00    3.7478409545714009E-01    8.1414413398332943E+00
Br    3.8215444251348896E-01   -8.5539208432239953E+00    9.1874060302262350E+00
Br    3.2638446802585950E+00   -8.6169069549291084E+00    6.3164421478898500E+00
Br    2.8880158555933693E+00   -5.6370610977837092E+00    9.1809622733918044E+00
Br   -1.1587264285675626E+01    2.1744467344246732E+00    2.7218903567211399E+00
Br   -8.7090026238264784E+00    3.0638960035506950E+00    2.8209136027488028E-02
Br    3.3791419716247639E+00   -1.1338761428197294E+01    9.1817122069999826E+00
Br   -9.0980500945119847E+00    5.5818139901248829E+00    2.9382956341815336E+00
Br   -8.2777272183453849E+00    2.4373430997602891E-01    9.4159731224257772E+00
Br   -2.6619555138312565E+00   -6.0870406019874652E+00   -3.2561600909731143E+00
Br   -5.9070869822564269E+00    3.3516162237954163E+00    3.1561861404038583E+00
Br   -2.7498313428590944E+00    3.1560794881564913E+00   -1.5194384744614586E-01
Br   -2.6331086875018754E+00    5.6605470059912619E+00    3.1402585537739607E+00
Br    1.9047429557134046E-01    9.0511619764133702E+00    8.0701616392549305E+00
Br    3.2294844748450533E+00    9.2741606274811890E+00    5.9102813284757598E+00
Br    2.5016640542616857E+00    1.2380353839856914E+01    8.2273810547416844E+00
Br    2.2798725650902774E-01    2.8835820642508452E+00    8.3451237029911933E+00
Br    2.6865828452761877E+00    3.6649554836240186E+00    5.4695054170487056E+00
Br    2.7341475369810686E+00    6.4675402372103949E+00    9.0139127242325614E+00
Br   -5.9687100940647788E+00   -2.9462641257214464E+00    8.3956120479179202E+00
Br    2.8776421149405338E+00   -2.5157786940469458E+00    1.1432169616267879E+01
Br   -2.9600151450046486E+00   -2.5112463100519844E+00    5.7445986212853839E+00
Br   -3.1996944172163628E+00    1.7784641057662551E-01    8.7865962494274328E+00
Br   -2.1652820773830599E+00   -1.1821084702758869E+01   -2.7367054535243827E+00
Br    3.7411586872292992E+00   -8.4029332429204171E+00    1.2076538130944339E+01
Br   -1.1947723730476607E+01    2.7038348889966417E+00   -2.4594142276644466E+00
Br   -2.7020041933872014E+00   -1.2027536258299516E+01    3.2481818613675513E+00
Br   -1.1497122364139498E+01   -2.6738043681522168E+00   -2.7184608983313647E+00
Br    2.3390493362732023E+00    9.2815095785319297E+00    1.1450914428379463E+01
Br   -8.3925246354526042E+00   -3.6006828168588374E+00   -5.5339497885844438E+00
Br   -8.2774734149434064E+00   -2.3748799223975328E-01   -2.0304847180532506E+00
Br    3.3397107682408609E+00    3.3090608073723211E+00    1.1422484858109037E+01
Br   -6.2554701732443618E+00    8.6375946235008509E+00   -3.5502974134298468E+00
Br   -3.5227226852666984E+00    8.6832570265932105E+00   -6.1856130614295957E+00
Br   -3.9763501888874337E+00    1.1348095392476178E+01   -3.2573928616029941E+00
Br   -5.9557371339389871E+00    3.4086864211785897E+00   -3.0305786267036270E+00
Br   -1.1893903353419113E+01   -9.6647710497324297E+00    2.7994244069601102E+00
Br   -2.7839736605288885E+00    3.0467739596465004E+00   -6.0551168388911822E+00
Br   -6.0943867703855457E+00   -3.5227325032741135E+00   -9.0750314966501193E+00
Br   -3.6518216915390069E+00   -2.1750697144925271E+00   -1.1804619295278673E+01
Br   -3.6647329999375913E+00    1.3088981858550613E-01   -8.8624146160155188E+00
Br   -1.7477826631834232E+00    3.2738656511335287E+00    1.1435447769967592E+01
Br   -5.6423672478822713E+00   -8.5287663141078358E+00    9.0216066603836129E+00
Br   -2.8252366655962158E+00   -8.7371993859109391E+00    5.9320968124052245E+00
Br   -2.9892589819865067E+00   -5.9138190388610896E+00    8.6245277670591172E+00
Br   -8.9151770378000403E+00   -9.3631558933536674E+00    3.1701845547659074E-01
Br   -7.9595114507921094E+00   -6.5936527931748188E+00    3.6129940048793321E+00
Br   -8.9795969374900757E+00    9.3118252554414216E+00    1.1782128192402896E+01
Br    1.1944877941060748E+01    7.8308525920273242E+00    2.7066066526125909E+00
Br   -8.7865384374869038E+00   -8.4619495402014984E+00    1.1933770510395778E+01
Br    1.1283020056349885E+01    9.4414047660511393E+00   -3.7382200644533392E+00
Br    1.1645517711924189E+01    2.4424910297110953E+00    2.8776975370398103E+00
Br   -8.2989979168103503E+00    3.3164418136839431E+00    1.1734798352732408E+01
Br   -1.1956522074567221E+01   -3.1657327376537361E+00   -8.3898332521116306E+00
Br    1.1971586658202286E+01   -3.0385851765281018E+00    8.7831280375844294E+00
Br   -5.7687909505158617E+00   -9.2935637418172501E+00    2.6947577629044632E+00
Br    5.6742083070939211E+00   -2.5302142226146862E+00   -9.3629903558336913E+00
Br    9.8031362883490534E+00   -3.4803205632835192E+00   -1.2134067462298662E+01
Br    1.2704685838465938E+01   -8.6736960611716754E+00    8.5822952762061551E+00
Br    9.0058694558855450E+00    1.4896154533119476E-02   -9.8835496462408727E+00
Br   -8.2449974968741753E+00   -1.1422495680754992E+01    9.5453481616357934E+00
Br   -2.2283893586576644E+00   -8.7698673596953700E+00    1.7420613566219523E-01
Br   -2.8289740456938075E+00   -5.8372998461352426E+00    2.8074091548852516E+00
Br    6.2351628137362356E+00   -9.1584887498797354E+00   -9.0057380909982179E+00
Br   -5.2175287254343257E+00   -8.8360494338431224E+00   -8.2358435806948940E+00
Br    8.8145934580508101E+00   -9.0263684890296823E+00   -1.1817015158425866E+01
Br    9.1065768909168767E+00   -5.9462475182431067E+00   -8.5917524749354239E+00
Br   -3.5559857956802565E+00   -1.1642001419720142E+01    8.6936769152829285E+00