 # Version information for this restart file 
 # current date 2021-06-17 12:47:57.004
 # current working dir /user/ub2042/exercises/2_fitting/MM_MD_workdir/md_settings.006
 # Program compiled at                              Thu Apr 22 21:44:59 EDT 2021
 # Program compiled on                cpn-k07-07-02.compute.cbls.ccr.buffalo.edu
 # Program compiled for                                                    local
 # Source code revision number                                       git:36754bb
 &GLOBAL
   PRINT_LEVEL  LOW
   PROJECT_NAME cp2k
   RUN_TYPE  MD
 &END GLOBAL
 &MOTION
   &MD
     ENSEMBLE  NVT
     STEPS  10000
     TIMESTEP     2.4999999999999996E+00
     STEP_START_VAL  2000
     TIME_START_VAL     4.9999999999997863E+03
     ECONS_START_VAL    -1.3043899953808431E+01
     TEMPERATURE     3.0000000000000000E+02
     &BAROSTAT
       PRESSURE     1.0100000000000000E+00
       TIMECON     9.9999999999999982E+03
     &END BAROSTAT
     &THERMOSTAT
       TYPE  CSVR
       &CSVR
         TIMECON     9.9999999999999982E+03
         &THERMOSTAT_ENERGY
              -7.7985859619898290E-02
         &END THERMOSTAT_ENERGY
         &RNG_INIT
Wiener process for Thermostat # 1        1 F T F  -4.1316006610438311E-01        3467588906.0        2335825785.0        3211720173.0        1531220123.0        1256874348.0        2092146405.0             12345.0             12345.0             12345.0             12345.0             12345.0             12345.0             12345.0             12345.0             12345.0             12345.0             12345.0             12345.0
         &END RNG_INIT
       &END CSVR
     &END THERMOSTAT
     &AVERAGES  T
       &RESTART_AVERAGES
         ITIMES_START  1
         AVECPU     1.7473074180074041E-02
         AVEHUGONIOT     0.0000000000000000E+00
         AVETEMP_BARO     0.0000000000000000E+00
         AVEPOT    -1.3436404851237384E+01
         AVEKIN     4.2572282505982362E-01
         AVETEMP     2.1595578343375470E+02
         AVEKIN_QM     0.0000000000000000E+00
         AVETEMP_QM     0.0000000000000000E+00
         AVEVOL     6.7483345830898648E+06
         AVECELL_A     1.8897261328855916E+02
         AVECELL_B     1.8897261328855916E+02
         AVECELL_C     1.8897261328855916E+02
         AVEALPHA     9.0000000000000000E+01
         AVEBETA     9.0000000000000000E+01
         AVEGAMMA     9.0000000000000000E+01
         AVE_ECONS    -2.9345552143654641E+00
         AVE_PRESS     0.0000000000000000E+00
         AVE_PXX     0.0000000000000000E+00
       &END RESTART_AVERAGES
     &END AVERAGES
     &PRINT
       &ENERGY  SILENT
         &EACH
           MD  10
         &END EACH
       &END ENERGY
     &END PRINT
   &END MD
   &PRINT
     &TRAJECTORY  SILENT
       &EACH
         MD  10
       &END EACH
     &END TRAJECTORY
     &CELL  SILENT
       &EACH
         MD  10
       &END EACH
     &END CELL
     &VELOCITIES  SILENT
       &EACH
         MD  10
       &END EACH
     &END VELOCITIES
     &FORCES  SILENT
       &EACH
         MD  10
       &END EACH
     &END FORCES
     &RESTART  SILENT
       &EACH
         MD  10
       &END EACH
     &END RESTART
   &END PRINT
 &END MOTION
 &FORCE_EVAL
   METHOD  FIST
   &MM
     &FORCEFIELD
       VDW_SCALE14     1.0000000000000000E+00
       EI_SCALE14     1.0000000000000000E+00
       SHIFT_CUTOFF  T
       DO_NONBONDED  T
       IGNORE_MISSING_CRITICAL_PARAMS  T
       &SPLINE
         R0_NB     2.5000000000000000E-01
       &END SPLINE
       &NONBONDED
         &LENNARD-JONES
           ATOMS Br Br
           EPSILON     1.2630795322675199E+02
           SIGMA     3.6900000000000004E+00
         &END LENNARD-JONES
         &LENNARD-JONES
           ATOMS Cs Pb
           EPSILON     8.6920055954630968E+01
           SIGMA     3.6699999999999999E+00
         &END LENNARD-JONES
         &LENNARD-JONES
           ATOMS Cs Cs
           EPSILON     2.2644852172126850E+01
           SIGMA     4.3300000000000001E+00
         &END LENNARD-JONES
         &LENNARD-JONES
           ATOMS Pb Pb
           EPSILON     3.3363415533600227E+02
           SIGMA     5.9000000000000004E+00
         &END LENNARD-JONES
         &LENNARD-JONES
           ATOMS Br Cs
           EPSILON     5.3481070753900497E+01
           SIGMA     3.6300000000000003E+00
         &END LENNARD-JONES
         &LENNARD-JONES
           ATOMS Br Pb
           EPSILON     2.0528187276773045E+02
           SIGMA     2.9800000000000000E+00
         &END LENNARD-JONES
       &END NONBONDED
       &CHARGE
         ATOM Cs
         CHARGE     4.0230055499999995E-01
       &END CHARGE
       &CHARGE
         ATOM Pb
         CHARGE     8.0460110999999990E-01
       &END CHARGE
       &CHARGE
         ATOM Br
         CHARGE    -4.0230055499999995E-01
       &END CHARGE
     &END FORCEFIELD
     &POISSON
       PERIODIC  XYZ
       &EWALD
         EWALD_TYPE  SPME
         GMAX  62 62 62
         O_SPLINE  4
       &END EWALD
     &END POISSON
     &PRINT
       &FF_INFO  LOW
         SPLINE_INFO  F
         SPLINE_DATA  F
       &END FF_INFO
     &END PRINT
   &END MM
   &SUBSYS
     &CELL
       A     1.0000000000000001E+02    0.0000000000000000E+00    0.0000000000000000E+00
       B     0.0000000000000000E+00    1.0000000000000001E+02    0.0000000000000000E+00
       C     0.0000000000000000E+00    0.0000000000000000E+00    1.0000000000000001E+02
       PERIODIC  XYZ
       MULTIPLE_UNIT_CELL  1 1 1
     &END CELL
     &COORD
Cs    5.1169731792081752E-01   -4.2176883316577485E-01   -5.3300546098280082E+00
Cs   -4.5041031998880036E-02   -5.7579442558842064E+00   -4.7879626661276475E+00
Cs    1.9688377093684586E-01   -1.2069448130595886E+01   -6.1313659506530520E+00
Cs   -6.1329918645081181E+00   -6.5452147379828833E+00   -5.2618924225927470E+00
Br   -8.7242870569218187E+00   -1.2439994516846104E+01   -8.6718406858385872E+00
Br    1.1787968518956919E+01   -2.5885920357978698E+00   -8.2513815776885338E+00
Br   -3.8332246231436233E+00    2.0940258097311690E+00   -1.2024436444449098E+01
Cs   -4.9589964018563437E-01    6.2238258970956419E+00   -6.8899980894283077E+00
Cs   -3.5007583675871828E-01   -2.2788178281236113E-02    1.1360988368362591E-01
Cs    1.2090719624544422E+00   -6.1322130333697924E+00    7.5811390439669146E-01
Br   -5.6185150267203730E+00   -2.5842896790058409E+00    3.3673817245026911E+00
Cs   -1.0500237035845792E+01   -4.9537912311680508E+00    1.2406492864270488E+01
Cs    1.2280445293192701E+01   -1.0371077629211067E+01    1.2966433967297488E+00
Cs   -6.0213562095642166E+00    6.0350401986999973E+00   -4.4872982420449226E-01
Cs    6.5363884958950499E-02    1.0822301610866678E+01   -3.0069255223904445E-01
Cs   -4.2788696981076124E-01    6.4269035546607780E+00   -5.0113312438082147E-01
Cs    1.5582574752274322E-01   -2.5628603938380640E-01    5.6330752110349298E+00
Cs    3.1883379375726900E-01   -6.8196988119246837E+00    5.4734167060108216E+00
Cs    2.9920466602785112E-01   -1.1552742707919952E+01    6.5147485873045863E+00
Cs   -6.0577413329190284E+00    5.7545731918058207E+00    1.1528417791547440E+01
Cs   -5.8574437490387528E+00   -7.2411225074931795E-01   -1.1140165444017832E+01
Cs   -5.4154239692728927E+00   -1.1752884729263107E+01   -5.6149651697948251E+00
Cs   -5.2817971470453475E+00   -3.5219754711663415E-01    5.7534990699942909E+00
Br   -3.3568602619895489E+00   -3.1857105921047562E+00   -2.5866746325288303E-01
Cs    1.3515438705167274E-01    5.8992672156676376E+00    5.1164229831048980E+00
Br    1.1830069755657293E+01   -9.4625326766914739E+00   -9.0804055902649026E+00
Cs    7.0606293609581441E-03   -5.4956704859378460E+00    1.1212135693578112E+01
Br   -2.7851543138470474E+00   -9.6250331589362720E-02    3.0541863557569831E+00
Br   -8.2346367362470883E+00   -2.5645507222819504E+00    1.2114996885338240E+01
Cs    1.1883291026609664E+01    1.1784914575408106E+01   -5.9480199040322272E+00
Cs   -1.1510555690486383E+01   -6.6261217604231204E+00    6.3680881877220212E+00
Cs   -5.5676650632013773E+00   -6.4006177337953520E+00    6.8504419119886304E+00
Cs   -5.7775399192384285E+00    1.2004089762984510E+01   -7.1825648361040226E+00
Br   -1.1489724886490242E+01   -9.6217808572822214E+00    8.9518473333196180E+00
Br   -8.5686411151485196E+00   -8.2256620235415916E+00    6.6114008624862430E+00
Cs   -1.2076751302931461E+01   -5.9599105918129860E+00   -5.0721688025349625E+00
Cs   -6.4484622321610869E+00    4.9219439434173067E+00   -5.9550506318580325E+00
Br   -8.5185265134879380E+00   -6.0344658362251389E+00    9.5487225122217350E+00
Cs    1.1362967321474185E+01    7.1803620567429620E+00    1.0872730510362990E+01
Br   -1.1478769358755148E+01    1.0633466539192332E+01    9.3432165605407480E+00
Br   -5.9903072486242355E+00   -3.7679915029942297E+00   -3.3310347968103811E+00
Cs   -2.3026479818921916E-01    8.7388135934594366E-02    1.0705490182406319E+01
Cs    1.1172552490403348E+01    6.2664406701743731E+00   -6.9918005852247100E-01
Cs   -1.1651266311552789E+01   -6.0591331751862576E+00   -1.0939891000781197E+01
Cs    1.1640794878406791E+01    2.5115309752653137E-01    6.0816679135924989E+00
Cs   -1.0802599469568683E+01    1.2225039039288035E+01   -6.0303634093358047E+00
Cs    1.1451930458213633E+01   -1.0701807735712650E+01    6.9166699165245795E+00
Cs    6.1360812409482808E+00   -6.0263158970424877E+00   -1.1434249927607611E+01
Cs    6.6161121150578932E+00   -1.0983653976753210E+01    6.2569540558697563E+00
Cs   -4.9253540720954687E+00   -1.1669968922023303E+01    3.7940701974097307E-01
Cs    5.7396656715247980E+00   -1.1701508006818980E+01   -1.0718447448807670E+01
Cs    1.1500700580101661E+01    5.5742786189315412E+00   -7.0290126188641038E+00
Cs    1.1408577486562136E+01    1.1289051104892662E+01    5.8296310266984053E+00
Cs    1.1137209945004710E+01    6.2176206832223366E+00   -1.1005356660649856E+01
Cs    1.0161967487947141E-01   -6.0870886652364398E+00   -1.1143526621519063E+01
Cs   -1.1748576986448025E+01   -5.8800805670534662E-01   -5.5222126899159933E+00
Cs    6.3981622654419956E+00   -5.4581749517756810E+00    1.2180843540730788E+01
Cs    1.1325582521394104E+01   -5.6116775852357561E+00    5.5551899154682269E+00
Cs   -1.2167289775492321E+01   -1.0536283214927504E+01    1.2214094856361660E+01
Cs    4.8628784554928239E-01   -2.4465835901837307E-01   -1.1192175065704214E+01
Cs   -5.9041936957856167E-01    1.1625461162891352E+01    5.2030621286628822E+00
Cs   -4.8901450714156180E-01    6.1164647664969927E+00   -1.1367261765730849E+01
Cs    6.4470739387186340E+00   -3.3162638801074601E-01   -5.4634709233943610E+00
Cs    6.7364361837468785E+00   -5.9258691183483361E+00   -5.7562751909909595E+00
Cs   -4.3776661224584510E+00   -1.2377574437186443E+01    6.3008917024313496E+00
Cs   -1.1127973274931763E+01    2.6247533050359217E-01    5.9001559857234991E+00
Cs    6.1619719481553323E+00   -4.1818782963212237E-01   -1.2348889893806220E+01
Cs    5.9150928222510348E+00    1.0303137807177555E+01   -1.2953644061998679E+01
Cs    2.9735902555036262E-02    6.0787216410729954E+00    1.0287700998122236E+01
Cs   -5.1184687310453700E+00    1.1821990044432326E+01    5.7776590221194786E+00
Cs    5.5892778344917389E+00    1.1443507279654924E+01   -6.0099767541653977E+00
Cs    6.0221942364903454E+00    6.2446566359539286E+00   -6.7562106397164978E+00
Cs    5.5319163473174982E+00    7.9463467399575027E-01   -2.6034940844747501E-01
Cs    5.9976858119833212E+00   -5.5300944243779782E+00   -1.4895506127001468E-02
Cs    6.5069096422324622E+00   -1.1388424397117415E+01    4.1309343898758266E-01
Cs    6.2885214703462164E+00    5.9462160820282692E+00   -1.1973474821425382E+01
Cs   -6.6795895598712516E+00    5.9509420980881584E+00    4.9286513758848374E+00
Cs   -6.2150634612183699E+00   -6.1502142224015923E+00   -1.1111676776923039E+01
Cs    5.1730644399871801E+00    6.4244274385811613E+00   -5.2461594502952555E-02
Cs    6.0127643032120996E+00   -1.2124580142290270E-01    5.4392458715576879E+00
Cs    6.1424281943919423E+00   -5.2100177368446756E+00    5.4720994364869391E+00
Cs   -6.1702313041997723E+00    1.1209643522644415E+01   -2.1350307668264243E-01
Cs    1.1794378070677118E+01    3.0797444905416010E-01   -2.2303904071470457E-01
Cs   -5.8706164623391341E+00    7.4995151154817101E-03   -2.3766798727289884E-01
Cs   -1.1291081417870554E+01    6.0597135111658469E+00    6.1242929462595264E+00
Cs   -5.9931503787032590E+00    2.0586484858508480E-01    1.0553245610155791E+01
Cs    5.8510691569728950E+00    1.1027307943557666E+01    5.7458772617392695E+00
Cs    5.7951256247757819E+00    5.8884322062746195E+00    5.4573162619050164E+00
Cs    5.9233105129853598E+00   -1.0113061425419392E-01    1.1828483017228752E+01
Cs    6.1131443549862459E+00    1.1295995663151146E+01   -8.2371265705931984E-01
Cs    1.1409044625287590E+01    6.6367133582655558E-01   -5.5205275907301532E+00
Cs    1.2068852472068416E+01   -5.0424162323783799E+00   -5.5782880948294702E+00
Cs    5.9662554970701231E+00   -1.0203392674173346E+01    1.1197783261122911E+01
Cs    1.1155677424626962E+01    1.2362026034622623E+01    6.5230877516911978E-01
Cs   -1.1780540384536261E+01    4.7513266486570577E-01    1.1217335554345835E+01
Cs   -6.3112371191260115E+00    5.0655101134512819E+00   -1.2505988525821369E+01
Cs   -1.2017836716751809E+01    1.0613052558934406E+01   -9.3712869950076175E-02
Cs   -5.3763106529633831E+00   -5.5983027231248768E+00    1.1639322859770772E+01
Cs   -5.0027878895182969E+00   -1.1802684434714621E+01    1.2087505898819407E+01
Cs    6.2772681680848770E+00    5.1164784317255618E+00    1.1666764945411662E+01
Cs    1.2211332938946684E+01   -5.4490848362338706E+00   -1.1776705595185542E-01
Cs   -1.1324957081532165E+01   -8.6276210434024048E-01    2.0684649063565291E-01
Cs   -5.9032900921193319E+00    1.0702715132821266E+01   -1.1958740925352588E+01
Cs   -1.1492668163572342E+01    5.5024691360212294E+00    3.1824281945253002E-01
Cs   -1.0239335847379515E+01   -1.2517059652273783E+01   -5.7576847468601864E+00
Cs   -1.1088413761188576E+01   -6.0100809923856211E+00    2.3560521521325165E-01
Cs   -6.0319139071424779E+00   -5.9768302316316158E+00    2.4140963963658663E-01
Cs   -1.0501043648402964E+01   -1.2710273177990768E+01    7.0548568514491121E+00
Cs    1.2364439835267603E+01   -5.1817156671688069E+00    1.0748804936045767E+01
Cs    1.1045066498465193E+01    6.5024922936236553E+00    4.8010766475994391E+00
Cs   -1.2528097399451671E+01    5.8468208718968357E+00   -5.3273224118822649E+00
Cs   -6.2839178231676742E+00   -1.4133612793375450E-01   -5.3529236433032574E+00
Cs   -1.1501623326361656E+01   -1.1476648312351511E+01    9.2168365666134267E-01
Cs    1.1564914348160242E+01   -1.2133746118545126E+01   -1.1861216042436146E+01
Cs   -7.0416582740075651E+00   -1.1648207008089042E+01   -1.1549834925245838E+01
Cs   -1.0751239251690135E-01    1.2144815695161425E+01   -1.0685814543350004E+01
Cs    6.5505412110280659E-01   -1.1498151722988363E+01   -1.0602216666335719E+01
Cs   -6.0116939793366708E-01    1.1064745561824839E+01   -6.3021496862048032E+00
Cs   -6.9005122511411310E+00    1.2664335446709398E+01    1.0810153855885309E+01
Cs    1.1421444918378660E+00   -1.2273229150439489E+01    1.2874080468368776E-01
Cs   -1.1361081380449585E+01   -1.2905649382749196E+00   -1.0336735140216685E+01
Cs   -1.0460981071919251E+01    1.1424062068999440E+01    5.2998314670634592E+00
Cs    7.3202616648544971E+00   -1.1886158243299207E+01   -5.4032987174440485E+00
Cs    1.1210063114490872E+01   -1.2702440484993278E+00   -1.1445883927326689E+01
Cs    1.9123484281286240E-01    1.1072237206300779E+01    1.1225790281358675E+01
Pb    3.2258460901406965E+00   -3.2243674219191938E+00   -2.7280366836114598E+00
Pb    3.4022003565351580E+00   -9.0328848527134209E+00   -2.6708459475585742E+00
Pb   -8.4430692484251360E+00   -3.0851011999759015E+00    3.3841037200645445E+00
Pb   -2.3960957861777672E+00   -9.4171423490714261E+00   -2.7175490397220430E+00
Pb    2.8354380861351478E+00    9.1587331906627689E+00   -3.3470323196432887E+00
Pb    2.5387585190134279E+00    2.9049995844454939E+00   -3.3471528910330326E+00
Pb    3.1524788894699931E+00   -2.8235762549031924E+00    3.1265698607285914E+00
Pb    3.5937544015666663E+00   -9.1996592518555431E+00    3.1227047630302005E+00
Pb   -3.0798209768305789E+00    8.8000768111926604E+00    2.6438923930959781E+00
Pb    2.6275000807479918E+00    9.1254666469998202E+00    2.4901520632447554E+00
Pb    2.8619429444482734E+00    2.9364860850364463E+00    2.6173956410575303E+00
Pb    3.0410580848627573E+00   -2.7626230870827686E+00    8.9613076889514360E+00
Pb    3.0113894497006330E+00   -8.8283591642721220E+00    8.9424810580553746E+00
Pb   -3.0935108834111227E+00    2.7916619808375986E+00    2.6712169871666580E+00
Pb    2.7994073648734030E+00    9.2626416475708222E+00    8.4766075827301055E+00
Pb    3.1052656882858289E+00    3.1396636649647145E+00    8.6145754438624706E+00
Pb   -2.7339681108599638E+00   -3.0702574493322508E+00    8.4537777711112962E+00
Pb   -8.4476970512145844E+00   -8.8135900650081052E+00    3.7006928352158881E+00
Pb   -9.4019476098053456E+00    2.5492832215310393E+00   -2.9321530568951033E+00
Pb   -2.7620003930731620E+00   -3.3552250278896625E+00   -9.0337604176187920E+00
Pb   -2.2859865403995605E+00   -9.3315737109811216E+00    3.2260084188455589E+00
Pb   -3.3493331819214638E+00    8.8496873893841652E+00   -3.1869174701494103E+00
Pb   -2.6751517577408763E+00   -9.2772727466293574E+00    9.9176346300725182E+00
Pb   -8.8064844272627987E+00   -3.4241415928510182E+00   -2.4535871080950598E+00
Pb   -8.2950978528744521E+00   -9.2928878261246446E+00   -2.4683745013841984E+00
Pb   -3.3072594373792019E+00    2.7949923263444463E+00   -3.2571248195792681E+00
Pb   -8.7315450487843833E+00   -8.8933565460179071E+00    9.6563401620009959E+00
Pb   -8.7359009014409192E+00   -3.7834405425847786E+00   -8.4547530105198998E+00
Pb    8.8766199001125905E+00   -3.1467905510511938E+00   -8.5623692196271328E+00
Pb    9.1618265505321954E+00   -9.1799165232164750E+00   -9.4282610052724056E+00
Pb   -2.8019919238361988E+00   -8.9897918451881722E+00   -8.5909847124582512E+00
Pb   -9.7050421472164086E+00    8.3781132779982510E+00   -8.9367803749139014E+00
Pb    3.0656943904587690E+00   -2.8853232861633180E+00   -8.5526034934687356E+00
Pb    3.3215135633402899E+00   -8.5989013457944097E+00   -8.5186619582189866E+00
Pb   -3.5458920414614625E+00    2.5842490363830781E+00   -9.0289116137186092E+00
Pb    2.3691833381903629E+00    9.1546152271481169E+00   -9.2965399436527978E+00
Pb    2.8300513828467677E+00    3.2905701847786397E+00   -9.3654714411137956E+00
Pb    9.3261375128528279E+00   -2.7245694316753686E+00   -2.8832554117018359E+00
Pb    9.6507982455002104E+00   -8.5910290439241468E+00   -2.9072345370544994E+00
Pb   -8.6417859257879694E+00   -2.3993123088783048E+00    9.2047938242209746E+00
Pb    8.4147527336036756E+00    9.3896089610544777E+00   -9.5372943794792295E+00
Pb   -9.6299139848082742E+00    2.3846051104464214E+00   -8.8070033114303055E+00
Pb   -2.7592527956923836E+00    8.7514369508878378E+00    8.6571975409673936E+00
Pb    9.1890199362555514E+00    9.3719036021944913E+00   -3.5695375065777109E+00
Pb    8.9107427721022319E+00    3.4476831790710150E+00   -3.4274412345004510E+00
Pb    9.1479308730301359E+00   -2.4762624193962131E+00    3.1390411247642271E+00
Pb    9.2794434317348138E+00   -8.1884963205105894E+00    2.8725789439079437E+00
Pb    8.4675874050001614E+00    2.7024814511799469E+00   -9.5003489581505693E+00
Pb   -2.8191757626650751E+00    2.7372157542451991E+00    8.5070756711090052E+00
Pb    8.8435219039730839E+00    9.3764100860411048E+00    2.3134799416534646E+00
Pb    8.5878342995160075E+00    3.5848598481476355E+00    2.5210469340302426E+00
Pb    8.9254611770808889E+00   -2.1923332086508664E+00    8.9814958459304144E+00
Pb    9.1710612873211037E+00   -8.0739972430963878E+00    8.9585633291541935E+00
Pb    8.8355212352383035E+00    9.3682331430695438E+00    8.3184930254280669E+00
Pb    9.2932531067861568E+00    3.3792817572086369E+00    8.6622530188795590E+00
Pb   -9.3507045408798088E+00    3.5049074844509338E+00    8.9305218552912411E+00
Pb   -2.8527074294152657E+00   -3.3944782967458429E+00    2.7784147090630391E+00
Pb   -9.1286642748387816E+00    8.5420600739967476E+00    2.7809024729059399E+00
Pb   -9.7924206838622982E+00    8.3981804947224781E+00   -3.0947294200950384E+00
Pb   -8.9236675326313613E+00   -9.4659009146999793E+00   -8.3222137841439636E+00
Pb   -3.5606552611174709E+00    8.3343795056553542E+00   -9.0085676625788516E+00
Pb   -8.8364022746120465E+00    2.5407519502499740E+00    3.0196887768745588E+00
Pb   -8.8174242327427663E+00    9.6301942230449811E+00    9.1507080772286304E+00
Pb   -2.8706325564977608E+00   -3.1019544043801992E+00   -3.1943853947091219E+00
Br    3.5225696873518170E-01   -2.9330303912078199E+00   -2.7111942961189923E+00
Br    3.1015966542498705E+00   -3.5841443213646365E+00   -5.7254269570444309E+00
Br    3.0258762553064309E+00   -1.1569870379585702E-01   -2.8777168117670509E+00
Br    4.0217238090946678E-01   -8.8536989828843478E+00   -3.0483137749774736E+00
Br    3.9768167116212694E+00   -8.4273439094832234E+00   -5.5779640090509135E+00
Br    3.2147415551222696E+00   -6.0244705923264732E+00   -2.2344909780208293E+00
Br   -2.1035778707876167E+00   -2.9301769556993396E+00   -5.9210893236573767E+00
Br   -8.2114068806106868E+00   -2.5658897681690189E+00    6.4614054941446541E+00
Br   -3.5876576563239517E+00   -2.5576563380393341E-01   -3.0924411782035031E+00
Br    3.2315395581939059E+00   -1.1836088456909776E+01   -2.8955075428416621E+00
Br    1.2368357223508703E+01   -2.3938762749070390E+00    3.8597401587945201E+00
Br   -5.3429061833970506E+00   -8.8951411711579631E+00   -2.2009172708607818E+00
Br   -1.1681778252425378E+01   -3.3437186232228431E+00    2.6624050944678452E+00
Br   -8.0306356592625985E+00   -3.1982363769345992E+00    2.1921112789851316E-01
Br    1.2141788541686799E+01   -8.2248176282438479E+00    3.5414176067518230E+00
Br   -1.0952411605037901E-01    9.1156398861461554E+00   -3.3426073283813431E+00
Br    2.4003627956641735E+00    8.1144105463465799E+00   -6.3811201065785816E+00
Br    3.3199202094942755E+00    1.1922696167970379E+01   -3.5126209522361220E+00
Br   -3.7442646166179921E-01    2.4794713082786926E+00   -3.0467695393698571E+00
Br    3.1204607577300583E+00    3.1255008772163180E+00   -6.2173737703641629E+00
Br    3.0561356232528154E+00    6.1214769769067017E+00   -3.1213900540830588E+00
Br    1.7078127052308842E-01   -3.1326589733283874E+00    2.3935235859340782E+00
Br    3.5042328439876598E+00   -2.6601267955611800E+00    2.8046730629993077E-01
Br    2.8531397963381302E+00    3.4191117481486032E-02    2.7053473099612320E+00
Br    5.2976646502929570E-01   -8.8770164694497513E+00    3.0094290071517080E+00
Br    3.0009077111767586E+00   -9.5758311209454146E+00    1.5735237052027379E-01
Br    3.5237834635655365E+00   -5.8108278343040771E+00    3.0268766784356171E+00
Br   -6.3608398527984518E+00    8.9812442226398446E+00   -8.7453496014673799E+00
Br   -3.2643547311362333E+00    8.4294952416513027E+00   -1.1738577505173387E+01
Br    4.3160856667278340E+00   -1.2116746046239388E+01    3.3440397781652900E+00
Br   -2.8919417644578056E+00    1.1499415041255485E+01   -8.9240393843244448E+00
Br   -3.6488456774482163E+00    5.5037711193758510E+00   -8.9890346225385578E+00
Br   -9.2101502867605056E+00   -3.9997826928878838E-01    3.4825986713100670E+00
Br   -3.3689406544296152E+00   -8.6378421124350329E+00   -5.5128326292748682E+00
Br   -6.1150923566194937E+00    8.7116511861554340E+00    2.2960395147640664E+00
Br   -2.6201334207656619E+00    9.2539800373851584E+00   -4.6648103129854795E-01
Br   -3.4575187362643764E+00    1.1560123170959919E+01    2.5296777174205189E+00
Br   -2.3798169872817124E-01    8.4464393569622302E+00    2.4229771274058525E+00
Br    3.0660486257661765E+00    9.2126512044710331E+00   -3.6447515408495912E-01
Br    2.1104445816989594E+00    1.1996351872960179E+01    2.5803042115345560E+00
Br   -2.9531943720372167E-01    3.5116577524667769E+00    2.3649607582058616E+00
Br    2.3356341171186088E+00    2.6712524653728305E+00   -2.5678400560180764E-01
Br    3.0458713749765356E+00    5.8431423927661648E+00    2.3465520137413209E+00
Br    1.1128481764092697E-01   -2.7907214493735180E+00    8.6010103150828439E+00
Br    3.2055478628515788E+00   -2.7336972568716793E+00    6.1027744376003241E+00
Br    3.0985006397959598E+00    1.8937165892791630E-01    8.6683966347528418E+00
Br    1.3715381536499818E-01   -9.4072549310972988E+00    9.0133369835424890E+00
Br    2.7541567199946106E+00   -9.1020138302213045E+00    6.0091501982543116E+00
Br    2.3332402400680432E+00   -5.8008335006907226E+00    8.3007047147276012E+00
Br   -1.1767409862488089E+01    2.9083122528681793E+00    2.9563706153600977E+00
Br   -9.1635435844365869E+00    2.2411633043429982E+00    1.6785380096969069E-01
Br    3.3575226222899932E+00   -1.1566445920651464E+01    9.4813812346474506E+00
Br   -9.1117515026642408E+00    5.3650857057582479E+00    2.6065687843088976E+00
Br   -8.9371445150123545E+00    5.1768286517820139E-01    8.7272665766390176E+00
Br   -2.2230764298522026E+00   -5.8591743678369941E+00   -2.2325685199385266E+00
Br   -5.9826808231758291E+00    2.7865486475185999E+00    2.7578837043107605E+00
Br   -3.3056553460739653E+00    2.1602479845849589E+00   -1.8215915290089219E-01
Br   -3.7904462547180233E+00    5.9397463525918592E+00    2.3254755442848039E+00
Br   -5.3773966283328783E-03    8.1984546193463661E+00    7.5948402202241549E+00
Br    3.0201780188362659E+00    9.1123344690793910E+00    5.4349478547918215E+00
Br    2.8576404484222415E+00    1.1914520776318467E+01    7.8480212474359243E+00
Br    7.5236143194718719E-02    3.0845195735154132E+00    9.0891630506679011E+00
Br    2.2760429639468045E+00    2.4924478073739098E+00    5.6212695406294406E+00
Br    2.8221188222032234E+00    6.1191223452078845E+00    8.1452993666785325E+00
Br   -5.4515113057182960E+00   -2.7134148775425500E+00    9.0552232331854938E+00
Br    2.8238193092277117E+00   -3.1026798456885416E+00    1.1738065770289371E+01
Br   -2.7983535275687235E+00   -3.3850640406829080E+00    5.6470292863197047E+00
Br   -3.0143298808339400E+00   -1.0242193234584029E-01    8.1614438350707701E+00
Br   -2.5157620564201619E+00   -1.2153144195920598E+01   -2.5837927038382764E+00
Br    3.4637027212173424E+00   -7.4727912318116712E+00    1.1435330335528660E+01
Br   -1.2184802378605406E+01    2.2829986783842293E+00   -2.9238123682335679E+00
Br   -2.0135704136830839E+00   -1.2279021100461641E+01    2.8474493478472112E+00
Br   -1.1641039945344955E+01   -3.4425984250531974E+00   -2.2246451021881244E+00
Br    2.0211736690043618E+00    8.5713380370286441E+00    1.1100935659501264E+01
Br   -8.9636498851737958E+00   -3.6357693765547712E+00   -5.3193805937618350E+00
Br   -9.0425585414953478E+00   -3.1724120666874706E-01   -3.1541732163554528E+00
Br    3.5645414158320614E+00    2.8175845038463807E+00    1.1397450021378576E+01
Br   -6.2428380900106326E+00    8.5699686876718228E+00   -2.6247602310854870E+00
Br   -2.9866724001771869E+00    8.1105925040336775E+00   -6.1644094514417880E+00
Br   -3.9983942989406640E+00    1.1548588366479429E+01   -3.7984437045289829E+00
Br   -6.0472413280317783E+00    2.8295193854721878E+00   -3.0271265562254626E+00
Br   -1.1443422445820865E+01   -9.0739037975749426E+00    3.8287752470686205E+00
Br   -3.1620698609426454E+00    2.2703264613618908E+00   -6.0768389161806988E+00
Br   -5.7522718830999873E+00   -3.5004886953659624E+00   -8.3131037146645621E+00
Br   -3.2323642254472817E+00   -3.3119930321237132E+00   -1.1783157855694714E+01
Br   -3.1485276229137034E+00   -3.4039024005303048E-01   -8.8666846468875047E+00
Br   -3.0458954749942668E+00    1.9641193272898110E+00    1.1060736980480344E+01
Br   -5.8469105483705679E+00   -8.7625284654471081E+00    1.0088902234344468E+01
Br   -2.4459835472276810E+00   -9.4610163400472498E+00    6.0713408182034421E+00
Br   -3.0545566915569617E+00   -6.3463345181855439E+00    8.9284843093117949E+00
Br   -8.8720151984110984E+00   -8.7430813011832953E+00    6.2401454829563918E-01
Br   -8.0147737743954455E+00   -5.8905005288592083E+00    3.2257065179150959E+00
Br   -7.5178674772075622E+00    9.6211010882277304E+00    1.1955490151859914E+01
Br    1.1569594544992597E+01    9.6885797279124528E+00    2.9557764505660118E+00
Br   -9.9529298197807847E+00   -8.2416333403989679E+00    1.2399347460007904E+01
Br    1.2251872715054436E+01    9.2366055269624532E+00   -3.8670808842477733E+00
Br    1.1286474917224062E+01    4.1396493088506423E+00    2.2689634392039451E+00
Br   -9.6281686504968711E+00    2.7098800048117040E+00    1.1759907137074315E+01
Br   -1.1602631438049960E+01   -3.7073002485158493E+00   -8.3658477320425391E+00
Br    1.1828191967813622E+01   -2.9291552661479341E+00    8.5587203502241636E+00
Br   -5.4928013884537981E+00   -8.9845837681951259E+00    3.2309955115649402E+00
Br    5.8809368137829674E+00   -2.9241225116617016E+00   -8.1575674469353459E+00
Br    8.4350659187187720E+00   -3.1153646245802706E+00   -1.1630097415523926E+01
Br    1.1851547176661954E+01   -7.6137936140099463E+00    8.2661172041264539E+00
Br    8.9407877059241514E+00   -3.5154268473956629E-01   -9.0164467510194886E+00
Br   -8.6757612099260619E+00   -1.1872100695412920E+01    9.9030090204262251E+00
Br   -2.4541278898022343E+00   -9.2756377545003126E+00    2.7137441371225690E-01
Br   -2.6180205457387262E+00   -6.3447121456383586E+00    2.9999893188763855E+00
Br    6.5129591495675925E+00   -8.8541809554829385E+00   -8.2355531382018992E+00
Br   -5.8427098747022583E+00   -9.5810373377275511E+00   -8.9390712158500989E+00
Br    8.1876997186931959E+00   -9.6849370289136463E+00   -1.2090168622008710E+01
Br    8.9843537599250407E+00   -6.2313498027923284E+00   -9.6762254210760226E+00
Br   -3.1037014343731570E+00   -1.2192738840317626E+01    9.1696259494060985E+00