 # Version information for this restart file 
 # current date 2021-06-17 12:47:30.842
 # current working dir /user/ub2042/exercises/2_fitting/MM_MD_workdir/md_settings.006
 # Program compiled at                              Thu Apr 22 21:44:59 EDT 2021
 # Program compiled on                cpn-k07-07-02.compute.cbls.ccr.buffalo.edu
 # Program compiled for                                                    local
 # Source code revision number                                       git:36754bb
 &GLOBAL
   PRINT_LEVEL  LOW
   PROJECT_NAME cp2k
   RUN_TYPE  MD
 &END GLOBAL
 &MOTION
   &MD
     ENSEMBLE  NVT
     STEPS  10000
     TIMESTEP     2.4999999999999996E+00
     STEP_START_VAL  500
     TIME_START_VAL     1.2500000000000068E+03
     ECONS_START_VAL    -1.3043899953808431E+01
     TEMPERATURE     3.0000000000000000E+02
     &BAROSTAT
       PRESSURE     1.0100000000000000E+00
       TIMECON     9.9999999999999982E+03
     &END BAROSTAT
     &THERMOSTAT
       TYPE  CSVR
       &CSVR
         TIMECON     9.9999999999999982E+03
         &THERMOSTAT_ENERGY
              -1.6078419113370768E-02
         &END THERMOSTAT_ENERGY
         &RNG_INIT
Wiener process for Thermostat # 1        1 F T F  -1.6641838422452651E-01        2082254386.0        4002166886.0         820843889.0        3085297725.0        3956791434.0        2489169757.0             12345.0             12345.0             12345.0             12345.0             12345.0             12345.0             12345.0             12345.0             12345.0             12345.0             12345.0             12345.0
         &END RNG_INIT
       &END CSVR
     &END THERMOSTAT
     &AVERAGES  T
       &RESTART_AVERAGES
         ITIMES_START  1
         AVECPU     1.7569120408035818E-02
         AVEHUGONIOT     0.0000000000000000E+00
         AVETEMP_BARO     0.0000000000000000E+00
         AVEPOT    -1.3450981388954252E+01
         AVEKIN     4.1516934941692646E-01
         AVETEMP     2.1060233756180594E+02
         AVEKIN_QM     0.0000000000000000E+00
         AVETEMP_QM     0.0000000000000000E+00
         AVEVOL     6.7483345830899505E+06
         AVECELL_A     1.8897261328856513E+02
         AVECELL_B     1.8897261328856513E+02
         AVECELL_C     1.8897261328856513E+02
         AVEALPHA     9.0000000000000000E+01
         AVEBETA     9.0000000000000000E+01
         AVEGAMMA     9.0000000000000000E+01
         AVE_ECONS    -2.5595228939754504E+00
         AVE_PRESS     0.0000000000000000E+00
         AVE_PXX     0.0000000000000000E+00
       &END RESTART_AVERAGES
     &END AVERAGES
     &PRINT
       &ENERGY  SILENT
         &EACH
           MD  10
         &END EACH
       &END ENERGY
     &END PRINT
   &END MD
   &PRINT
     &TRAJECTORY  SILENT
       &EACH
         MD  10
       &END EACH
     &END TRAJECTORY
     &CELL  SILENT
       &EACH
         MD  10
       &END EACH
     &END CELL
     &VELOCITIES  SILENT
       &EACH
         MD  10
       &END EACH
     &END VELOCITIES
     &FORCES  SILENT
       &EACH
         MD  10
       &END EACH
     &END FORCES
     &RESTART  SILENT
       &EACH
         MD  10
       &END EACH
     &END RESTART
   &END PRINT
 &END MOTION
 &FORCE_EVAL
   METHOD  FIST
   &MM
     &FORCEFIELD
       VDW_SCALE14     1.0000000000000000E+00
       EI_SCALE14     1.0000000000000000E+00
       SHIFT_CUTOFF  T
       DO_NONBONDED  T
       IGNORE_MISSING_CRITICAL_PARAMS  T
       &SPLINE
         R0_NB     2.5000000000000000E-01
       &END SPLINE
       &NONBONDED
         &LENNARD-JONES
           ATOMS Br Br
           EPSILON     1.2630795322675199E+02
           SIGMA     3.6900000000000004E+00
         &END LENNARD-JONES
         &LENNARD-JONES
           ATOMS Cs Pb
           EPSILON     8.6920055954630968E+01
           SIGMA     3.6699999999999999E+00
         &END LENNARD-JONES
         &LENNARD-JONES
           ATOMS Cs Cs
           EPSILON     2.2644852172126850E+01
           SIGMA     4.3300000000000001E+00
         &END LENNARD-JONES
         &LENNARD-JONES
           ATOMS Pb Pb
           EPSILON     3.3363415533600227E+02
           SIGMA     5.9000000000000004E+00
         &END LENNARD-JONES
         &LENNARD-JONES
           ATOMS Br Cs
           EPSILON     5.3481070753900497E+01
           SIGMA     3.6300000000000003E+00
         &END LENNARD-JONES
         &LENNARD-JONES
           ATOMS Br Pb
           EPSILON     2.0528187276773045E+02
           SIGMA     2.9800000000000000E+00
         &END LENNARD-JONES
       &END NONBONDED
       &CHARGE
         ATOM Cs
         CHARGE     4.0230055499999995E-01
       &END CHARGE
       &CHARGE
         ATOM Pb
         CHARGE     8.0460110999999990E-01
       &END CHARGE
       &CHARGE
         ATOM Br
         CHARGE    -4.0230055499999995E-01
       &END CHARGE
     &END FORCEFIELD
     &POISSON
       PERIODIC  XYZ
       &EWALD
         EWALD_TYPE  SPME
         GMAX  62 62 62
         O_SPLINE  4
       &END EWALD
     &END POISSON
     &PRINT
       &FF_INFO  LOW
         SPLINE_INFO  F
         SPLINE_DATA  F
       &END FF_INFO
     &END PRINT
   &END MM
   &SUBSYS
     &CELL
       A     1.0000000000000001E+02    0.0000000000000000E+00    0.0000000000000000E+00
       B     0.0000000000000000E+00    1.0000000000000001E+02    0.0000000000000000E+00
       C     0.0000000000000000E+00    0.0000000000000000E+00    1.0000000000000001E+02
       PERIODIC  XYZ
       MULTIPLE_UNIT_CELL  1 1 1
     &END CELL
     &COORD
Cs   -4.8160197323552804E-02   -2.2241773165902584E-01   -5.6837079970213820E+00
Cs   -2.4104645781227696E-01   -6.4590457164375099E+00   -6.1332638776166863E+00
Cs   -4.5280666502358313E-01   -1.2245737043314893E+01   -5.5128631882218979E+00
Cs   -5.8249123411604069E+00   -6.4724488527335273E+00   -5.8156431542318003E+00
Br   -8.9692753127197147E+00   -1.2283642424841334E+01   -8.2139054720902145E+00
Br    1.1830987378004973E+01   -3.2688399830703916E+00   -8.1019998675908678E+00
Br   -2.3187441674138278E+00    2.8778090625594683E+00   -1.1492483583005468E+01
Cs    3.6252042068069190E-01    5.6929034488259225E+00   -5.8544136201849746E+00
Cs    2.4559085483690857E-01   -3.9691352557647458E-01   -8.7000230486741728E-02
Cs    4.3608331049149923E-01   -6.4237218430172813E+00   -2.1846234787920296E-01
Br   -5.7911294046836730E+00   -2.7131405223680547E+00    3.2967674106057250E+00
Cs   -1.0343158045081701E+01   -6.1097072386601221E+00    1.1933684620930634E+01
Cs    1.1127101770519126E+01   -1.1290835149714660E+01   -3.8852506555571337E-01
Cs   -5.5961319294228895E+00    5.6856373032692611E+00    4.4868678339287726E-01
Cs   -3.4140386897967090E-01    1.1328931317213378E+01    4.4082231062962007E-01
Cs   -6.6292737882730587E-02    5.8407481457869457E+00    2.0375895448453285E-01
Cs    3.5037741411757034E-01    7.8308104617946606E-01    5.9373207347518884E+00
Cs    3.8662144103598739E-01   -5.2221129461523326E+00    6.3340747926316086E+00
Cs    6.0698929224152076E-01   -1.0458250518796278E+01    5.6993404668089394E+00
Cs   -8.0594343299354989E+00    6.0391890727107720E+00    1.2300574044628336E+01
Cs   -5.7866590478485502E+00   -1.6085438401934068E-01   -1.1708639080904328E+01
Cs   -5.1136142485283118E+00   -1.1664646324538175E+01   -6.3616133383231217E+00
Cs   -6.2897253635017485E+00    4.9769037919566599E-02    5.5544380998268403E+00
Br   -3.4657303488038793E+00   -2.6949963702116864E+00    7.3436607206441559E-02
Cs    2.5896184385211696E-01    5.4701517195630425E+00    6.1579309187359614E+00
Br    1.1973032827729137E+01   -8.8533940108445233E+00   -8.5924803835176515E+00
Cs    9.3781041293880874E-01   -6.0787400310401525E+00    1.1538865949336499E+01
Br   -2.5247353525080523E+00    1.9720744355677441E-01    2.5157086430125251E+00
Br   -8.5866390938418942E+00   -2.7045090643240468E+00    1.1978834089047011E+01
Cs    1.1127487525473002E+01    1.1039147957824087E+01   -6.0614577527204698E+00
Cs   -1.1465363381744018E+01   -5.6227087542369123E+00    5.9517175271059717E+00
Cs   -5.3071197297349597E+00   -5.3408572794821723E+00    5.6294412547953590E+00
Cs   -6.8289841189427332E+00    1.1221328919918621E+01   -6.2543238954832194E+00
Br   -1.1548821964984592E+01   -8.0644660945972539E+00    8.8252764986263035E+00
Br   -9.2328341012733226E+00   -9.1670148930827828E+00    5.6656226856370626E+00
Cs   -1.1252950489656808E+01   -6.4510655252908471E+00   -6.1295454109822574E+00
Cs   -5.4227591326207030E+00    6.2369140330454043E+00   -5.3719833109311921E+00
Br   -8.4851570407793986E+00   -5.7246353349886796E+00    9.0340384499371371E+00
Cs    1.1982545743794265E+01    6.2662807727920598E+00    1.0363230193406643E+01
Br   -1.1919941256601220E+01    8.5107437605594001E+00    8.4088331629836475E+00
Br   -5.9039441454130017E+00   -2.9566246021653022E+00   -2.8253379727596073E+00
Cs   -2.6949436860303874E-02    6.9650851510145839E-01    1.1585282706796363E+01
Cs    1.1348326110715606E+01    5.5573341472967126E+00   -2.5514235244853328E-01
Cs   -1.0961195729972804E+01   -5.4813503794637892E+00   -1.1155063071118754E+01
Cs    1.1876558160223510E+01    2.2756454408209811E-01    5.7817949791494714E+00
Cs   -1.1567808409917737E+01    1.1073068988791592E+01   -6.1967645865058554E+00
Cs    1.1745350194562066E+01   -1.1970601800116491E+01    5.3730079105306947E+00
Cs    6.0067132007592523E+00   -6.0467177091880915E+00   -1.1337869984307245E+01
Cs    5.3302222818707774E+00   -1.1286602456559793E+01    5.8989587922942990E+00
Cs   -5.6974023717676152E+00   -1.1537764104000455E+01    9.9964727856704627E-01
Cs    6.7465596189838468E+00   -1.1951270788661882E+01   -1.1159328886107424E+01
Cs    1.1704857148871559E+01    5.9624822587603115E+00   -6.3169292345422479E+00
Cs    1.1617429531001346E+01    1.2007943790501226E+01    6.1463570375923595E+00
Cs    9.8143670545402841E+00    6.1296240981861088E+00   -1.2291020842869916E+01
Cs    6.9407381776263888E-01   -6.0441290202810229E+00   -1.1862462192796679E+01
Cs   -1.1217684569140152E+01   -3.2056092796897617E-01   -5.5849056725414599E+00
Cs    6.2891335767617997E+00   -4.7801175546260879E+00    1.2270350844399823E+01
Cs    1.2720937810040104E+01   -5.4031845051707288E+00    6.8457436842356163E+00
Cs   -1.0932871980595335E+01   -1.1925846030057894E+01    1.1902427222422389E+01
Cs    1.1893262631883553E-01   -3.7613719332895823E-01   -1.1463926979232614E+01
Cs    1.8550455598444343E-01    1.1089450922426874E+01    6.0119350846172201E+00
Cs   -2.6663019552829870E-01    5.4552724482771699E+00   -1.1160004194420493E+01
Cs    5.4368160906066993E+00   -1.2798020700787527E-01   -5.2187050702122404E+00
Cs    5.7411566701674852E+00   -5.5687519659728331E+00   -5.8498092270669559E+00
Cs   -5.0873133617235302E+00   -1.1500935026451383E+01    5.7210076938095060E+00
Cs   -1.1767032460114748E+01    5.9604495563129412E-01    5.6058620259952381E+00
Cs    5.7018416971396917E+00   -6.1997321689930840E-01   -1.1824704019562885E+01
Cs    7.2214321585741059E+00    1.2373444171085474E+01   -1.1657103964324216E+01
Cs    1.2340538817806518E-01    5.7268320027144739E+00    1.2091109319965913E+01
Cs   -5.2789060907773964E+00    1.1835992180287665E+01    6.4517753416203787E+00
Cs    4.7015496765528821E+00    1.1066853082751463E+01   -6.3237970578478215E+00
Cs    5.5895917545176141E+00    5.9793818878128855E+00   -5.3303881680125196E+00
Cs    5.5075637514508635E+00    3.4686228611951386E-01    6.0642810375492717E-01
Cs    5.8717603847519015E+00   -6.5581118146440449E+00   -5.3319401136711042E-01
Cs    5.4605011542179041E+00   -1.1487488640758599E+01    5.9746292669361500E-01
Cs    5.3464492331666884E+00    6.2239378562677183E+00   -1.1355074670925461E+01
Cs   -6.0536143959695830E+00    6.3602460273850108E+00    5.7513352586204567E+00
Cs   -6.2582386293153140E+00   -6.0748770711305227E+00   -1.1093007030957233E+01
Cs    5.9156327686724461E+00    5.8128629427512317E+00    6.9844171677050648E-01
Cs    5.9096938173975495E+00   -2.5483155797781976E-01    5.9146457858220645E+00
Cs    6.8740657642908731E+00   -5.4391014559937725E+00    5.1912118311016391E+00
Cs   -5.5696468811051520E+00    1.1808751016524051E+01    2.2963706657449567E-01
Cs    1.1647509542097394E+01    2.0656907399474728E-01   -4.7361640117824289E-01
Cs   -4.8854388338038284E+00    4.8958995522410946E-02   -3.0876432918155061E-01
Cs   -1.0642420622014225E+01    5.7877318099893476E+00    5.8892397051894489E+00
Cs   -5.2081723707613081E+00    8.1203158206567860E-01    1.1482283747335483E+01
Cs    6.3767392655528790E+00    1.1251940474653095E+01    5.5602741623784304E+00
Cs    5.7730588315922455E+00    6.0855820922500907E+00    5.7578443692139221E+00
Cs    6.3146485629000146E+00    5.4555947990417164E-01    1.1542496539126294E+01
Cs    5.6596011403490918E+00    1.0891464198724547E+01   -1.7647693429496708E-01
Cs    1.1278198158752156E+01   -5.8294514991013624E-01   -5.3425004485366134E+00
Cs    1.1275153455476431E+01   -5.7731071026502248E+00   -5.7234348737341003E+00
Cs    6.2039948309315722E+00   -1.0817603994922033E+01    1.1105779172629600E+01
Cs    1.1031584739105970E+01    1.1273920246956395E+01   -2.3120580757909945E-01
Cs   -1.0888909950992140E+01    7.1150762791619881E-01    1.1083009206194079E+01
Cs   -5.8289368587909509E+00    5.7107967269726538E+00   -1.0571210479664904E+01
Cs   -1.1921793125344248E+01    1.0860599165992323E+01    1.5967543733623950E-02
Cs   -4.6107519993854531E+00   -5.3015704796448251E+00    1.1884601278173788E+01
Cs   -4.9690037091295496E+00   -1.0818193270459950E+01    1.1261826911483777E+01
Cs    6.8189988387205691E+00    6.4335828891271465E+00    1.0809902123543695E+01
Cs    1.1588218856670752E+01   -5.6229915456206054E+00    1.7322016735066917E-01
Cs   -1.1323731438059259E+01   -5.7389977111446044E-01   -1.9958109831683657E-01
Cs   -6.4699371730945581E+00    1.1414765835337862E+01   -1.1156363386601988E+01
Cs   -1.1040784841009732E+01    5.6816286064297206E+00   -5.0784857753495805E-01
Cs   -1.1653058699912183E+01   -1.1971940813451102E+01   -6.3111346201058049E+00
Cs   -1.1268470474441784E+01   -6.3066840210689419E+00   -1.0357879178447843E-01
Cs   -5.9074674000311642E+00   -4.8475030123865759E+00    5.6242503990873582E-01
Cs   -1.2813908816151336E+01   -9.7211830018196963E+00    5.2520566296397799E+00
Cs    1.0795860431376484E+01   -6.1153807862188669E+00    1.1689327324750067E+01
Cs    1.1675154676570527E+01    5.9267172346187742E+00    4.9172455436637232E+00
Cs   -1.1388444028236176E+01    4.5616730942169665E+00   -6.2639594614585983E+00
Cs   -6.1396102747125987E+00   -1.1644430214706007E+00   -5.6657804728587422E+00
Cs   -1.1979341944037568E+01   -1.0622170341896505E+01   -5.3628617529940492E-01
Cs    1.2632647342205887E+01   -1.1795229382611174E+01   -1.0161664668390710E+01
Cs   -1.2513930716471624E+01   -9.7626097157979572E+00   -1.2400300056250478E+01
Cs   -3.7507300098076934E-01    1.0880565864759355E+01   -1.0731057166534230E+01
Cs    3.2041133124314941E-01   -1.0916089589387692E+01   -1.2145300842056832E+01
Cs    4.1964423474291174E-01    1.1019377040062917E+01   -5.6593707092375629E+00
Cs   -1.1955017407362188E+01    1.0907427439980944E+01    1.0680081656442308E+01
Cs   -4.8006645370304420E-02   -1.1138039953223240E+01    4.3121814521022450E-01
Cs   -1.1209060812301873E+01   -3.1843889458376390E-01   -1.1543141393057205E+01
Cs   -1.1498383908408844E+01    1.0452980558975408E+01    5.4717124114283191E+00
Cs    6.2935187886470203E+00   -1.1371963281163564E+01   -5.5034860132246637E+00
Cs    1.0345992836482239E+01   -7.4325928241157455E-02   -1.1643320128059662E+01
Cs   -4.3895961100934677E-01    1.0955575472635580E+01    1.1312075850809897E+01
Pb    2.7182534662726110E+00   -3.0505019499659789E+00   -2.3890424913076824E+00
Pb    2.9671290665738241E+00   -9.6086350176223370E+00   -3.3858151811755359E+00
Pb   -8.9896478472024004E+00   -3.0735682201254950E+00    3.2112652074392085E+00
Pb   -3.0254943485377517E+00   -9.1562543638576148E+00   -3.2153164339890408E+00
Pb    2.8959575623832756E+00    8.8503006943562532E+00   -2.7035933711022020E+00
Pb    2.9308112666594801E+00    2.8767422913902654E+00   -2.9594966470213921E+00
Pb    3.1071224164156348E+00   -2.7555066596932298E+00    3.4066384418308600E+00
Pb    3.0868960847985143E+00   -8.4396923478019339E+00    2.8527705424628760E+00
Pb   -3.1071376574583711E+00    9.1539324501710304E+00    3.2019100396568141E+00
Pb    2.9469444305997055E+00    9.3055844046947271E+00    3.1695946101903787E+00
Pb    3.2895309493984684E+00    3.0952111447629864E+00    3.2188618587040474E+00
Pb    3.3655049720655983E+00   -2.7283388975401364E+00    9.3772376083065456E+00
Pb    3.2172600500719897E+00   -8.6319075235451592E+00    8.7708088553590038E+00
Pb   -2.9773489040912207E+00    3.1425801880615607E+00    2.9861941774775280E+00
Pb    3.1847560773023691E+00    9.2306285550446745E+00    9.1465064464127757E+00
Pb    3.2624501800914265E+00    3.2767513812340265E+00    9.2222979561052618E+00
Pb   -2.6162707225339621E+00   -2.9413880320046237E+00    8.9860652061618556E+00
Pb   -8.5594401391660870E+00   -9.0677773353206579E+00    2.9056064036670146E+00
Pb   -8.8323827991980881E+00    2.9092748452979040E+00   -3.3639484338647834E+00
Pb   -3.0461734243406533E+00   -3.0606261023593069E+00   -9.0199244033205037E+00
Pb   -2.7225007971616506E+00   -8.8989645534725632E+00    2.8528476507896894E+00
Pb   -3.0121755700984001E+00    9.2162268073146887E+00   -2.8843257660894608E+00
Pb   -2.8147115862820993E+00   -8.8292882518095794E+00    8.8251035282969621E+00
Pb   -8.9306568170811591E+00   -3.2675884785034475E+00   -2.8902294209335460E+00
Pb   -9.3817611217821817E+00   -9.4024826734987563E+00   -3.3308101810137014E+00
Pb   -2.7475106674563419E+00    3.0380663895030939E+00   -2.8593087176994643E+00
Pb   -8.8473561514115922E+00   -8.5660916323075931E+00    8.8767332398989183E+00
Pb   -8.6650750892968720E+00   -3.5104386736157025E+00   -8.5066638887999151E+00
Pb    8.8366421615263100E+00   -3.0331955069988390E+00   -8.7757786559715285E+00
Pb    9.3148662554878747E+00   -8.9447957133816747E+00   -8.8655324334285677E+00
Pb   -3.0777158126238193E+00   -9.2831250763806565E+00   -9.4700227681118534E+00
Pb   -9.2569941619803995E+00    8.2028463281799038E+00   -9.3105522194613872E+00
Pb    2.8794587472297306E+00   -3.2213300275538557E+00   -8.9206058948185110E+00
Pb    3.1785613685184138E+00   -9.3528771322826803E+00   -9.4451257110148479E+00
Pb   -2.7695316386464639E+00    2.7258605265867462E+00   -8.6502259448192582E+00
Pb    2.7754212328321164E+00    8.6509663952309737E+00   -8.7201233310019877E+00
Pb    3.3158224463373109E+00    2.7487613703526379E+00   -8.7591700783811337E+00
Pb    8.8552119795286917E+00   -2.9614595202491731E+00   -2.8185796806493246E+00
Pb    8.8966676760784758E+00   -8.8050478459639070E+00   -3.0960944764282674E+00
Pb   -8.4880129782287863E+00   -2.7343955885714242E+00    9.2676227097123682E+00
Pb    8.8546773384947741E+00    9.2811781412644443E+00   -9.3174410607475018E+00
Pb   -8.6246507120666358E+00    2.2484056945541884E+00   -8.9929880752051048E+00
Pb   -2.9783407021041608E+00    9.1089078110272492E+00    8.8986611174860428E+00
Pb    8.7219730323167930E+00    8.7465257266460839E+00   -3.2691460706085205E+00
Pb    9.1177344628392962E+00    3.0278161510623476E+00   -2.7295502443136010E+00
Pb    9.3182497431088915E+00   -2.7543173040705216E+00    3.0434132209505234E+00
Pb    9.2099431051165617E+00   -8.7929315734367037E+00    2.8304323101224145E+00
Pb    9.0071065396451981E+00    3.0564148698759097E+00   -8.9755290522570466E+00
Pb   -2.7359683592845525E+00    3.3051983775134399E+00    8.6913437758665175E+00
Pb    9.2061310563820982E+00    9.1301922094380412E+00    2.6758827999237060E+00
Pb    9.2934702055816913E+00    3.0998903668714552E+00    3.0200007498122043E+00
Pb    9.0978685481306805E+00   -2.6844053025338468E+00    8.9611712752413037E+00
Pb    9.1582598058054909E+00   -8.6595894010287626E+00    8.6060734369393970E+00
Pb    9.4876368931704427E+00    9.1773083051134439E+00    8.7609756609334344E+00
Pb    9.4235171460629878E+00    3.3139519400796447E+00    8.7634525456090966E+00
Pb   -8.4391906301320336E+00    3.1036268661724185E+00    8.7118879282964894E+00
Pb   -2.8826177972532743E+00   -2.7151153773374292E+00    3.1481336004928289E+00
Pb   -8.6595000740686707E+00    8.7828049318385411E+00    2.7847723043084405E+00
Pb   -8.8713600942804742E+00    9.0027386863432035E+00   -3.2511199332341265E+00
Pb   -9.1632058905605778E+00   -9.6692818177645030E+00   -9.4102891290908453E+00
Pb   -3.0342238434504112E+00    8.6756782497013063E+00   -8.7966565173804216E+00
Pb   -8.8978515785262271E+00    2.9774961621847935E+00    2.7812233406121751E+00
Pb   -9.0340447296124982E+00    8.8943278563481751E+00    8.6613884922314863E+00
Pb   -3.1116051419950996E+00   -3.2898280514127878E+00   -2.9144427003024869E+00
Br   -2.2524640882903837E-01   -3.3162053824716673E+00   -2.3252096462600793E+00
Br    2.6450928251357642E+00   -3.6305422907054576E+00   -5.8714539672681898E+00
Br    2.4956443019922254E+00   -1.2099291258181352E-01   -3.2847192609268880E+00
Br   -9.9210482374507220E-02   -9.3926160845554936E+00   -3.4248911828306126E+00
Br    3.1777288551243061E+00   -9.3740101341484312E+00   -6.4009319356433050E+00
Br    2.5359582685530939E+00   -5.9624029136869225E+00   -2.6941550478077021E+00
Br   -2.8597128926817215E+00   -3.6175380657926000E+00   -5.9087436786533853E+00
Br   -8.1094223345418666E+00   -2.9830297238482721E+00    6.1998705675937424E+00
Br   -2.7337493235356463E+00   -3.0081256344418456E-01   -3.1885310257479444E+00
Br    2.8680554704644550E+00   -1.2310339966656150E+01   -2.9955484075163898E+00
Br    1.2303102885248101E+01   -2.6136853731695902E+00    2.8406471481462514E+00
Br   -6.1104734822937408E+00   -9.1870433534793463E+00   -3.8348640431812036E+00
Br   -1.1945918194324854E+01   -3.7540930773546877E+00    3.2547862451628364E+00
Br   -8.4492343060831185E+00   -2.6341354364362277E+00    1.6243342082579079E-01
Br    1.2025056474325734E+01   -9.0190826308167935E+00    2.7828391484103516E+00
Br    2.1631900011520176E-02    9.0134495959950360E+00   -3.0041486274517690E+00
Br    2.7222946613825050E+00    8.5151129543640014E+00   -5.8167067502478815E+00
Br    2.7477530611328405E+00    1.1808462658509841E+01   -3.0030535626886801E+00
Br    6.0098056709138120E-02    2.8341445779658794E+00   -2.6288307137583375E+00
Br    2.9791834962297377E+00    3.4683276464775536E+00   -5.9506453544875528E+00
Br    3.3907406484916112E+00    5.8398258898058986E+00   -2.7466225442547185E+00
Br    1.7796561539076952E-01   -2.5660006487661109E+00    3.6329573649320208E+00
Br    2.8344558171394696E+00   -2.3749273180118640E+00    4.7063657875752057E-01
Br    3.3238181147584269E+00    1.6375597231178515E-01    3.8300210087228845E+00
Br    1.5317205194595052E-01   -8.4089450463549991E+00    2.4838838545225581E+00
Br    2.9564923243792420E+00   -9.4460615491466022E+00    1.7467578926403517E-02
Br    3.5946918251850475E+00   -5.7130974401311185E+00    2.2935134336007437E+00
Br   -6.3025915687277854E+00    8.7298317073333855E+00   -8.6781345052927250E+00
Br   -2.8110149912503766E+00    8.0799826929101819E+00   -1.1572539882332572E+01
Br    2.8731035910474065E+00   -1.1289911909550925E+01    3.1107057454665319E+00
Br   -3.4746187312720953E+00    1.1356685288458223E+01   -9.5374103970073865E+00
Br   -2.9820185846447993E+00    5.6975261500416527E+00   -8.4036413217458854E+00
Br   -9.2640285273403418E+00   -2.3392613033331619E-01    3.0422925983966844E+00
Br   -3.2990755559541731E+00   -8.5933891292322642E+00   -6.4590426750499805E+00
Br   -5.9417397456754637E+00    9.2973368518252606E+00    2.5313735774552586E+00
Br   -2.1924579428697761E+00    8.7044593824540346E+00    1.8651819644535661E-01
Br   -3.4139953605582334E+00    1.2077643340685480E+01    2.6465010083959566E+00
Br   -3.3522584458708420E-02    9.2864550725430046E+00    3.3627129145642445E+00
Br    2.6618457096959816E+00    9.5739354603978875E+00    2.6403940021028266E-01
Br    3.0372212948454442E+00    1.2093666658922245E+01    3.7233106961644933E+00
Br    4.7678480731800327E-01    3.1218999099220457E+00    3.4836303889679936E+00
Br    3.0585578834756419E+00    2.7314424464125162E+00    4.7700651542312078E-01
Br    2.8399260913947435E+00    6.1071605060782757E+00    2.3386081423504281E+00
Br    2.3922471143815369E-01   -2.6410864568744583E+00    8.8919737405057795E+00
Br    3.0162306046122214E+00   -3.2641790052294013E+00    6.5196436102523361E+00
Br    3.8533668371379823E+00    1.3760203875700500E-01    9.0254711907143008E+00
Br    2.7934493738121052E-01   -8.4139350106418966E+00    8.8628242390719389E+00
Br    2.9163242558649038E+00   -8.0925716792179454E+00    5.6487610217399320E+00
Br    3.4472634160621061E+00   -5.6841644430417686E+00    9.2634067091729211E+00
Br   -1.1796906357071355E+01    3.7603792685526436E+00    2.5565202128430906E+00
Br   -8.8078234069693941E+00    2.5732979291298070E+00   -2.8445079389408479E-01
Br    2.7794757339700529E+00   -1.1336231893281221E+01    8.2905658121907475E+00
Br   -8.0975228465338667E+00    5.7073790383748744E+00    3.0130974318993169E+00
Br   -8.3188534763832074E+00    1.2888775216308437E-01    8.8409997900437620E+00
Br   -3.4453710444541294E+00   -6.3405051336228411E+00   -2.7884704751063349E+00
Br   -6.1178369832277060E+00    2.3975932620441780E+00    2.4783313438238475E+00
Br   -2.8219915745297617E+00    3.6005729464744065E+00    2.3503944549378603E-01
Br   -3.1940666694297573E+00    6.1828985072996092E+00    3.0674698675574090E+00
Br   -1.8614836509379681E-01    8.5763630019906554E+00    8.4911665952008128E+00
Br    3.0027444468257762E+00    9.2348515942384424E+00    6.2361251896854633E+00
Br    1.9486691576564670E+00    1.1804266633997637E+01    9.1806935434771777E+00
Br    3.7364904959106837E-01    3.5153702197365519E+00    8.8390249111439161E+00
Br    3.1528770862920368E+00    3.0847840216119180E+00    6.1010967605249284E+00
Br    3.0433891626129133E+00    6.2804388947067764E+00    8.6663032461664180E+00
Br   -5.5884820031911673E+00   -2.7684477571587305E+00    9.5713864840834582E+00
Br    3.6548367202879430E+00   -2.4064549458000326E+00    1.2368954065000267E+01
Br   -2.9917838472196596E+00   -3.1375061071146795E+00    5.9442500164979268E+00
Br   -2.6221413970922960E+00    2.0734745276428324E-01    8.7591882472616298E+00
Br   -2.9957521991973088E+00   -1.1992940274772485E+01   -3.2056184170842177E+00
Br    3.3012042126134959E+00   -8.6989315302807189E+00    1.1699055374662306E+01
Br   -1.1738179020161603E+01    2.4552536868866830E+00   -3.5393107680452451E+00
Br   -2.6017076390474285E+00   -1.1815793143741477E+01    2.6781401870238302E+00
Br   -1.1624290299881180E+01   -2.8138443395276114E+00   -2.4418813061418687E+00
Br    2.8109122404410156E+00    8.7371154626945735E+00    1.2010357901559731E+01
Br   -9.0310559891713122E+00   -3.1038550950736616E+00   -5.7258182378539280E+00
Br   -8.7361844242805766E+00   -3.0476975824155844E-01   -3.3377603167638710E+00
Br    2.5688702247986694E+00    2.7292700281718543E+00    1.2029618235779205E+01
Br   -5.9850724609787598E+00    8.9308122708979614E+00   -3.4178359365445070E+00
Br   -2.8982816824361977E+00    9.2137697290435270E+00   -5.8794235668132018E+00
Br   -2.9591330670357721E+00    1.1921491404367799E+01   -2.0100181644547126E+00
Br   -5.7183108267002689E+00    3.4718067591835307E+00   -2.5809862756218585E+00
Br   -1.2309452134683559E+01   -8.7900391856107856E+00    2.2751638470395128E+00
Br   -2.6404389066327218E+00    2.7665288323484747E+00   -5.7160795487516181E+00
Br   -5.8402395353507295E+00   -3.3598567005230753E+00   -8.7977708837139712E+00
Br   -3.5722948971569961E+00   -2.7201668209031107E+00   -1.1984449740533277E+01
Br   -2.7973864586335817E+00   -1.2281293133030874E-01   -9.0491058824075434E+00
Br   -2.6936357110606961E+00    2.9887103288124512E+00    1.1878750814872570E+01
Br   -5.8799549620880338E+00   -9.1821738274728961E+00    8.1913975355301147E+00
Br   -2.3645739959467558E+00   -8.5839523655945147E+00    5.6271848097363302E+00
Br   -2.9926493909980643E+00   -5.7394849445825988E+00    8.2665085802946461E+00
Br   -8.8287599716968543E+00   -9.2956765263936116E+00    1.7307099608018739E-01
Br   -8.9299133435152349E+00   -5.9764421669046186E+00    2.3331068038878526E+00
Br   -9.2553176444180973E+00    9.1817796022762685E+00    1.1453137129667079E+01
Br    1.2208187801201985E+01    8.7778954406048015E+00    2.2111233787186770E+00
Br   -8.0617286385763052E+00   -9.0198600976676939E+00    1.1750006106795356E+01
Br    1.1494832044322729E+01    8.7780602094350559E+00   -2.3954105602318929E+00
Br    1.2225038155589422E+01    3.1189741615618449E+00    2.4569551404297325E+00
Br   -8.2967588535755308E+00    2.7585713073716582E+00    1.1792299637267561E+01
Br   -1.1637542062250651E+01   -3.1694077338142357E+00   -8.8499130840260811E+00
Br    1.1837702258466939E+01   -2.3612813824799188E+00    8.0249792801720279E+00
Br   -5.8332163665114125E+00   -8.9568769227936560E+00    3.2708041596349431E+00
Br    6.0729659014758033E+00   -3.0925996758816967E+00   -9.2327902377650819E+00
Br    8.1989721418203523E+00   -2.8583962862188796E+00   -1.2018231032325112E+01
Br    1.2416939978344598E+01   -7.6921843831814316E+00    9.2350101863581262E+00
Br    8.3806304220665133E+00    1.8843689217654597E-01   -8.8933607295761359E+00
Br   -9.7272457967791883E+00   -1.1652946872064836E+01    8.6730720120618514E+00
Br   -3.1204281892681625E+00   -9.2265456961574550E+00   -3.2554492391558071E-01
Br   -2.3475147459787897E+00   -5.8803835717925610E+00    2.5813310672377598E+00
Br    6.0916926683133958E+00   -9.3244770403358874E+00   -9.2005771255193274E+00
Br   -6.0195226532710295E+00   -9.5433205395012184E+00   -9.6717830344496836E+00
Br    9.8285693925513939E+00   -9.4444122641347388E+00   -1.1670568261765659E+01
Br    8.6119170212733920E+00   -5.9682305881864863E+00   -9.0442183774466365E+00
Br   -2.8458868701608178E+00   -1.1628252169385487E+01    8.3222423453648950E+00