 # Version information for this restart file 
 # current date 2021-06-17 12:48:05.719
 # current working dir /user/ub2042/exercises/2_fitting/MM_MD_workdir/md_settings.006
 # Program compiled at                              Thu Apr 22 21:44:59 EDT 2021
 # Program compiled on                cpn-k07-07-02.compute.cbls.ccr.buffalo.edu
 # Program compiled for                                                    local
 # Source code revision number                                       git:36754bb
 &GLOBAL
   PRINT_LEVEL  LOW
   PROJECT_NAME cp2k
   RUN_TYPE  MD
 &END GLOBAL
 &MOTION
   &MD
     ENSEMBLE  NVT
     STEPS  10000
     TIMESTEP     2.4999999999999996E+00
     STEP_START_VAL  2500
     TIME_START_VAL     6.2499999999996226E+03
     ECONS_START_VAL    -1.3043899953808431E+01
     TEMPERATURE     3.0000000000000000E+02
     &BAROSTAT
       PRESSURE     1.0100000000000000E+00
       TIMECON     9.9999999999999982E+03
     &END BAROSTAT
     &THERMOSTAT
       TYPE  CSVR
       &CSVR
         TIMECON     9.9999999999999982E+03
         &THERMOSTAT_ENERGY
              -8.5944675092065159E-02
         &END THERMOSTAT_ENERGY
         &RNG_INIT
Wiener process for Thermostat # 1        1 F T F   4.5885045939525038E-01        3336078289.0         441660928.0        2931313935.0        1048540172.0        1557258966.0        2798850846.0             12345.0             12345.0             12345.0             12345.0             12345.0             12345.0             12345.0             12345.0             12345.0             12345.0             12345.0             12345.0
         &END RNG_INIT
       &END CSVR
     &END THERMOSTAT
     &AVERAGES  T
       &RESTART_AVERAGES
         ITIMES_START  1
         AVECPU     1.7464391272049368E-02
         AVEHUGONIOT     0.0000000000000000E+00
         AVETEMP_BARO     0.0000000000000000E+00
         AVEPOT    -1.3431116281782478E+01
         AVEKIN     4.2982114216854800E-01
         AVETEMP     2.1803473064982231E+02
         AVEKIN_QM     0.0000000000000000E+00
         AVETEMP_QM     0.0000000000000000E+00
         AVEVOL     6.7483345830898639E+06
         AVECELL_A     1.8897261328855873E+02
         AVECELL_B     1.8897261328855873E+02
         AVECELL_C     1.8897261328855873E+02
         AVEALPHA     9.0000000000000000E+01
         AVEBETA     9.0000000000000000E+01
         AVEGAMMA     9.0000000000000000E+01
         AVE_ECONS    -2.9926750033219478E+00
         AVE_PRESS     0.0000000000000000E+00
         AVE_PXX     0.0000000000000000E+00
       &END RESTART_AVERAGES
     &END AVERAGES
     &PRINT
       &ENERGY  SILENT
         &EACH
           MD  10
         &END EACH
       &END ENERGY
     &END PRINT
   &END MD
   &PRINT
     &TRAJECTORY  SILENT
       &EACH
         MD  10
       &END EACH
     &END TRAJECTORY
     &CELL  SILENT
       &EACH
         MD  10
       &END EACH
     &END CELL
     &VELOCITIES  SILENT
       &EACH
         MD  10
       &END EACH
     &END VELOCITIES
     &FORCES  SILENT
       &EACH
         MD  10
       &END EACH
     &END FORCES
     &RESTART  SILENT
       &EACH
         MD  10
       &END EACH
     &END RESTART
   &END PRINT
 &END MOTION
 &FORCE_EVAL
   METHOD  FIST
   &MM
     &FORCEFIELD
       VDW_SCALE14     1.0000000000000000E+00
       EI_SCALE14     1.0000000000000000E+00
       SHIFT_CUTOFF  T
       DO_NONBONDED  T
       IGNORE_MISSING_CRITICAL_PARAMS  T
       &SPLINE
         R0_NB     2.5000000000000000E-01
       &END SPLINE
       &NONBONDED
         &LENNARD-JONES
           ATOMS Br Br
           EPSILON     1.2630795322675199E+02
           SIGMA     3.6900000000000004E+00
         &END LENNARD-JONES
         &LENNARD-JONES
           ATOMS Cs Pb
           EPSILON     8.6920055954630968E+01
           SIGMA     3.6699999999999999E+00
         &END LENNARD-JONES
         &LENNARD-JONES
           ATOMS Cs Cs
           EPSILON     2.2644852172126850E+01
           SIGMA     4.3300000000000001E+00
         &END LENNARD-JONES
         &LENNARD-JONES
           ATOMS Pb Pb
           EPSILON     3.3363415533600227E+02
           SIGMA     5.9000000000000004E+00
         &END LENNARD-JONES
         &LENNARD-JONES
           ATOMS Br Cs
           EPSILON     5.3481070753900497E+01
           SIGMA     3.6300000000000003E+00
         &END LENNARD-JONES
         &LENNARD-JONES
           ATOMS Br Pb
           EPSILON     2.0528187276773045E+02
           SIGMA     2.9800000000000000E+00
         &END LENNARD-JONES
       &END NONBONDED
       &CHARGE
         ATOM Cs
         CHARGE     4.0230055499999995E-01
       &END CHARGE
       &CHARGE
         ATOM Pb
         CHARGE     8.0460110999999990E-01
       &END CHARGE
       &CHARGE
         ATOM Br
         CHARGE    -4.0230055499999995E-01
       &END CHARGE
     &END FORCEFIELD
     &POISSON
       PERIODIC  XYZ
       &EWALD
         EWALD_TYPE  SPME
         GMAX  62 62 62
         O_SPLINE  4
       &END EWALD
     &END POISSON
     &PRINT
       &FF_INFO  LOW
         SPLINE_INFO  F
         SPLINE_DATA  F
       &END FF_INFO
     &END PRINT
   &END MM
   &SUBSYS
     &CELL
       A     1.0000000000000001E+02    0.0000000000000000E+00    0.0000000000000000E+00
       B     0.0000000000000000E+00    1.0000000000000001E+02    0.0000000000000000E+00
       C     0.0000000000000000E+00    0.0000000000000000E+00    1.0000000000000001E+02
       PERIODIC  XYZ
       MULTIPLE_UNIT_CELL  1 1 1
     &END CELL
     &COORD
Cs    3.1875419380661302E-01   -5.7855311269873033E-01   -6.1987201634642553E+00
Cs    9.0026777631698585E-01   -5.9609689242018558E+00   -6.4942094932302439E+00
Cs    9.6793971430371728E-01   -1.1234202674905939E+01   -4.2759073693744405E+00
Cs   -5.0360645838870770E+00   -6.4363796593999103E+00   -5.5964241844091420E+00
Br   -8.0115155411698460E+00   -1.2626087021865528E+01   -7.6726594075672860E+00
Br    1.1606527768345448E+01   -2.1593545799577973E+00   -9.7699190414476327E+00
Br   -3.4266421953184438E+00    2.0521156497332971E+00   -1.1812206157765587E+01
Cs   -8.2318504597243691E-01    6.0836131176816535E+00   -5.9665939622773507E+00
Cs    1.5058739046136835E-01   -4.5299911874810167E-01   -6.2910406647400996E-01
Cs    5.7202839270542272E-01   -5.7096897740414594E+00    8.9416011956925077E-03
Br   -6.0202469692812333E+00   -3.6604290457744733E+00    3.2076211711343254E+00
Cs   -1.0435293489143692E+01   -5.2634606340638976E+00    1.2759333584538068E+01
Cs    1.3074728263411680E+01   -1.0495284259903430E+01   -4.4538074783623560E-01
Cs   -6.1808176496900424E+00    5.2814351175442358E+00    2.5918015284371659E-01
Cs   -1.4329095361295450E+00    1.2105588979105594E+01   -4.9454060106327702E-01
Cs   -5.5250387852797189E-01    5.5483694165020214E+00    1.9543896945938408E-01
Cs    5.4677834817500888E-02    3.6416107044836532E-01    6.5396413862146225E+00
Cs    2.2970632703757909E-01   -5.7683666236214455E+00    6.0822282983344405E+00
Cs    5.4154119110043686E-01   -1.1129837784654443E+01    6.6074905271400075E+00
Cs   -6.1264942961918623E+00    5.8124108370094287E+00    1.2146834770848505E+01
Cs   -6.0956797674900889E+00   -1.8200473759102517E-01   -1.1617364641646693E+01
Cs   -5.3386496782583288E+00   -1.2098575102802991E+01   -5.2821262685654222E+00
Cs   -6.2637190847574562E+00    1.5628982949403666E-01    5.9756804472934553E+00
Br   -2.2983146237894894E+00   -3.0889068660748777E+00    6.9333024790152009E-01
Cs   -5.2073036169050357E-01    5.4998496747426442E+00    5.2986538840084778E+00
Br    1.2008742551319159E+01   -8.5433103705811515E+00   -8.6379480628318799E+00
Cs    1.2507998371888338E+00   -6.1694894230902504E+00    1.2349904480410512E+01
Br   -3.4198589952956584E+00   -1.4101019888827393E-01    3.5840087943236552E+00
Br   -8.5877294432202600E+00   -1.9342111475039199E+00    1.2435125093294932E+01
Cs    1.1579871733821648E+01    1.0542309165796970E+01   -7.4747051528713806E+00
Cs   -1.0983709504601595E+01   -5.4279959077158031E+00    6.3560273433113537E+00
Cs   -5.7037078019681662E+00   -5.9343852135716828E+00    5.4227679375992173E+00
Cs   -6.1996386854558043E+00    1.0381550013902084E+01   -6.0643908840442577E+00
Br   -1.1858520796873075E+01   -8.6451097481909915E+00    9.6774745457626388E+00
Br   -8.5735543956408939E+00   -8.8875134343276407E+00    6.4150051596289126E+00
Cs   -1.0925928880145813E+01   -7.2800035679064621E+00   -5.3294556544855052E+00
Cs   -5.7003893366240623E+00    6.1408163022196245E+00   -6.1748611237703690E+00
Br   -9.3322359536876824E+00   -5.7809026038708708E+00    9.4514760796824842E+00
Cs    1.2279042891901611E+01    6.7824286443763055E+00    1.0500927864671320E+01
Br   -1.1872103003655331E+01    8.3882187821954002E+00    8.3951030921984309E+00
Br   -5.8869402495081564E+00   -3.7253166728145901E+00   -1.9764934867737971E+00
Cs    6.9914035405028763E-01   -1.9999161202130487E-03    1.2002479004574504E+01
Cs    1.1356195284577263E+01    5.7303494766786063E+00   -4.7892250704699835E-01
Cs   -1.1244658083980438E+01   -5.9360255694193347E+00   -1.1496311629103158E+01
Cs    1.1805780776624411E+01    1.4505803095857048E-01    6.9204186291880427E+00
Cs   -1.1941588167554009E+01    9.9221301205450025E+00   -6.2760780424325633E+00
Cs    1.1480456425209567E+01   -1.1092325745652580E+01    5.7874423776498753E+00
Cs    5.8946721501964774E+00   -4.9657379838284541E+00   -1.1576925210830074E+01
Cs    6.4073547445746080E+00   -1.1712301313590054E+01    6.6619805798212059E+00
Cs   -4.8108353444207479E+00   -1.2049627066563255E+01    1.9471548222968896E-01
Cs    6.5129282495923126E+00   -1.1861499612815191E+01   -1.0788071639768431E+01
Cs    1.2336705036165002E+01    5.1062637718031372E+00   -5.9590780597775339E+00
Cs    1.1103413873994681E+01    1.2757672826173557E+01    5.8921487770484271E+00
Cs    1.0358879954929552E+01    5.9348453155141456E+00   -1.2543114092034118E+01
Cs   -7.5280722834693514E-01   -5.9704573382995685E+00   -1.1176997083231425E+01
Cs   -1.1792139428552145E+01   -1.3696073748486830E+00   -5.8628429782047311E+00
Cs    6.2453605811377306E+00   -5.9154286559117093E+00    1.1613400423015396E+01
Cs    1.1880860661665022E+01   -5.3008447439815134E+00    6.1831929007770334E+00
Cs   -1.1945088078657932E+01   -1.0859389973272890E+01    1.2415226359202945E+01
Cs   -1.0169494292299650E+00   -5.6038735393664774E-01   -1.2230033219552945E+01
Cs    2.6310800543226259E-01    1.1429965791808643E+01    5.5093068278767516E+00
Cs    1.8390289037687205E-01    5.1024183491329378E+00   -1.1860400392625543E+01
Cs    5.7000555381185647E+00   -2.2423709847865803E-01   -6.3397509219416648E+00
Cs    5.9650979672905002E+00   -6.4826423388237968E+00   -5.7321328784182350E+00
Cs   -5.4160383207813654E+00   -1.0914848261474507E+01    6.3500258947782262E+00
Cs   -1.1359015755893232E+01    3.9346733920030413E-01    5.7663907977930169E+00
Cs    5.1743823600786998E+00   -3.2627837769770421E-02   -1.1369401223727483E+01
Cs    5.8058976825175295E+00    1.1093682413102236E+01   -1.2354099447157282E+01
Cs    2.6083792560572827E-01    6.3954495231309076E+00    1.1333195472154088E+01
Cs   -6.0544026543973377E+00    1.1061416493943502E+01    5.1703556485569049E+00
Cs    5.6461063190098670E+00    1.1910465817916123E+01   -7.1064181511897404E+00
Cs    4.9617437480356124E+00    5.7940286337118847E+00   -5.6925713373996727E+00
Cs    6.1548207751781403E+00   -3.2568071752159866E-01    1.7967868142810986E-01
Cs    6.4243235915869885E+00   -5.5531960317685538E+00    1.0271872711698014E-01
Cs    6.6921774139739254E+00   -1.0865695727460718E+01    5.7734102226496775E-02
Cs    5.6739796749820561E+00    5.3948476507676277E+00   -1.1372566887983668E+01
Cs   -5.4267383705385352E+00    5.6269178981759014E+00    6.3041114076461762E+00
Cs   -5.6785324725434663E+00   -5.8541149612570127E+00   -1.0557436387796702E+01
Cs    5.6466265783930050E+00    6.4282480123094139E+00   -6.1331041190318236E-01
Cs    5.8088527316463265E+00    1.5835844030558758E-04    6.3148637430431798E+00
Cs    6.1244054781076116E+00   -5.4412522405619281E+00    5.9015543274813815E+00
Cs   -6.7660492912887831E+00    1.1876505190790841E+01   -1.2628325269799165E-02
Cs    1.1174274480377402E+01    6.7947455233871901E-01   -7.2097661200646879E-01
Cs   -6.5478870787422947E+00   -8.7753048965473723E-01   -1.3092366098835333E-02
Cs   -1.1358938750668534E+01    5.7386555055329422E+00    6.1880295859243102E+00
Cs   -5.5628042733931142E+00    8.5296912179699891E-01    1.2990739680640907E+01
Cs    5.3703886706827308E+00    1.1743682002442755E+01    5.2455148501128619E+00
Cs    5.2636187605500879E+00    6.2253479815375430E+00    5.9210797067007048E+00
Cs    5.8411092895415173E+00    5.1478037291251788E-01    1.1107624506777391E+01
Cs    5.4926385199950332E+00    1.1330764610018608E+01   -1.0337645100883592E+00
Cs    1.2373869988585820E+01   -1.0200902949541086E+00   -6.5394732618527636E+00
Cs    1.1446246266996793E+01   -4.9954308999958084E+00   -5.7539103770194480E+00
Cs    7.2670407462352529E+00   -1.1050942309007304E+01    1.2251138129437972E+01
Cs    1.0722978995885192E+01    1.3191968435839900E+01   -3.8525983567887934E-01
Cs   -1.1136811687737360E+01    3.0393667912618305E-01    1.1580251934243369E+01
Cs   -6.0227761828954325E+00    5.4443703650524773E+00   -1.1945126693782029E+01
Cs   -1.2183391938511543E+01    1.0201030653885722E+01   -1.1686549760968754E+00
Cs   -4.9670019956504721E+00   -5.6284684315070246E+00    1.1807837742993193E+01
Cs   -6.0013972863316871E+00   -1.0699161847440619E+01    1.2065327219860325E+01
Cs    6.1943276141351422E+00    6.8117059417017192E+00    1.0727084269926506E+01
Cs    1.1886321261278438E+01   -4.4030658517784431E+00   -5.0630231889964927E-01
Cs   -1.1575543617831398E+01   -4.1069886859692617E-01    9.0943127657784106E-01
Cs   -7.0422966728636540E+00    1.0878097221214645E+01   -1.2120828475869907E+01
Cs   -1.1747763353918504E+01    5.1808851409253176E+00   -7.2172627226080577E-01
Cs   -1.0824281217346648E+01   -1.2386528434328646E+01   -4.9214784839630692E+00
Cs   -1.1663119585979127E+01   -5.8319640087242943E+00    1.5063089568420731E+00
Cs   -5.5119638141691851E+00   -6.7508931367284513E+00    7.7759765887694565E-01
Cs   -1.1554501888345774E+01   -1.0944291578724867E+01    6.4779503343289386E+00
Cs    1.1030161330883990E+01   -4.8331379389441462E+00    1.2245195139849621E+01
Cs    1.0921884597147049E+01    6.5622494098264585E+00    5.1348703252603576E+00
Cs   -1.1514041547087205E+01    5.0730791338441046E+00   -6.9033315266360731E+00
Cs   -5.9825217468240384E+00   -5.7833404344633750E-02   -5.7810687529885598E+00
Cs   -1.1230385096271556E+01   -1.1874504346202174E+01    8.6070590100963318E-01
Cs    1.1635384707476042E+01   -1.1712751366772521E+01   -1.0083869225672883E+01
Cs   -6.5623278977006310E+00   -1.2003406514135888E+01   -1.0431735141323189E+01
Cs   -9.8222643399349691E-02    1.1824599115801512E+01   -1.2287997389015761E+01
Cs   -1.2598661721766211E-01   -1.1590376081780201E+01   -1.1392920489854406E+01
Cs    3.1229722092756029E-01    1.1639300767721981E+01   -6.6018979400555020E+00
Cs   -6.3472576363085524E+00    1.1298816853435065E+01    1.1557257659273688E+01
Cs    1.1116525779136506E+00   -1.0834985433713776E+01    5.3969501726423919E-01
Cs   -1.2236165666027867E+01   -3.4867779658658787E-01   -1.1224123185707240E+01
Cs   -1.1491392847385207E+01    1.2706691559868423E+01    6.5555293310097191E+00
Cs    6.4925306458994152E+00   -1.1046403853038994E+01   -4.8476094035973158E+00
Cs    1.1389566952615288E+01    6.4364366281266061E-01   -1.1395568398541350E+01
Cs    1.3861022219933183E+00    1.2349432375796525E+01    1.1200234239375911E+01
Pb    2.9519572024184177E+00   -2.8924772485951729E+00   -3.2941013393216769E+00
Pb    3.7458062047422804E+00   -8.6287441825558169E+00   -2.7993519802235078E+00
Pb   -9.1064637038106078E+00   -3.2435835790025473E+00    3.4461245751209191E+00
Pb   -2.1997092913171090E+00   -9.0547709931319034E+00   -2.6201852235555494E+00
Pb    2.5739919326226586E+00    8.6916984752644737E+00   -3.4938894517906105E+00
Pb    2.6600784861490578E+00    3.0714196273381975E+00   -3.0414402515045258E+00
Pb    2.8978698325598442E+00   -2.6548224928756601E+00    2.7600718512730396E+00
Pb    3.6272914158396481E+00   -8.3725068034987959E+00    3.2269793073634521E+00
Pb   -3.3179417190142169E+00    8.5363861663856220E+00    2.4337924564464966E+00
Pb    2.8252152350882525E+00    8.5479434515129284E+00    2.4908814061170435E+00
Pb    2.8569548900459325E+00    2.9360450148715165E+00    2.9695326358553196E+00
Pb    2.9084536073863960E+00   -3.1104365752586696E+00    8.7443582147265264E+00
Pb    3.6544369608119651E+00   -8.9510952049573014E+00    9.1618889482953776E+00
Pb   -3.2242185389827061E+00    2.7054092764763373E+00    3.0045977895535785E+00
Pb    3.1131856274618190E+00    9.6515622049544092E+00    8.5540133195794912E+00
Pb    3.0165555664803492E+00    3.3095440093190764E+00    9.1075195429487881E+00
Pb   -3.0088358052285153E+00   -2.5395849841186009E+00    9.3971408378157726E+00
Pb   -8.4653761071672093E+00   -9.2072865983862364E+00    3.4232552305825124E+00
Pb   -9.2050808302637339E+00    2.2534810950339126E+00   -3.0253748020322013E+00
Pb   -2.9391022460537370E+00   -3.1109670300910204E+00   -8.1870422758243890E+00
Pb   -2.3073342076686121E+00   -9.0640036496182415E+00    3.5533939682249764E+00
Pb   -3.2220153721750466E+00    8.8574700603263725E+00   -3.3156478612558233E+00
Pb   -2.5557634882343465E+00   -8.7330060167224506E+00    9.5422954528024739E+00
Pb   -8.7729294814152770E+00   -3.6280781043729942E+00   -2.6175284029514185E+00
Pb   -8.0763402561572626E+00   -9.5285635071255275E+00   -2.3077245853818082E+00
Pb   -3.0752691109005084E+00    2.6634908903604111E+00   -3.0440366796734080E+00
Pb   -9.0889475933732253E+00   -8.7108144548228914E+00    9.4983249347109346E+00
Pb   -8.8899441029785127E+00   -3.5916852065293470E+00   -8.5029485634757371E+00
Pb    8.7713122536833730E+00   -2.4204628720428603E+00   -9.5811178092996325E+00
Pb    8.9814393710781157E+00   -8.7800639775257903E+00   -8.8632585494566687E+00
Pb   -2.5098538528810734E+00   -9.1419182350714205E+00   -8.5916555619618933E+00
Pb   -8.9860819699288630E+00    8.0287073811742786E+00   -9.4356884200071338E+00
Pb    2.9440680385292053E+00   -3.1240577878296434E+00   -9.4665892227441670E+00
Pb    3.1502178088973301E+00   -9.5025650317508763E+00   -9.1926866352861083E+00
Pb   -2.8992669781542255E+00    2.5666655716773104E+00   -8.8679872314734745E+00
Pb    2.4677036519633182E+00    8.7165992514077182E+00   -9.6543858118906556E+00
Pb    2.8548558926014591E+00    2.7986589362122545E+00   -9.1852490894365104E+00
Pb    8.7563794855243202E+00   -2.6408329368598129E+00   -3.2979376229586368E+00
Pb    9.6557935007393176E+00   -8.2142854839524908E+00   -2.7507274767826453E+00
Pb   -8.7626976909108176E+00   -2.7750311670990322E+00    9.6328565566494930E+00
Pb    8.3176350423007008E+00    8.9575696600488026E+00   -9.8803637812003799E+00
Pb   -9.0556629468163994E+00    2.2543085042236788E+00   -9.0713452841987134E+00
Pb   -2.8563538836229134E+00    9.0340873929264696E+00    8.4361766412774166E+00
Pb    8.6922025622368455E+00    9.4176003113871847E+00   -3.7853839287277009E+00
Pb    8.5239691414368703E+00    3.0896118187690882E+00   -3.3966270855070264E+00
Pb    9.2163862771863627E+00   -2.5028974710847800E+00    2.8735511101511104E+00
Pb    9.3115760281676945E+00   -8.5512559648594841E+00    2.9296509108894861E+00
Pb    8.5777190707432300E+00    3.1843532215341739E+00   -9.3912563120178429E+00
Pb   -2.9738828065095824E+00    3.0514396470572560E+00    9.0954361919344198E+00
Pb    8.6360073544035210E+00    9.8373167191976290E+00    2.0856666676893814E+00
Pb    9.1983811794263239E+00    3.7086518793790573E+00    2.6348304526735178E+00
Pb    9.0449834848041224E+00   -2.6186830221159729E+00    8.9181944030491227E+00
Pb    9.8167459388354512E+00   -8.5011966841612754E+00    9.0494263361469844E+00
Pb    8.8736264849420845E+00    9.4879006222371061E+00    8.0032725149310089E+00
Pb    8.7326978914066427E+00    3.4127129774554468E+00    8.8682474245498799E+00
Pb   -8.8768269509795417E+00    3.1101103460980757E+00    8.8319397624231186E+00
Pb   -2.8169643568120488E+00   -3.0372409112770082E+00    3.7012177967097402E+00
Pb   -9.5531540077646167E+00    8.6802348996317900E+00    2.5689206738660224E+00
Pb   -9.0552684194501580E+00    8.2077554255778864E+00   -3.6503731064708669E+00
Pb   -8.3812675271383110E+00   -9.5536225253122282E+00   -8.1620623428779897E+00
Pb   -3.2826967854185969E+00    8.8196459503683755E+00   -9.4858733743370536E+00
Pb   -8.9093952262675291E+00    2.7715923628049524E+00    2.8695632333531558E+00
Pb   -8.6930357362767605E+00    8.9913245249423230E+00    8.8574283040348920E+00
Pb   -2.8868337988442438E+00   -3.3196836856724148E+00   -2.2722018521443776E+00
Br   -3.5137595508109611E-02   -3.2882426218291072E+00   -3.1269849674469241E+00
Br    2.9184845432378168E+00   -2.7083895117783587E+00   -6.2473358282419911E+00
Br    3.1424075447674289E+00    1.1525153801624268E-02   -3.0199079255458292E+00
Br    7.5656539767054265E-01   -8.5323597804896671E+00   -2.3136445956553691E+00
Br    3.4737043524285101E+00   -8.6101501881296763E+00   -5.7969258779559141E+00
Br    3.2637551952110826E+00   -5.9423478799748422E+00   -3.4313924333075794E+00
Br   -3.2163882004717346E+00   -3.2937982569848359E+00   -5.3815966064491683E+00
Br   -8.6571558338111441E+00   -2.9705628027861950E+00    6.5524794195972680E+00
Br   -2.8097478040016068E+00   -3.8931655287311379E-01   -2.4294329883627017E+00
Br    3.8046290282633075E+00   -1.1550185297254457E+01   -2.1146355775777317E+00
Br    1.2197155500555844E+01   -2.4251744391867422E+00    2.7489470926281170E+00
Br   -5.1842375274342443E+00   -9.8202103742019418E+00   -2.7584824824206775E+00
Br   -1.1856779977641001E+01   -3.1272993117941086E+00    3.7033834610952687E+00
Br   -9.5023264089127135E+00   -3.4418376123730519E+00    5.5752614111513166E-01
Br    1.2062599383121242E+01   -9.5623105412547602E+00    3.0059806906948179E+00
Br   -4.3375132259228388E-01    8.8229425641177848E+00   -3.5234977839261892E+00
Br    2.4236072221295970E+00    8.6060823565904627E+00   -6.5774785109687004E+00
Br    2.7113208269022597E+00    1.1579310595252512E+01   -3.5313409385718111E+00
Br    5.8511605097436428E-02    2.3172339040779364E+00   -3.1392683539133275E+00
Br    3.2545056931944263E+00    2.1025370268353969E+00   -6.2585077683597410E+00
Br    1.8767295991140989E+00    5.7751513965703793E+00   -3.2751553789329653E+00
Br    9.7469637252153768E-02   -3.4817606235806546E+00    3.1873596137785238E+00
Br    2.7922672716596382E+00   -3.2892088895225093E+00   -6.2459880359920464E-02
Br    3.5727438190779250E+00    1.8136740348263886E-01    2.8647283873578906E+00
Br    3.1955811564244935E-01   -8.2175568642597021E+00    3.6008626978831804E+00
Br    3.7280596934638206E+00   -8.0829906744409108E+00    1.3864373238885497E-01
Br    3.4777087290930262E+00   -5.4912495761944982E+00    3.3979750422031785E+00
Br   -6.0516776268755752E+00    7.8309037143308151E+00   -9.4696101639921633E+00
Br   -3.8817015312842433E+00    8.8088395199150931E+00   -1.2279249093763465E+01
Br    3.7099241572174746E+00   -1.1114982176533681E+01    2.9087558343034963E+00
Br   -3.8896242374030239E+00    1.1296757009446285E+01   -8.5479980836562053E+00
Br   -2.6020250468293704E+00    5.7609828880488410E+00   -9.6156669972867164E+00
Br   -8.8393490785354007E+00   -3.0436484301356515E-01    3.2322020197272261E+00
Br   -2.0270072911379402E+00   -9.0145197626362652E+00   -5.5340283390029334E+00
Br   -6.1378798082204895E+00    8.6053660698010290E+00    2.9576855664224238E+00
Br   -3.3180993873092834E+00    9.0985394151472256E+00   -5.2032598488308623E-01
Br   -4.0112832411314496E+00    1.1354440833034026E+01    2.1446378730891298E+00
Br   -3.8765708638786267E-01    8.6722973496093960E+00    2.1848374016238266E+00
Br    2.5486131438793822E+00    8.6677255820212000E+00   -4.7978716705281665E-01
Br    2.6288412845849987E+00    1.1444901113657906E+01    3.0810961643278318E+00
Br   -1.0921203984063071E-01    2.4307794119156108E+00    2.5769624986261723E+00
Br    2.6515522075698774E+00    3.4462991689964344E+00    1.5201955390923183E-01
Br    2.6951935013074926E+00    5.7213177199537864E+00    3.2714484022635877E+00
Br    3.0575392142452673E-01   -2.0160441322897769E+00    8.6987760990024903E+00
Br    3.3647217132567486E+00   -2.6621046010975062E+00    5.5371416500831749E+00
Br    3.5122864502971392E+00    1.4943414445070302E-01    9.0556186516229253E+00
Br    2.3968067127009723E-01   -8.7427116554774091E+00    9.4161046243546043E+00
Br    3.3522863072398934E+00   -8.6200394367600666E+00    6.0164918848443749E+00
Br    3.0429537200516603E+00   -5.9705415044983008E+00    8.6015295722044041E+00
Br   -1.1806921921552011E+01    2.3553250732640887E+00    2.9984479679386351E+00
Br   -8.8682160884620469E+00    2.4351209540637337E+00   -1.1331970932817113E-01
Br    3.6196552547447687E+00   -1.1810081137767730E+01    8.4881025415070805E+00
Br   -9.0075693927488842E+00    5.6892444219048217E+00    2.7602219577317464E+00
Br   -8.7076973569256690E+00    2.5328010507634707E-01    8.5516154458870854E+00
Br   -2.5698887753145532E+00   -6.2461851885214239E+00   -2.3291425614002548E+00
Br   -6.1502030285229488E+00    2.4576339188869709E+00    2.9432085460684880E+00
Br   -2.9627124575379384E+00    2.7924788944230370E+00   -3.7843734280971521E-02
Br   -3.0613021094133934E+00    5.7021755283896463E+00    2.2772641370160209E+00
Br    1.6640815840898962E-01    9.7019326736202558E+00    8.8531979447859932E+00
Br    2.7950747278067500E+00    8.9259812243934782E+00    5.7450281838437389E+00
Br    2.6009685114353940E+00    1.2501514418554576E+01    8.1384517749051959E+00
Br    1.7955805237259823E-01    2.7957588431965394E+00    8.8503948302967981E+00
Br    2.2134714777079680E+00    2.9351970211689182E+00    5.9142813966365013E+00
Br    3.1964663181056747E+00    6.0971663207527937E+00    8.6462349260520668E+00
Br   -5.8565582829268346E+00   -3.1636864961224762E+00    9.4177621160918168E+00
Br    3.2301738835094587E+00   -3.5366571027920006E+00    1.1634610131719201E+01
Br   -3.1889654279937387E+00   -3.3919384744362460E+00    6.5321136103232043E+00
Br   -3.2526873561811414E+00    2.7941075732635240E-01    9.2390464924508144E+00
Br   -1.5748101462918720E+00   -1.1880387498845490E+01   -1.4998147390914680E+00
Br    3.6781204822850029E+00   -8.6288149166385999E+00    1.2178989653458459E+01
Br   -1.2154123015869269E+01    2.3965577429007978E+00   -3.1512788983751396E+00
Br   -2.8686987938089317E+00   -1.1906539112513418E+01    3.0242719427852247E+00
Br   -1.1701315478936703E+01   -4.3540464370577574E+00   -3.0456424058826346E+00
Br    3.0596278311174512E+00    8.8176954091855819E+00    1.1115188227929032E+01
Br   -8.8524683356369884E+00   -2.9800915461245374E+00   -5.5922129853889126E+00
Br   -9.7341427849445221E+00   -7.6966322111413488E-01   -2.4096711071651860E+00
Br    2.7707224662043930E+00    2.4428406646315892E+00    1.1934976811037703E+01
Br   -6.1600101428096554E+00    8.0731799487335696E+00   -3.4441560129907560E+00
Br   -3.2662131064754933E+00    8.5522447427184485E+00   -6.0672448735181046E+00
Br   -3.4687733249358721E+00    1.1565550743501412E+01   -3.2305540818649927E+00
Br   -6.3084078146242604E+00    2.1012814348745281E+00   -3.0794503464354319E+00
Br   -1.1364093649928229E+01   -8.9902405045257758E+00    3.0936855901255402E+00
Br   -2.7895067671048253E+00    3.1262774583610415E+00   -5.9504342739063363E+00
Br   -5.7700190273860379E+00   -3.0050324198126379E+00   -8.4987784412279446E+00
Br   -2.6045219873342860E+00   -3.2905370718889873E+00   -1.1291887750337569E+01
Br   -2.4391678335524825E+00   -2.2733758513197058E-01   -8.2195893262171396E+00
Br   -3.6574325391732407E+00    3.5049298786020047E+00    1.2004186628823362E+01
Br   -6.2052084272290582E+00   -8.6434030142726659E+00    9.7499160614957319E+00
Br   -2.5939259895411046E+00   -8.6945941132680193E+00    6.5274428390617585E+00
Br   -2.4878108760540627E+00   -5.9628728850397108E+00    9.3717344731019896E+00
Br   -8.1200014733677612E+00   -9.5006647751044362E+00    5.5951804326447607E-01
Br   -8.7856784563158570E+00   -6.1025438644790704E+00    3.4600016144684824E+00
Br   -8.6883316980757233E+00    8.6284842781806965E+00    1.1678207812793408E+01
Br    1.1221217379689374E+01    1.1041490403709842E+01    2.3933946317226580E+00
Br   -8.8917808501646292E+00   -8.4655007176709560E+00    1.2628333560752804E+01
Br    1.1241022212290112E+01    9.7362499701328815E+00   -4.0253083201490556E+00
Br    1.1979888811293952E+01    3.5652055123458903E+00    2.5192665667350229E+00
Br   -8.4495699053164586E+00    2.5947261126554468E+00    1.2026255457542067E+01
Br   -1.1764823537517930E+01   -3.5693788359781475E+00   -8.7713850184763924E+00
Br    1.1834178969864725E+01   -2.9849196091188648E+00    8.9409688603733137E+00
Br   -5.4078951062382323E+00   -9.0383882778462770E+00    3.6190263695044358E+00
Br    5.7972689259786767E+00   -2.4284394814119672E+00   -9.0991413140467916E+00
Br    8.1481053731981561E+00   -1.9637681356247862E+00   -1.2276399224011096E+01
Br    1.2443571327218567E+01   -9.2514502501259859E+00    8.8165437047163611E+00
Br    8.8207131223232089E+00    1.9518423245573441E-01   -8.8301787419460265E+00
Br   -9.2643290801839040E+00   -1.1358547059188565E+01    1.0149509509505709E+01
Br   -2.8387454309591753E+00   -8.8701434852986036E+00    6.9585424263759621E-01
Br   -2.7033181209541719E+00   -6.1011245606545064E+00    3.5031278544417597E+00
Br    6.0402603230519079E+00   -8.8782904600241057E+00   -9.2116268507657413E+00
Br   -5.6042896342195219E+00   -9.6008276568971826E+00   -7.6128469302284376E+00
Br    9.0008372410065576E+00   -9.3962294894761147E+00   -1.1714109762942217E+01
Br    8.7858965033157084E+00   -5.6306032659041909E+00   -9.2503256317972955E+00
Br   -3.3388658679172596E+00   -1.1434085537246450E+01    9.1331960082081789E+00