 # Version information for this restart file 
 # current date 2021-06-17 12:48:10.407
 # current working dir /user/ub2042/exercises/2_fitting/MM_MD_workdir/md_settings.006
 # Program compiled at                              Thu Apr 22 21:44:59 EDT 2021
 # Program compiled on                cpn-k07-07-02.compute.cbls.ccr.buffalo.edu
 # Program compiled for                                                    local
 # Source code revision number                                       git:36754bb
 &GLOBAL
   PRINT_LEVEL  LOW
   PROJECT_NAME cp2k
   RUN_TYPE  MD
 &END GLOBAL
 &MOTION
   &MD
     ENSEMBLE  NVT
     STEPS  10000
     TIMESTEP     2.4999999999999996E+00
     STEP_START_VAL  2770
     TIME_START_VAL     6.9249999999996980E+03
     ECONS_START_VAL    -1.3043899953808431E+01
     TEMPERATURE     3.0000000000000000E+02
     &BAROSTAT
       PRESSURE     1.0100000000000000E+00
       TIMECON     9.9999999999999982E+03
     &END BAROSTAT
     &THERMOSTAT
       TYPE  CSVR
       &CSVR
         TIMECON     9.9999999999999982E+03
         &THERMOSTAT_ENERGY
              -1.0246541662204689E-01
         &END THERMOSTAT_ENERGY
         &RNG_INIT
Wiener process for Thermostat # 1        1 F T F   3.4560673721002749E-01        1410963735.0         139468351.0        2102039668.0        2714932865.0        2132113056.0        4288163442.0             12345.0             12345.0             12345.0             12345.0             12345.0             12345.0             12345.0             12345.0             12345.0             12345.0             12345.0             12345.0
         &END RNG_INIT
       &END CSVR
     &END THERMOSTAT
     &AVERAGES  T
       &RESTART_AVERAGES
         ITIMES_START  1
         AVECPU     1.7449845857447521E-02
         AVEHUGONIOT     0.0000000000000000E+00
         AVETEMP_BARO     0.0000000000000000E+00
         AVEPOT    -1.3427968187552889E+01
         AVEKIN     4.3130557051851509E-01
         AVETEMP     2.1878773440813242E+02
         AVEKIN_QM     0.0000000000000000E+00
         AVETEMP_QM     0.0000000000000000E+00
         AVEVOL     6.7483345830900157E+06
         AVECELL_A     1.8897261328855873E+02
         AVECELL_B     1.8897261328855873E+02
         AVECELL_C     1.8897261328855873E+02
         AVEALPHA     9.0000000000000000E+01
         AVEBETA     9.0000000000000000E+01
         AVEGAMMA     9.0000000000000000E+01
         AVE_ECONS    -3.1022168571002853E+00
         AVE_PRESS     0.0000000000000000E+00
         AVE_PXX     0.0000000000000000E+00
       &END RESTART_AVERAGES
     &END AVERAGES
     &PRINT
       &ENERGY  SILENT
         &EACH
           MD  10
         &END EACH
       &END ENERGY
     &END PRINT
   &END MD
   &PRINT
     &TRAJECTORY  SILENT
       &EACH
         MD  10
       &END EACH
     &END TRAJECTORY
     &CELL  SILENT
       &EACH
         MD  10
       &END EACH
     &END CELL
     &VELOCITIES  SILENT
       &EACH
         MD  10
       &END EACH
     &END VELOCITIES
     &FORCES  SILENT
       &EACH
         MD  10
       &END EACH
     &END FORCES
     &RESTART  SILENT
       &EACH
         MD  10
       &END EACH
     &END RESTART
   &END PRINT
 &END MOTION
 &FORCE_EVAL
   METHOD  FIST
   &MM
     &FORCEFIELD
       VDW_SCALE14     1.0000000000000000E+00
       EI_SCALE14     1.0000000000000000E+00
       SHIFT_CUTOFF  T
       DO_NONBONDED  T
       IGNORE_MISSING_CRITICAL_PARAMS  T
       &SPLINE
         R0_NB     2.5000000000000000E-01
       &END SPLINE
       &NONBONDED
         &LENNARD-JONES
           ATOMS Br Br
           EPSILON     1.2630795322675199E+02
           SIGMA     3.6900000000000004E+00
         &END LENNARD-JONES
         &LENNARD-JONES
           ATOMS Cs Pb
           EPSILON     8.6920055954630968E+01
           SIGMA     3.6699999999999999E+00
         &END LENNARD-JONES
         &LENNARD-JONES
           ATOMS Cs Cs
           EPSILON     2.2644852172126850E+01
           SIGMA     4.3300000000000001E+00
         &END LENNARD-JONES
         &LENNARD-JONES
           ATOMS Pb Pb
           EPSILON     3.3363415533600227E+02
           SIGMA     5.9000000000000004E+00
         &END LENNARD-JONES
         &LENNARD-JONES
           ATOMS Br Cs
           EPSILON     5.3481070753900497E+01
           SIGMA     3.6300000000000003E+00
         &END LENNARD-JONES
         &LENNARD-JONES
           ATOMS Br Pb
           EPSILON     2.0528187276773045E+02
           SIGMA     2.9800000000000000E+00
         &END LENNARD-JONES
       &END NONBONDED
       &CHARGE
         ATOM Cs
         CHARGE     4.0230055499999995E-01
       &END CHARGE
       &CHARGE
         ATOM Pb
         CHARGE     8.0460110999999990E-01
       &END CHARGE
       &CHARGE
         ATOM Br
         CHARGE    -4.0230055499999995E-01
       &END CHARGE
     &END FORCEFIELD
     &POISSON
       PERIODIC  XYZ
       &EWALD
         EWALD_TYPE  SPME
         GMAX  62 62 62
         O_SPLINE  4
       &END EWALD
     &END POISSON
     &PRINT
       &FF_INFO  LOW
         SPLINE_INFO  F
         SPLINE_DATA  F
       &END FF_INFO
     &END PRINT
   &END MM
   &SUBSYS
     &CELL
       A     1.0000000000000001E+02    0.0000000000000000E+00    0.0000000000000000E+00
       B     0.0000000000000000E+00    1.0000000000000001E+02    0.0000000000000000E+00
       C     0.0000000000000000E+00    0.0000000000000000E+00    1.0000000000000001E+02
       PERIODIC  XYZ
       MULTIPLE_UNIT_CELL  1 1 1
     &END CELL
     &COORD
Cs    1.4642381786940858E-01    2.6971436969420998E-01   -5.8333450006961778E+00
Cs    2.7766572888541130E-01   -6.4282338507826129E+00   -5.5252782328313783E+00
Cs    7.1663130686178966E-01   -1.2407389669768078E+01   -5.1621501348884564E+00
Cs   -5.8535572104366231E+00   -6.1892959074470051E+00   -4.8097426862121155E+00
Br   -8.1316015554303647E+00   -1.2793782202041880E+01   -8.5627810979541454E+00
Br    1.1497608818395452E+01   -2.1368398433896267E+00   -8.9277344787553083E+00
Br   -2.2979169462150919E+00    2.4527236618140837E+00   -1.1604420450324360E+01
Cs    2.4834586564001257E-01    5.8638521704895705E+00   -6.3791857969064685E+00
Cs    1.3851943222519827E-01   -2.1094239047219707E-01   -3.5180836487849487E-01
Cs    7.0134674103518968E-01   -5.9424798164477570E+00    1.8996500544086634E-01
Br   -5.8500610178393355E+00   -3.1966768149095426E+00    3.6953336276561748E+00
Cs   -1.0818638394133071E+01   -5.1368534330965305E+00    1.2653102083531209E+01
Cs    1.1648067629303123E+01   -1.0817072957831948E+01   -6.3313453865050207E-01
Cs   -6.1745924225656905E+00    4.7534729097902515E+00   -3.9014012242289214E-01
Cs   -7.2933768145879174E-01    1.1744682425182321E+01    6.5243587239613376E-01
Cs   -7.2395311054820743E-01    6.8620018820756350E+00   -6.2306338210923884E-01
Cs    1.3338015181813218E-01    7.5502698623103059E-01    6.6350009162001085E+00
Cs    3.8344525389765000E-01   -5.6337821859011328E+00    6.3294089137939533E+00
Cs    9.2005108389037737E-01   -1.0763917091789882E+01    6.0170981781889727E+00
Cs   -6.3567260571152859E+00    5.7217242681069456E+00    1.2179187431684992E+01
Cs   -5.6833859059700629E+00   -7.4169533039478552E-01   -1.1205239646633547E+01
Cs   -4.9741792588725273E+00   -1.1375447581664801E+01   -5.3739843753719434E+00
Cs   -5.6255451426334568E+00   -1.1199402184328100E-01    6.2220616328833414E+00
Br   -2.8459364816243928E+00   -3.3923477911978037E+00    2.2799951779171021E-01
Cs    2.9521718021256788E-01    6.2585043889410397E+00    5.7009341492905863E+00
Br    1.2017898507691900E+01   -8.0981780976991118E+00   -8.6739280870414479E+00
Cs    1.2322303538404762E+00   -6.2213951626632156E+00    1.1553219276354975E+01
Br   -3.0815548034418572E+00    2.3482968219722825E-01    2.9776474235052039E+00
Br   -8.3172091393673480E+00   -2.5144756066315335E+00    1.2549032588387940E+01
Cs    1.1222865036216122E+01    1.1541602232128746E+01   -7.4471394009424055E+00
Cs   -1.1333620366026446E+01   -5.7199015243698863E+00    6.8574634960517171E+00
Cs   -5.4937827609297303E+00   -5.7239823085930279E+00    6.7737910850431184E+00
Cs   -7.2787654707119547E+00    1.1084473455392809E+01   -6.6617068076313606E+00
Br   -1.1821487927625300E+01   -9.2696998104397146E+00    9.2503486672715454E+00
Br   -9.2023713666531375E+00   -8.7272514589419590E+00    6.5098890851269342E+00
Cs   -1.1125123934748130E+01   -6.4054296447428900E+00   -5.2841001446970193E+00
Cs   -6.2773404052708974E+00    5.4382025462674113E+00   -5.6095116346500795E+00
Br   -8.3180321625429361E+00   -5.4917398719735733E+00    9.8814378843503210E+00
Cs    1.1699554986818576E+01    6.6517094958589160E+00    1.0972982873378406E+01
Br   -1.1949260440899018E+01    8.6392006163862192E+00    8.1805671129796043E+00
Br   -6.0254164344700447E+00   -3.7132703922424652E+00   -2.4054897536971311E+00
Cs    3.1627215898124322E-01    3.6151101371129274E-01    1.1437554819473597E+01
Cs    1.1634161437567858E+01    6.4205087102265024E+00   -6.8385924786652974E-01
Cs   -1.0600047275748983E+01   -6.7074897087358156E+00   -1.1431037684222954E+01
Cs    1.2005967049346987E+01    1.1783630118257236E+00    6.9398975369436107E+00
Cs   -1.2061540796251816E+01    1.0008455743496707E+01   -6.6777595952094408E+00
Cs    1.1933546222877496E+01   -1.1367559364071958E+01    6.3955485063862900E+00
Cs    5.9741702730139528E+00   -5.7140224587514146E+00   -1.2637854318570195E+01
Cs    6.9219347081575036E+00   -1.1561967696510706E+01    6.3764612609912490E+00
Cs   -4.5358816630307439E+00   -1.0977871689794901E+01    7.9293702696736834E-01
Cs    6.6375670979764534E+00   -1.1739139837511235E+01   -1.0757949943538621E+01
Cs    1.2690154727848043E+01    4.6212057308837373E+00   -5.7987054705893399E+00
Cs    1.1384325148326598E+01    1.1792224416703579E+01    5.0878621305169487E+00
Cs    1.0416526973078213E+01    6.2944147788544891E+00   -1.2930527263653650E+01
Cs    4.4198059991180966E-01   -6.7048685500195253E+00   -1.2222040738092890E+01
Cs   -1.1567813040443315E+01    8.6310477418635276E-02   -5.5291024502781578E+00
Cs    6.4326524476257241E+00   -5.7154111569678641E+00    1.1451505116758826E+01
Cs    1.1619648355688225E+01   -5.8159192472001147E+00    5.8443114919907604E+00
Cs   -1.0839211904450467E+01   -1.0883241031761177E+01    1.2363754959070022E+01
Cs    5.1826655676781397E-01   -1.0159208566783342E+00   -1.2072188310832011E+01
Cs    2.1751066793334367E-01    1.1344204405617738E+01    5.7982640001740169E+00
Cs   -3.1867651338084885E-01    5.2379903159528824E+00   -1.1381084032762802E+01
Cs    6.4547745237228762E+00    6.3326361290901789E-01   -5.6405603019018322E+00
Cs    6.7075313222446438E+00   -5.6702829346579025E+00   -6.1046720523279960E+00
Cs   -5.4655304585063700E+00   -1.0934961064481032E+01    7.0113476156897621E+00
Cs   -1.1681198537459768E+01    2.7259613261448878E-01    6.0724358864437686E+00
Cs    6.1996229380764563E+00    6.0012569118980419E-01   -1.1918494481518746E+01
Cs    5.7618925611465102E+00    1.1194409323595975E+01   -1.2854156444491126E+01
Cs   -1.9546492085429321E-01    6.9373821029559055E+00    1.1033628345526866E+01
Cs   -6.2680721302340832E+00    1.1175691228294209E+01    5.5443478281756358E+00
Cs    5.2304149940049722E+00    1.1016755950853753E+01   -6.7796757035720754E+00
Cs    5.3424255407654302E+00    5.5953360312587579E+00   -6.2027464117953190E+00
Cs    5.9238242728819426E+00   -4.2229605752541560E-02   -2.5965831953505492E-01
Cs    6.3676393786041148E+00   -5.9952268483296427E+00    3.9677156960706117E-01
Cs    6.3380452612717351E+00   -1.1487720243756396E+01    7.9852513112701262E-01
Cs    5.0764023475822935E+00    6.1150332721090059E+00   -1.2069899413356207E+01
Cs   -6.3344763630708432E+00    5.7452255648248451E+00    5.2024501981553124E+00
Cs   -4.8821258214089154E+00   -6.6266018945444465E+00   -1.0741115741929796E+01
Cs    5.9688061460742174E+00    6.5462664903340340E+00   -4.7375843341804308E-01
Cs    6.0050661723208840E+00   -2.6310949240731163E-01    5.2266868217118967E+00
Cs    5.6712327322449969E+00   -5.3255149361339846E+00    5.2658273326804732E+00
Cs   -6.1481532782215593E+00    1.0719884160944384E+01   -3.3226850382985706E-01
Cs    1.1989420312199178E+01   -2.0952359329269980E-02   -7.4693606075602392E-01
Cs   -5.4416370725541015E+00   -4.0928391017992560E-01    9.3373332097726480E-01
Cs   -1.1761535479496199E+01    5.8451518753209983E+00    6.7723448918555906E+00
Cs   -5.0554964327672591E+00    6.6443360105631932E-01    1.1290916898101832E+01
Cs    6.0681328338247775E+00    1.1149009153539680E+01    5.2829847702236519E+00
Cs    5.5575589083781383E+00    5.9360244865703971E+00    5.9106886463308275E+00
Cs    6.3916644140337819E+00    1.0284255343271087E+00    1.1381977119563132E+01
Cs    4.9961102731433789E+00    1.1945372182523549E+01   -8.4115954438040930E-01
Cs    1.1969274005448263E+01    1.3161007858285262E-01   -6.2644861909952203E+00
Cs    1.1483364681380033E+01   -5.7852628735355438E+00   -6.4127127341878101E+00
Cs    6.8524006959185124E+00   -1.0853578574657099E+01    1.1089234361590652E+01
Cs    1.0398016936867162E+01    1.2215573545959323E+01   -1.5695675962371991E+00
Cs   -1.0753557020930399E+01    8.1217725500319138E-01    1.3028189442495554E+01
Cs   -5.9647107283925971E+00    5.8354109099267726E+00   -1.2294551457776453E+01
Cs   -1.2022687519815539E+01    1.0762141449629594E+01   -1.2115920267780500E+00
Cs   -5.5720011368821067E+00   -5.7453963622422206E+00    1.1716270758176941E+01
Cs   -5.8000220341626658E+00   -1.1059556322713593E+01    1.1644382427506013E+01
Cs    5.8743054466112312E+00    6.9319882527060059E+00    1.1608007894684937E+01
Cs    1.1349040633770933E+01   -5.4977569074917367E+00   -4.8320430725113905E-01
Cs   -1.0960239846247520E+01   -7.5753777697658953E-01   -1.0251372083258221E-01
Cs   -6.2536647427322585E+00    1.0888238536895868E+01   -1.1688485896871541E+01
Cs   -1.2187387374456007E+01    5.0496643491749058E+00   -4.4440274276523428E-01
Cs   -1.0307065787252817E+01   -1.2321403044534073E+01   -5.3847102512384923E+00
Cs   -1.2426264092737762E+01   -5.8502334305632964E+00    1.2944703395844350E+00
Cs   -6.2700478276585914E+00   -5.5148512113138306E+00    7.8978393105334121E-01
Cs   -1.2218668344434784E+01   -1.1104410976312476E+01    5.9632852343668752E+00
Cs    1.0562148979181579E+01   -4.4842768360651126E+00    1.2418498062507215E+01
Cs    1.0778716154426267E+01    6.5921286334721945E+00    5.2049176499055960E+00
Cs   -1.1747247421580862E+01    5.0960811095155396E+00   -6.1046071409107130E+00
Cs   -5.7473057655291084E+00   -8.9443152749892185E-01   -6.2646604348150614E+00
Cs   -1.0389419112534805E+01   -1.1660911012526448E+01    4.7931724365573514E-01
Cs    1.2388822334083798E+01   -1.1735639457168309E+01   -9.0084795049844875E+00
Cs   -5.2502823790036990E+00   -1.3156785859235459E+01   -1.0583588478143520E+01
Cs    3.5916099307394356E-01    1.0810847229690838E+01   -1.2785136826377093E+01
Cs    2.4728233596216881E-01   -1.1460059794094022E+01   -1.1563152941634957E+01
Cs   -1.0773844511907096E+00    1.1410684249978381E+01   -7.0654783868498345E+00
Cs   -5.9779625541149999E+00    1.1174523009727849E+01    1.1042961650793956E+01
Cs    6.6031372180749959E-01   -1.1756767519548093E+01    5.0146211510000149E-01
Cs   -1.1488751707226852E+01   -1.9444558884239310E-01   -1.1082165541957787E+01
Cs   -1.1099920639158894E+01    1.1247428880133235E+01    6.0343408050488563E+00
Cs    7.0266995817475495E+00   -1.2047303355758711E+01   -5.0864815770435889E+00
Cs    1.0404781375310435E+01    7.2349362098075243E-02   -1.1898457412013650E+01
Cs    7.5748559045467578E-01    1.2505318435155182E+01    1.0728698572002914E+01
Pb    3.0589290704373444E+00   -2.8737999823455787E+00   -3.2124453667313086E+00
Pb    3.5910134312267954E+00   -9.1756899821729316E+00   -2.8198488138935298E+00
Pb   -8.6424546627082339E+00   -3.1918816097050011E+00    3.5403116686951330E+00
Pb   -2.3939121511185082E+00   -8.7170305905001122E+00   -2.4176515830311582E+00
Pb    2.2655195531168069E+00    8.8682219853551025E+00   -3.4455946153395658E+00
Pb    2.8930641091383369E+00    3.1123914906120933E+00   -2.8883703337560487E+00
Pb    3.1058438010715528E+00   -2.5373516258666897E+00    2.5960658118885065E+00
Pb    3.4162879612406587E+00   -8.7721145671735190E+00    3.1079407057758188E+00
Pb   -3.3390466101815455E+00    8.9653391247126368E+00    2.9131243979278927E+00
Pb    2.3938528173725770E+00    9.1783366856695654E+00    2.4448954680342263E+00
Pb    3.0782700723735261E+00    3.2191692786498969E+00    2.8134929800087054E+00
Pb    3.0286245668839471E+00   -2.6833166601634968E+00    9.1922284397677263E+00
Pb    3.7895354017167411E+00   -8.6357747264834916E+00    8.9918583208964034E+00
Pb   -3.1186408167535853E+00    3.3531425134769006E+00    3.2567212185478520E+00
Pb    2.9589997268849504E+00    8.9563102353464217E+00    8.4642390226537056E+00
Pb    3.1130950602769523E+00    3.2281649678058368E+00    9.1257431900029715E+00
Pb   -2.8249166021192176E+00   -2.7698278951273863E+00    9.7457731447245273E+00
Pb   -9.0862588474885246E+00   -9.0862557593732500E+00    3.5202407006972862E+00
Pb   -8.9680847225905751E+00    2.1140861004823366E+00   -2.8908951404699028E+00
Pb   -3.0513108168370455E+00   -3.1073117531374490E+00   -8.5522116541983006E+00
Pb   -2.9806117596707740E+00   -9.0775516394983828E+00    3.7314916689942073E+00
Pb   -3.8873304847712480E+00    8.7731774672023928E+00   -3.1128844031830836E+00
Pb   -2.3505207525151044E+00   -8.6378016740927954E+00    9.6419891010088996E+00
Pb   -9.0571309470291883E+00   -3.8643724450492929E+00   -2.6073210931746416E+00
Pb   -8.1051991678777089E+00   -9.5817138428865078E+00   -2.1907070572542815E+00
Pb   -3.4555681785136918E+00    2.9060150598643570E+00   -2.6840324092426471E+00
Pb   -8.7163514479112489E+00   -8.5235424821422487E+00    9.3560708545829119E+00
Pb   -8.7888361140606026E+00   -3.7515764133644143E+00   -8.7356770494027298E+00
Pb    8.6215714511917394E+00   -2.7439872972794142E+00   -9.0668523624235107E+00
Pb    9.3054883900220133E+00   -8.6130039984448334E+00   -8.9306176861018365E+00
Pb   -2.6780844873919345E+00   -9.4244117637295926E+00   -8.2899371085439526E+00
Pb   -9.5880423364420224E+00    7.8183968612957573E+00   -9.4991763936332205E+00
Pb    2.6825525692784877E+00   -3.2839123466073317E+00   -9.2571850828443942E+00
Pb    3.2282825812993301E+00   -9.1808549738663583E+00   -9.3297863939544747E+00
Pb   -2.9983405989263994E+00    2.5375720541078097E+00   -8.7177575886084586E+00
Pb    2.6879125560262818E+00    8.6326745424602258E+00   -9.2612565025407410E+00
Pb    2.8713570506122186E+00    2.7209947511408159E+00   -8.8071997111933449E+00
Pb    9.0067345221805493E+00   -2.2960967817458227E+00   -3.2070265467673549E+00
Pb    9.4394332343908065E+00   -8.2237575901076791E+00   -2.9568564803902508E+00
Pb   -8.7112684761629300E+00   -2.8211316449147374E+00    9.5387588016927118E+00
Pb    8.4699711254494048E+00    9.1138313873436836E+00   -1.0024391331445507E+01
Pb   -8.7779989354300483E+00    2.1416966867911662E+00   -8.7609173853705489E+00
Pb   -3.0840837439706736E+00    9.2256551191929397E+00    8.5348176507802993E+00
Pb    8.4750337095519015E+00    9.3538887854499571E+00   -4.0817295876996473E+00
Pb    8.8101579384191133E+00    3.4502016792061347E+00   -3.2749972142667341E+00
Pb    9.0935463961222123E+00   -2.5004968974902173E+00    2.5650152473837409E+00
Pb    9.3258859375254808E+00   -8.6356856652843046E+00    3.0009096323128595E+00
Pb    8.6979872130085649E+00    3.2502160293072917E+00   -9.1064985439715240E+00
Pb   -2.8407802520642984E+00    3.3183822593130872E+00    8.9507544387171478E+00
Pb    8.2882104960361769E+00    9.5040669578667707E+00    2.0195171352521744E+00
Pb    8.7957907597548211E+00    3.6175450488392009E+00    2.8669411049861351E+00
Pb    9.0510649682351705E+00   -2.7502871655168271E+00    8.3400470168769250E+00
Pb    9.6638670336081933E+00   -8.6948032881426656E+00    8.9561275937357046E+00
Pb    9.0846273368263279E+00    9.3807973425586084E+00    8.3722659483125774E+00
Pb    8.9126438065269564E+00    3.3118668716378958E+00    8.5985439857689219E+00
Pb   -8.9089724774137142E+00    2.8196667874236794E+00    8.9314058571787456E+00
Pb   -2.7543214825456848E+00   -2.8895791647696756E+00    3.5422402542334206E+00
Pb   -9.1033447349962398E+00    8.6261788032450237E+00    2.2749937304019809E+00
Pb   -9.5584848397542110E+00    7.9243084552580578E+00   -3.5973117604753302E+00
Pb   -8.6654459426971133E+00   -9.6359883920888176E+00   -8.2180169882446492E+00
Pb   -3.4591161421541274E+00    8.4500142302537142E+00   -9.3218337732558698E+00
Pb   -8.8466696139454779E+00    2.7451290645022506E+00    2.8852893443927408E+00
Pb   -9.2253857611293384E+00    8.8057916229252360E+00    8.6639818847259313E+00
Pb   -3.1015082895153467E+00   -2.9712729439605852E+00   -2.6487191947738635E+00
Br   -1.4577885419837266E-01   -2.8363214521995816E+00   -2.7266456682333384E+00
Br    2.5591802995031312E+00   -2.8040184318811550E+00   -6.2303687786068291E+00
Br    2.6908173513761717E+00    2.1604600476560964E-01   -3.3814584430964918E+00
Br    7.3735863750467612E-01   -8.5199751723745170E+00   -2.4446804502317625E+00
Br    3.1284950645047678E+00   -1.0247755725060500E+01   -5.6317388875144214E+00
Br    3.4688845153031220E+00   -6.2048109315101145E+00   -3.2239967744719218E+00
Br   -3.0132714193169861E+00   -3.1013432020827274E+00   -5.4777878243114362E+00
Br   -8.0400218188854016E+00   -2.9225413255075794E+00    6.5453896234169573E+00
Br   -3.4768611138639245E+00    2.1634942474546302E-02   -2.3452373112260791E+00
Br    3.5824534836631505E+00   -1.2048457091215468E+01   -1.9267643238180241E+00
Br    1.1906010277577852E+01   -2.3883232992598078E+00    1.5584418603104975E+00
Br   -5.2280689212958285E+00   -8.9491909299206078E+00   -2.1157605327389435E+00
Br   -1.1633582320964084E+01   -3.2357999543516800E+00    3.9568419610770404E+00
Br   -9.1635457891271539E+00   -3.7819954212208877E+00    2.4699206524919176E-01
Br    1.2208877021254812E+01   -9.4654899107802333E+00    2.6853326709713503E+00
Br   -9.2685863257945211E-01    8.9698469800050411E+00   -3.0636315201220246E+00
Br    2.4747920814632720E+00    8.7846027140318217E+00   -6.3262446367950487E+00
Br    2.7728088467196685E+00    1.1592557837311171E+01   -3.6127809930846215E+00
Br   -2.2945599804156072E-01    2.9533417632012782E+00   -2.5325798685881122E+00
Br    2.6281380695805256E+00    3.2681457063511945E+00   -5.9547969531917913E+00
Br    2.4839592871624614E+00    6.1403939033869177E+00   -3.5861404389872686E+00
Br    1.4883268470971131E-01   -2.4429955046999003E+00    2.5093197022210441E+00
Br    3.1311409229416887E+00   -2.8216907865193397E+00   -3.4126721198015331E-01
Br    3.4181535264436609E+00    3.2137029123839705E-01    2.7827570011525364E+00
Br    6.0880756466271835E-01   -8.9187104731734035E+00    3.3072370578292478E+00
Br    3.9540811457685723E+00   -8.8896910869379351E+00    1.1734447603211148E-01
Br    3.3412844677177764E+00   -5.5363550646087356E+00    2.5603577224945955E+00
Br   -6.3722865532395900E+00    8.1362241504640185E+00   -9.3420621827036943E+00
Br   -3.6888694165313427E+00    8.7358091147634216E+00   -1.2401213121912448E+01
Br    3.7193642837702510E+00   -1.1798714222740745E+01    2.9523831121194757E+00
Br   -3.3982535985268432E+00    1.1667212558888858E+01   -9.6184333443136119E+00
Br   -3.3381792199628060E+00    5.5381781691479421E+00   -9.0815992157123642E+00
Br   -8.4378536487265059E+00   -4.1786248093382750E-01    3.4328702489326655E+00
Br   -2.3241859737938579E+00   -9.7292745137712178E+00   -5.3708607304928639E+00
Br   -6.0332547652647630E+00    8.2810182431334738E+00    2.3222058351212715E+00
Br   -3.3534235296863155E+00    9.0075551570818657E+00   -4.3068505214071146E-01
Br   -3.6253076059572424E+00    1.1795950464967863E+01    2.0882358414055511E+00
Br   -4.1893927509385759E-01    9.4343634503838754E+00    2.9383300072051348E+00
Br    2.3318169500350043E+00    8.6393684421118540E+00   -5.1278077452019766E-01
Br    2.2437157636522524E+00    1.1755893300932637E+01    1.3550604409547542E+00
Br    1.4373766584599298E-01    3.1144852246722343E+00    3.7833247222625124E+00
Br    3.2545616011050797E+00    2.9456313665232061E+00   -1.7280389735922477E-01
Br    2.5324498505961404E+00    6.2794722181318328E+00    2.6057661760083439E+00
Br    1.9380954748571180E-01   -3.0015530164487445E+00    9.7183759221508552E+00
Br    2.9214360380866071E+00   -2.5472555575339091E+00    5.6460526683761003E+00
Br    2.7057550076243810E+00    2.3254023665752990E-01    9.0829609813287000E+00
Br    9.0085734755890368E-01   -8.9956149655523454E+00    9.7130372012888824E+00
Br    3.2625087378660944E+00   -8.2301291408261186E+00    5.8745352171193819E+00
Br    3.2608888871624324E+00   -5.7567120196957760E+00    8.8891749613465372E+00
Br   -1.1537027622398696E+01    2.0738772058676518E+00    3.2013334328567407E+00
Br   -8.6641734714416980E+00    2.0746980461951749E+00   -8.3861664152518001E-02
Br    3.9809806505553911E+00   -1.1307247425254609E+01    8.6133465635992632E+00
Br   -8.8841501598683976E+00    5.6291726401988491E+00    2.3680127404182518E+00
Br   -8.9958815967580037E+00    6.2106627151151351E-03    9.1485597315776985E+00
Br   -2.3420742956733593E+00   -5.9555270842338413E+00   -2.6160752451165346E+00
Br   -6.0076596841748717E+00    3.1059128701633716E+00    2.8220686633797594E+00
Br   -2.8237326266925273E+00    3.1142772889226542E+00    2.3416055317962500E-01
Br   -2.6798155845839311E+00    5.9972183501738483E+00    3.5467072592878770E+00
Br   -1.1777984240776440E-01    9.1064839849625976E+00    8.1806406577679187E+00
Br    2.8683574950859323E+00    8.8887800122379534E+00    5.4658336450872032E+00
Br    2.7776689231661393E+00    1.1852200996221612E+01    8.1380038277001461E+00
Br    2.3970721709567430E-01    3.0767090363784693E+00    9.0639765046966794E+00
Br    3.0444691647633793E+00    3.0790751355522183E+00    6.1103060141750394E+00
Br    2.7246813477463645E+00    6.1138920191590191E+00    8.5444389456300218E+00
Br   -5.7429711176171656E+00   -2.7753448283622246E+00    9.5652621561951854E+00
Br    3.6352953466830358E+00   -2.5529452666083272E+00    1.1943440773607177E+01
Br   -2.9000948032619172E+00   -3.2370368972942649E+00    6.7303443408300829E+00
Br   -2.6165190775521894E+00    3.1748483537043248E-01    9.0502702351328441E+00
Br   -2.1356464238803565E+00   -1.1415526793927592E+01   -2.0995103924242104E+00
Br    4.2963300252853234E+00   -8.4880486451258061E+00    1.1867298821849444E+01
Br   -1.1784171538695009E+01    1.8781994507038162E+00   -2.6651672391063950E+00
Br   -2.5280929523912312E+00   -1.1939227833904704E+01    3.3388182072414367E+00
Br   -1.1737218272359788E+01   -4.0702169265743207E+00   -2.6706767892696961E+00
Br    2.9050501959076565E+00    1.0043812947461793E+01    1.1343115715039492E+01
Br   -8.8126375407478150E+00   -4.0207526819112722E+00   -5.5563861374321792E+00
Br   -8.9316511032012524E+00   -9.6185336705532865E-01   -2.7002078442006328E+00
Br    3.9644347325470157E+00    3.6748089009938090E+00    1.2112346857495764E+01
Br   -6.4187903196867202E+00    7.8199986258267860E+00   -3.4571631851551281E+00
Br   -3.6016562116101665E+00    8.4595532985092685E+00   -6.4176746071183794E+00
Br   -4.6405637072398251E+00    1.1714176903365379E+01   -3.5036188812509925E+00
Br   -6.2527351016837747E+00    2.8104593432856846E+00   -2.8764973680521058E+00
Br   -1.1836598539009904E+01   -8.4175095215278777E+00    3.7947534026929821E+00
Br   -2.7353098309831516E+00    2.7397626048275079E+00   -5.6410669018768873E+00
Br   -5.8195158774669924E+00   -3.7315027094687663E+00   -8.1164774904425734E+00
Br   -3.2727170277573876E+00   -3.3163907412359279E+00   -1.1449222008136605E+01
Br   -2.8747036299908881E+00   -2.9401345453341826E-01   -8.3697809923822959E+00
Br   -3.6877451246196187E+00    3.9138404065025174E+00    1.1703619242194488E+01
Br   -5.4636999074491115E+00   -8.0131940001184674E+00    9.0784828102112360E+00
Br   -2.3085858185704811E+00   -8.6292566086787499E+00    6.6196826053040478E+00
Br   -2.3803182949488013E+00   -5.8014736654033676E+00    1.0594901649458272E+01
Br   -8.7455477421096610E+00   -8.7383980062070830E+00    7.2004633241210592E-01
Br   -8.4891407910928756E+00   -6.2132132742856685E+00    3.7209970539620101E+00
Br   -8.7796211774063497E+00    8.5358460111967194E+00    1.1764609087994907E+01
Br    1.0794904010675143E+01    1.1365269131021901E+01    1.6615362229714585E+00
Br   -8.9328794859791287E+00   -8.2280455383395896E+00    1.2194569328478934E+01
Br    1.1332467514219287E+01    1.0060076898155209E+01   -3.9662918234490050E+00
Br    1.1897817816283871E+01    4.7152067521540637E+00    2.9869104661971928E+00
Br   -8.3550724144098130E+00    2.4722074340437867E+00    1.1598329026301668E+01
Br   -1.1563021659192591E+01   -3.3466061515982424E+00   -9.5170607936512273E+00
Br    1.1917068326685966E+01   -2.3732358029996545E+00    8.0989230246548054E+00
Br   -5.8888075556661352E+00   -9.2598189806271929E+00    3.9717461624163359E+00
Br    5.8402544688473270E+00   -3.4001479932971912E+00   -8.9702577617644934E+00
Br    8.2107385731773377E+00   -2.5140311890127376E+00   -1.2201994210194297E+01
Br    1.2199009880583159E+01   -8.2849639928475511E+00    7.8690559861192524E+00
Br    8.3898041181660279E+00    4.2099769226345096E-01   -9.4070328401676679E+00
Br   -8.1720667862476954E+00   -1.1263506610021484E+01    9.5200818101388442E+00
Br   -2.5070698354518246E+00   -8.3518846993493181E+00    4.8580529251509874E-01
Br   -2.6315800718831857E+00   -5.9982138306541186E+00    3.9086237789752984E+00
Br    6.1654731490056394E+00   -8.5582143658259415E+00   -9.1686475625440664E+00
Br   -5.6954162405894291E+00   -9.4561778339640998E+00   -8.4333886144527703E+00
Br    9.2833786601760888E+00   -9.5653255455121577E+00   -1.1727186139118460E+01
Br    9.1223937870418315E+00   -5.6697253513986281E+00   -8.7638386896047624E+00
Br   -3.1831652102696837E+00   -1.1394156574464164E+01    9.3312630963722079E+00