 # Version information for this restart file 
 # current date 2021-06-17 12:48:10.076
 # current working dir /user/ub2042/exercises/2_fitting/MM_MD_workdir/md_settings.006
 # Program compiled at                              Thu Apr 22 21:44:59 EDT 2021
 # Program compiled on                cpn-k07-07-02.compute.cbls.ccr.buffalo.edu
 # Program compiled for                                                    local
 # Source code revision number                                       git:36754bb
 &GLOBAL
   PRINT_LEVEL  LOW
   PROJECT_NAME cp2k
   RUN_TYPE  MD
 &END GLOBAL
 &MOTION
   &MD
     ENSEMBLE  NVT
     STEPS  10000
     TIMESTEP     2.4999999999999996E+00
     STEP_START_VAL  2750
     TIME_START_VAL     6.8749999999996908E+03
     ECONS_START_VAL    -1.3043899953808431E+01
     TEMPERATURE     3.0000000000000000E+02
     &BAROSTAT
       PRESSURE     1.0100000000000000E+00
       TIMECON     9.9999999999999982E+03
     &END BAROSTAT
     &THERMOSTAT
       TYPE  CSVR
       &CSVR
         TIMECON     9.9999999999999982E+03
         &THERMOSTAT_ENERGY
              -9.9969442439856893E-02
         &END THERMOSTAT_ENERGY
         &RNG_INIT
Wiener process for Thermostat # 1        1 F T F  -1.4704085587044955E+00         600298552.0        2978591811.0        2216927253.0        1428688871.0        1786430848.0         114351987.0             12345.0             12345.0             12345.0             12345.0             12345.0             12345.0             12345.0             12345.0             12345.0             12345.0             12345.0             12345.0
         &END RNG_INIT
       &END CSVR
     &END THERMOSTAT
     &AVERAGES  T
       &RESTART_AVERAGES
         ITIMES_START  1
         AVECPU     1.7447492535649346E-02
         AVEHUGONIOT     0.0000000000000000E+00
         AVETEMP_BARO     0.0000000000000000E+00
         AVEPOT    -1.3428050570110956E+01
         AVEKIN     4.3103257162343894E-01
         AVETEMP     2.1864925066520775E+02
         AVEKIN_QM     0.0000000000000000E+00
         AVETEMP_QM     0.0000000000000000E+00
         AVEVOL     6.7483345830900036E+06
         AVECELL_A     1.8897261328855873E+02
         AVECELL_B     1.8897261328855873E+02
         AVECELL_C     1.8897261328855873E+02
         AVEALPHA     9.0000000000000000E+01
         AVEBETA     9.0000000000000000E+01
         AVEGAMMA     9.0000000000000000E+01
         AVE_ECONS    -3.0955991583509199E+00
         AVE_PRESS     0.0000000000000000E+00
         AVE_PXX     0.0000000000000000E+00
       &END RESTART_AVERAGES
     &END AVERAGES
     &PRINT
       &ENERGY  SILENT
         &EACH
           MD  10
         &END EACH
       &END ENERGY
     &END PRINT
   &END MD
   &PRINT
     &TRAJECTORY  SILENT
       &EACH
         MD  10
       &END EACH
     &END TRAJECTORY
     &CELL  SILENT
       &EACH
         MD  10
       &END EACH
     &END CELL
     &VELOCITIES  SILENT
       &EACH
         MD  10
       &END EACH
     &END VELOCITIES
     &FORCES  SILENT
       &EACH
         MD  10
       &END EACH
     &END FORCES
     &RESTART  SILENT
       &EACH
         MD  10
       &END EACH
     &END RESTART
   &END PRINT
 &END MOTION
 &FORCE_EVAL
   METHOD  FIST
   &MM
     &FORCEFIELD
       VDW_SCALE14     1.0000000000000000E+00
       EI_SCALE14     1.0000000000000000E+00
       SHIFT_CUTOFF  T
       DO_NONBONDED  T
       IGNORE_MISSING_CRITICAL_PARAMS  T
       &SPLINE
         R0_NB     2.5000000000000000E-01
       &END SPLINE
       &NONBONDED
         &LENNARD-JONES
           ATOMS Br Br
           EPSILON     1.2630795322675199E+02
           SIGMA     3.6900000000000004E+00
         &END LENNARD-JONES
         &LENNARD-JONES
           ATOMS Cs Pb
           EPSILON     8.6920055954630968E+01
           SIGMA     3.6699999999999999E+00
         &END LENNARD-JONES
         &LENNARD-JONES
           ATOMS Cs Cs
           EPSILON     2.2644852172126850E+01
           SIGMA     4.3300000000000001E+00
         &END LENNARD-JONES
         &LENNARD-JONES
           ATOMS Pb Pb
           EPSILON     3.3363415533600227E+02
           SIGMA     5.9000000000000004E+00
         &END LENNARD-JONES
         &LENNARD-JONES
           ATOMS Br Cs
           EPSILON     5.3481070753900497E+01
           SIGMA     3.6300000000000003E+00
         &END LENNARD-JONES
         &LENNARD-JONES
           ATOMS Br Pb
           EPSILON     2.0528187276773045E+02
           SIGMA     2.9800000000000000E+00
         &END LENNARD-JONES
       &END NONBONDED
       &CHARGE
         ATOM Cs
         CHARGE     4.0230055499999995E-01
       &END CHARGE
       &CHARGE
         ATOM Pb
         CHARGE     8.0460110999999990E-01
       &END CHARGE
       &CHARGE
         ATOM Br
         CHARGE    -4.0230055499999995E-01
       &END CHARGE
     &END FORCEFIELD
     &POISSON
       PERIODIC  XYZ
       &EWALD
         EWALD_TYPE  SPME
         GMAX  62 62 62
         O_SPLINE  4
       &END EWALD
     &END POISSON
     &PRINT
       &FF_INFO  LOW
         SPLINE_INFO  F
         SPLINE_DATA  F
       &END FF_INFO
     &END PRINT
   &END MM
   &SUBSYS
     &CELL
       A     1.0000000000000001E+02    0.0000000000000000E+00    0.0000000000000000E+00
       B     0.0000000000000000E+00    1.0000000000000001E+02    0.0000000000000000E+00
       C     0.0000000000000000E+00    0.0000000000000000E+00    1.0000000000000001E+02
       PERIODIC  XYZ
       MULTIPLE_UNIT_CELL  1 1 1
     &END CELL
     &COORD
Cs    2.9213171340153909E-01    3.4920203927086285E-01   -5.9107206458902626E+00
Cs    3.4290881236245413E-01   -6.3883661616836651E+00   -5.5635183383310487E+00
Cs    6.9351759461567053E-01   -1.2373770260639708E+01   -5.0870599754665138E+00
Cs   -5.7678973884921678E+00   -6.2060672130983470E+00   -4.8007519073865375E+00
Br   -8.2659021417360066E+00   -1.2838780463850828E+01   -8.5055706238632052E+00
Br    1.1561032841903101E+01   -2.1527586381434811E+00   -8.9323603055542637E+00
Br   -2.2304382647689311E+00    2.5620144694544718E+00   -1.1643080537766075E+01
Cs    1.8353955913157949E-01    5.8736482764182227E+00   -6.3717853290198452E+00
Cs    1.3383456307409280E-01   -2.5193753441079603E-01   -4.2908016684195904E-01
Cs    7.4975658204340079E-01   -5.9588516242790543E+00    1.4856393375061766E-01
Br   -5.9139895806149925E+00   -3.2959249090062404E+00    3.6389843812065039E+00
Cs   -1.0776351133162105E+01   -5.0434480094758980E+00    1.2627136237536833E+01
Cs    1.1703637688155180E+01   -1.0818740254026400E+01   -6.4293508516356268E-01
Cs   -6.1657218598012316E+00    4.6896761042441160E+00   -4.4697849104182058E-01
Cs   -6.4415858285562677E-01    1.1817828848277824E+01    6.0887391523108936E-01
Cs   -6.1320046300079711E-01    6.9027139942186286E+00   -5.6405439483234876E-01
Cs    8.0509485810294851E-02    8.0360868801414542E-01    6.6304187018721761E+00
Cs    3.3173238359701518E-01   -5.6844998593627567E+00    6.3127875841397776E+00
Cs    8.9339367462756514E-01   -1.0710624137569765E+01    6.0485275400713663E+00
Cs   -6.4029877036821237E+00    5.7090678351313446E+00    1.2223837117130198E+01
Cs   -5.6410811174958955E+00   -7.3355785228776316E-01   -1.1300656781656784E+01
Cs   -4.9514021245282729E+00   -1.1373426938177561E+01   -5.3689897665882604E+00
Cs   -5.6829842058041438E+00   -1.1513514908262791E-01    6.1957382028646251E+00
Br   -2.8185846904268872E+00   -3.4224611927139281E+00    1.9863478168352847E-01
Cs    2.0322665337922352E-01    6.1726041054917093E+00    5.6331701195944266E+00
Br    1.1973017343395844E+01   -7.9719394930582546E+00   -8.7243877996239263E+00
Cs    1.2686633882834617E+00   -6.2706155420860181E+00    1.1594127799835675E+01
Br   -3.1695827912826644E+00    2.8471832307446354E-01    2.9760546283780180E+00
Br   -8.4751376220460166E+00   -2.5309136437060058E+00    1.2477624008961389E+01
Cs    1.1296540433911382E+01    1.1441059280170920E+01   -7.5151208771985143E+00
Cs   -1.1314203903542596E+01   -5.7190437365960660E+00    6.8065690216708195E+00
Cs   -5.5052292905086615E+00   -5.8122524750531648E+00    6.6896511946733765E+00
Cs   -7.2088631187975736E+00    1.1062097692421581E+01   -6.7342626113362396E+00
Br   -1.1791201961091376E+01   -9.3168957282742273E+00    9.2290513801048419E+00
Br   -9.1384027772010494E+00   -8.7318657687814767E+00    6.4713358238317387E+00
Cs   -1.1137679157785385E+01   -6.4598690768009046E+00   -5.2607149943064826E+00
Cs   -6.1285537535105927E+00    5.5089713933555267E+00   -5.5879955340264065E+00
Br   -8.3715764897701348E+00   -5.6501275282222680E+00    9.7839810589284664E+00
Cs    1.1738690871719530E+01    6.8309757689015038E+00    1.0885962869825676E+01
Br   -1.1873707820341473E+01    8.6200128167237491E+00    8.1057306604037045E+00
Br   -6.0641691057857665E+00   -3.7064158992525797E+00   -2.3697882135373871E+00
Cs    3.5934478822028759E-01    3.4574741208419940E-01    1.1448094017908849E+01
Cs    1.1578656437112722E+01    6.3311509854511057E+00   -7.5556620075879988E-01
Cs   -1.0684817765853539E+01   -6.5547758956819404E+00   -1.1448008506316762E+01
Cs    1.1936898786988291E+01    1.1681912176711089E+00    6.9373374760326456E+00
Cs   -1.2048790526280893E+01    1.0020705544900762E+01   -6.6147233545198239E+00
Cs    1.1941255932860585E+01   -1.1428483191604526E+01    6.3702874418116950E+00
Cs    5.8897490946077831E+00   -5.6397346545132105E+00   -1.2637057170156416E+01
Cs    6.9400691356256852E+00   -1.1621390371718370E+01    6.4588914921325422E+00
Cs   -4.5370073509531172E+00   -1.0984646708883108E+01    8.0383724417956026E-01
Cs    6.6339094745320706E+00   -1.1728890110181695E+01   -1.0773574974461438E+01
Cs    1.2730651993804543E+01    4.6540434569511895E+00   -5.7430334834843064E+00
Cs    1.1376816216720737E+01    1.1928487499921987E+01    5.1526043250875926E+00
Cs    1.0444282254058230E+01    6.3105606286961597E+00   -1.2940243409492059E+01
Cs    3.4137800389537437E-01   -6.6324252746228245E+00   -1.2227622688101633E+01
Cs   -1.1605286099632828E+01    5.4701197520534178E-02   -5.5768173341698146E+00
Cs    6.4754197533658040E+00   -5.7625707511297124E+00    1.1513792831638224E+01
Cs    1.1615143701299813E+01   -5.8226289650913525E+00    5.7741048530482564E+00
Cs   -1.0910442484076830E+01   -1.0811417711747527E+01    1.2380461182029652E+01
Cs    4.1978935467558842E-01   -9.9738596721800121E-01   -1.2205753719308003E+01
Cs    1.6489079193147430E-01    1.1297024954417441E+01    5.8251119061946914E+00
Cs   -2.4377861618003677E-01    5.1533835061685265E+00   -1.1353914809869512E+01
Cs    6.3681545037532681E+00    6.4337566777635902E-01   -5.6680296720051659E+00
Cs    6.6507301831880037E+00   -5.7661060607833630E+00   -6.0041963493384545E+00
Cs   -5.4639221577426547E+00   -1.0839543489027948E+01    7.0694829797491474E+00
Cs   -1.1715881950807091E+01    2.7557939953245070E-01    6.0457756213631733E+00
Cs    6.1488255338368631E+00    5.8359905375737053E-01   -1.1931058256628946E+01
Cs    5.8282581758693572E+00    1.1185914191462553E+01   -1.2900652994968137E+01
Cs   -1.2533869284241872E-01    6.8658553910658799E+00    1.0970912700292578E+01
Cs   -6.2519751332593954E+00    1.1175693507062098E+01    5.5174397926214658E+00
Cs    5.3585938349020186E+00    1.1025446501125316E+01   -6.6844874552861784E+00
Cs    5.2671492200452459E+00    5.4667513673291257E+00   -6.2200190038860237E+00
Cs    5.9745170204029430E+00   -7.6954676768814623E-02   -2.6139371333507960E-01
Cs    6.3879859259756806E+00   -5.9817509694021220E+00    4.1893114211462479E-01
Cs    6.4725978535253192E+00   -1.1470761404528634E+01    8.4453687761594187E-01
Cs    5.0625815874791638E+00    6.1065226487063491E+00   -1.2073690663327836E+01
Cs   -6.3453432155552667E+00    5.6541697671254409E+00    5.3593403358681204E+00
Cs   -4.9401724526690121E+00   -6.5179481353133308E+00   -1.0733441846840622E+01
Cs    5.9717505263076358E+00    6.5671004759078571E+00   -5.0402289981300652E-01
Cs    5.9276844159258451E+00   -3.0402702826963401E-01    5.3326603577732721E+00
Cs    5.7057372223519049E+00   -5.3177420042539092E+00    5.3049890635125063E+00
Cs   -6.1143664208865776E+00    1.0847564973607131E+01   -3.2703015298375043E-01
Cs    1.1919506914177690E+01   -1.8183606613545768E-02   -7.6482320010162907E-01
Cs   -5.4525139981444912E+00   -5.0863312994843868E-01    8.9713008118103565E-01
Cs   -1.1669276678071613E+01    5.9763850522348196E+00    6.8573863745269055E+00
Cs   -5.0520468018404889E+00    7.1384890263033396E-01    1.1392926015167717E+01
Cs    5.9954467197648231E+00    1.1178642660947871E+01    5.2032678141355930E+00
Cs    5.5165230294842447E+00    5.9202207275109267E+00    5.8723565855435185E+00
Cs    6.3233110199450486E+00    9.6202718614966143E-01    1.1360589890298083E+01
Cs    5.0340230728171536E+00    1.1865206238008835E+01   -8.2697305067569982E-01
Cs    1.2085701906879992E+01    4.8634948477473190E-02   -6.3195571042318983E+00
Cs    1.1497696587191239E+01   -5.6674669786263259E+00   -6.3315245079192648E+00
Cs    6.9610413449019246E+00   -1.0829856013414080E+01    1.1086324154130685E+01
Cs    1.0336927799237394E+01    1.2204540433419776E+01   -1.5894230680714396E+00
Cs   -1.0761930181220528E+01    8.6552936320847895E-01    1.2976207672922138E+01
Cs   -5.9674502788228239E+00    5.8888247138041638E+00   -1.2329049662074917E+01
Cs   -1.2065243342892337E+01    1.0772725839522147E+01   -1.2421474229995526E+00
Cs   -5.5602435576924520E+00   -5.7246812702775420E+00    1.1694728748589933E+01
Cs   -5.7947559011819711E+00   -1.1012551731327628E+01    1.1501813880354577E+01
Cs    5.8684465714313170E+00    6.9641001099264424E+00    1.1505095067097207E+01
Cs    1.1360046641434041E+01   -5.4337654254935153E+00   -4.5932064399929018E-01
Cs   -1.1027881494967259E+01   -7.7683369476413044E-01   -3.9465904813080807E-02
Cs   -6.3506434777724223E+00    1.0864773879017228E+01   -1.1681808069672421E+01
Cs   -1.2090822046509036E+01    5.0894056985302036E+00   -4.4266243560203594E-01
Cs   -1.0321811198414172E+01   -1.2302827471462235E+01   -5.3198250702176884E+00
Cs   -1.2460069547357726E+01   -5.8437239656735942E+00    1.3034181232754170E+00
Cs   -6.2594374017915335E+00   -5.5781902212498817E+00    8.6303583748549728E-01
Cs   -1.2251141253309209E+01   -1.1095261205732381E+01    6.0633711984535470E+00
Cs    1.0620345133401470E+01   -4.5044956035601995E+00    1.2494951135864852E+01
Cs    1.0758320226579775E+01    6.5997584754772918E+00    5.2012447453450017E+00
Cs   -1.1750383822009328E+01    5.1294666874479118E+00   -6.2422719883733739E+00
Cs   -5.7753762065873575E+00   -8.3307716253819375E-01   -6.2371417325648766E+00
Cs   -1.0355573462375434E+01   -1.1645837668267735E+01    4.7133431751785687E-01
Cs    1.2306918754491543E+01   -1.1791264710878437E+01   -9.0705329064861910E+00
Cs   -5.3175406823307458E+00   -1.3149654718669886E+01   -1.0654694815624302E+01
Cs    4.6213476384573554E-01    1.0864579109323516E+01   -1.2682422598361860E+01
Cs    2.8609893926098667E-01   -1.1461053687067064E+01   -1.1555396323815900E+01
Cs   -1.0073080765651952E+00    1.1519654570416618E+01   -7.0540558402202693E+00
Cs   -6.1135640796933295E+00    1.1071502760592152E+01    1.1054155614851993E+01
Cs    7.5131899875646724E-01   -1.1649251126193795E+01    5.5827891800665763E-01
Cs   -1.1501870922298018E+01   -1.5155383565118691E-01   -1.1075061195574595E+01
Cs   -1.1175078306569588E+01    1.1325941291420255E+01    6.1166842476016416E+00
Cs    6.9580529510938529E+00   -1.2036941915475616E+01   -5.0532347484486593E+00
Cs    1.0477925795574043E+01    1.5800687409623798E-01   -1.1898816524581465E+01
Cs    8.1289975921956792E-01    1.2559996264118853E+01    1.0787747433318691E+01
Pb    3.0358518992328816E+00   -2.8954352771105278E+00   -3.2538245368858623E+00
Pb    3.5804976814957343E+00   -9.0944512724534263E+00   -2.7640169503454199E+00
Pb   -8.6879009010624895E+00   -3.1911537663714995E+00    3.5021608623480391E+00
Pb   -2.3916764987520427E+00   -8.7740746113094925E+00   -2.4311515886179178E+00
Pb    2.2310412429536610E+00    8.8310086085229216E+00   -3.4885375609625782E+00
Pb    2.8598418590923322E+00    3.1045254746605537E+00   -2.8319781582457888E+00
Pb    3.1877136967906852E+00   -2.5466704189495228E+00    2.6330547662448041E+00
Pb    3.3737769616568585E+00   -8.7856989835068404E+00    3.0729646908842199E+00
Pb   -3.2954084036579694E+00    8.9176449779143301E+00    2.9257959262799891E+00
Pb    2.3997844808180644E+00    9.1571361382492977E+00    2.4767328001363258E+00
Pb    3.0577610346212967E+00    3.1474057283575125E+00    2.8522372761695705E+00
Pb    3.1258938850140758E+00   -2.6151493930257259E+00    9.1658172702883363E+00
Pb    3.7633608843209254E+00   -8.6699965653643325E+00    9.0643545165952446E+00
Pb   -3.0281720448329281E+00    3.2181745644549524E+00    3.2620959192096377E+00
Pb    2.9435553421418388E+00    8.8426273889990057E+00    8.5565405638889303E+00
Pb    3.0892613625548551E+00    3.2471930972609067E+00    9.0990107681209640E+00
Pb   -2.8057942283878554E+00   -2.7138172336351793E+00    9.7571187897797174E+00
Pb   -9.1324409850873494E+00   -9.1401780263351640E+00    3.4481644985180986E+00
Pb   -9.0580260990692771E+00    2.0881899953924679E+00   -2.9486515077562774E+00
Pb   -3.0494361962908489E+00   -3.0584305504849767E+00   -8.5363714762012481E+00
Pb   -2.9773895196433888E+00   -9.0681248650684463E+00    3.6712812956708007E+00
Pb   -3.8831185875683065E+00    8.8286588994189259E+00   -3.1893895480608672E+00
Pb   -2.3560789189206828E+00   -8.6369190644213578E+00    9.6775367536669386E+00
Pb   -9.0418966835448487E+00   -3.8556613919237610E+00   -2.5840346109177998E+00
Pb   -8.1373056171075628E+00   -9.5778244622571016E+00   -2.1641000435759117E+00
Pb   -3.4491388203713140E+00    2.8464049124407018E+00   -2.7326736971756209E+00
Pb   -8.8103914464961726E+00   -8.4476377140251238E+00    9.3482447132292119E+00
Pb   -8.7041686802065605E+00   -3.7149212590165632E+00   -8.7805169439447770E+00
Pb    8.6788619486418526E+00   -2.7455616361955211E+00   -9.1095957943946573E+00
Pb    9.2941057833071934E+00   -8.6659526581879849E+00   -8.9126757058803001E+00
Pb   -2.5677499614784898E+00   -9.4968601843272094E+00   -8.3460633400524937E+00
Pb   -9.5412543594454640E+00    7.7921065665272060E+00   -9.5274417867565404E+00
Pb    2.7216843121133754E+00   -3.2862269357276617E+00   -9.3202957256040015E+00
Pb    3.2255214917665165E+00   -9.1923114045551486E+00   -9.4071657466196701E+00
Pb   -3.0103749269570361E+00    2.5653365822572205E+00   -8.6733845956763620E+00
Pb    2.6485944986813847E+00    8.6630989620112775E+00   -9.2696677326060701E+00
Pb    2.8793651413104988E+00    2.6729078934134662E+00   -8.7751885134067145E+00
Pb    9.0513340005371763E+00   -2.2647979548022263E+00   -3.2601378337228106E+00
Pb    9.4558267476602875E+00   -8.2716144900583242E+00   -3.0058417290387269E+00
Pb   -8.6691802225098851E+00   -2.8684246483466729E+00    9.6264199158057568E+00
Pb    8.4533743073057543E+00    9.1857297541320104E+00   -1.0042989220399877E+01
Pb   -8.8282679395131218E+00    2.1793599706560083E+00   -8.6791902460771517E+00
Pb   -3.0156749774840677E+00    9.2720691838020617E+00    8.5941267192808706E+00
Pb    8.5427339811179106E+00    9.3702746251889248E+00   -4.0838737005289758E+00
Pb    8.7866829150635706E+00    3.5605890468530204E+00   -3.2242674872631487E+00
Pb    9.1025385960159024E+00   -2.5547489597463935E+00    2.5540384134585792E+00
Pb    9.3622387817014108E+00   -8.5919641380439025E+00    2.9351548818363025E+00
Pb    8.6458682228669801E+00    3.2140389163224943E+00   -9.0961304891629915E+00
Pb   -2.8793135805380632E+00    3.3129851805299020E+00    8.9971196310106034E+00
Pb    8.3613780582851618E+00    9.5795919082740735E+00    2.0709706573578877E+00
Pb    8.8265514586986846E+00    3.5666480551476374E+00    2.7941281895328700E+00
Pb    8.9392678944392614E+00   -2.7841131170737619E+00    8.3116532735948265E+00
Pb    9.6932857442320088E+00   -8.7372045076109508E+00    8.9444613072376313E+00
Pb    9.1407338606587274E+00    9.3864774372078159E+00    8.4198373645263551E+00
Pb    8.8530346300977474E+00    3.2830901689505367E+00    8.5303788405687886E+00
Pb   -8.9355157640468263E+00    2.8169210553931281E+00    8.8818458907916593E+00
Pb   -2.7749714362583977E+00   -2.9309721842429002E+00    3.4974581309259922E+00
Pb   -9.1719241172025203E+00    8.6423339986750509E+00    2.3211706205495926E+00
Pb   -9.5697129652746415E+00    7.8148073298822833E+00   -3.4346884731447469E+00
Pb   -8.6855197984983086E+00   -9.5394485892098277E+00   -8.1901990482827340E+00
Pb   -3.4137855392351462E+00    8.4871663807397084E+00   -9.3699281084811350E+00
Pb   -8.8465131408467244E+00    2.7697608604903734E+00    2.8541685982181497E+00
Pb   -9.1279977611462559E+00    8.8530390063629483E+00    8.6593517878674078E+00
Pb   -3.1451557952549005E+00   -2.9412596904791015E+00   -2.6657746892273293E+00
Br   -1.5673610645824188E-01   -2.8769189481658759E+00   -2.7304756877001513E+00
Br    2.6309662676119236E+00   -2.9270249728452531E+00   -6.2665154690682172E+00
Br    2.7128691169049066E+00    1.1603660781655119E-01   -3.4542891218304694E+00
Br    7.7546373214910591E-01   -8.4326418749981453E+00   -2.3632773909753104E+00
Br    3.2323556023992310E+00   -1.0270242558111615E+01   -5.5466919849606198E+00
Br    3.4463731958906165E+00   -6.0975286617392452E+00   -3.3235337237875755E+00
Br   -3.1239904161875045E+00   -3.1484957946069150E+00   -5.5003622285555940E+00
Br   -8.0731302934917899E+00   -2.8186822429037219E+00    6.5521540586683074E+00
Br   -3.4859913970670893E+00    5.7130219852596191E-02   -2.3155182501481217E+00
Br    3.5809766489062218E+00   -1.1928590717058990E+01   -1.9540157171154382E+00
Br    1.1959693933282695E+01   -2.3885309267777037E+00    1.6268817937715578E+00
Br   -5.1448249529342016E+00   -9.0224701064425368E+00   -2.2748297822605941E+00
Br   -1.1523839660063665E+01   -3.2447041130940883E+00    3.9677688986406223E+00
Br   -9.1934821073011381E+00   -3.8296151612540603E+00    1.9845015755721890E-01
Br    1.2124641543909158E+01   -9.5098585526753947E+00    2.6307295521910343E+00
Br   -8.0679694825029102E-01    9.0029269953674085E+00   -3.1772519943358142E+00
Br    2.4278694205387037E+00    8.8704843251723364E+00   -6.4197513682545431E+00
Br    2.7383985430681093E+00    1.1564778156891689E+01   -3.6555918314078633E+00
Br   -2.3738075062486605E-01    2.7801223073324670E+00   -2.6695050651443539E+00
Br    2.5449551041765748E+00    3.2138864365977922E+00   -6.0515776725782455E+00
Br    2.5490661217029182E+00    6.0820949047979571E+00   -3.5689871575598566E+00
Br    1.4315851335803815E-02   -2.5292070872172840E+00    2.6338684751796695E+00
Br    3.2142034144178635E+00   -2.7453047408760387E+00   -2.2943507081857711E-01
Br    3.4243280538540528E+00    3.2124325034579404E-01    2.6095266947031508E+00
Br    6.8215405724554723E-01   -9.0242366682090029E+00    3.2384036104968117E+00
Br    3.8422052774865754E+00   -8.7795402017705513E+00    1.4728410815673901E-01
Br    3.3051118936935158E+00   -5.5599984748945062E+00    2.6362318572396330E+00
Br   -6.3238759000634754E+00    8.1799362121106647E+00   -9.5012461040500433E+00
Br   -3.8439996143800701E+00    8.6845643957544461E+00   -1.2389040275419307E+01
Br    3.6678706279137616E+00   -1.1902114679622914E+01    2.9837928395837698E+00
Br   -3.3889498661523052E+00    1.1630744673036608E+01   -9.4965046095772863E+00
Br   -3.2664449254034715E+00    5.6696044900294877E+00   -9.0778490391573055E+00
Br   -8.4970991266114702E+00   -2.6742322165850746E-01    3.4687977676233137E+00
Br   -2.4112441149563986E+00   -9.7150604988694678E+00   -5.3237737999695511E+00
Br   -6.1206615280596504E+00    8.2720838848794767E+00    2.3434582895056275E+00
Br   -3.3762139314421020E+00    9.0312985287470813E+00   -4.1679266939547976E-01
Br   -3.7344636380708147E+00    1.1742249824103375E+01    2.0552462766777970E+00
Br   -4.9360477947499726E-01    9.3508589145850181E+00    2.8482352678165430E+00
Br    2.2403365301822524E+00    8.4718005035891970E+00   -5.2806269872180689E-01
Br    2.1953529217062715E+00    1.1840013899767845E+01    1.4308693501654794E+00
Br    1.8236092988751093E-01    2.9899410515338243E+00    3.8027899929795832E+00
Br    3.2498578819481372E+00    3.0030462391676251E+00   -1.0075915578067773E-01
Br    2.5766943999234115E+00    6.1794635552920987E+00    2.6813515989326291E+00
Br    1.4471280542921519E-01   -3.0156764930268429E+00    9.7131660362252035E+00
Br    2.9614514730402006E+00   -2.5433277780443011E+00    5.5612674478275137E+00
Br    2.6876484925901662E+00    3.3362488270508922E-01    9.1004486217726690E+00
Br    8.2407635386364730E-01   -9.0827052988515256E+00    9.7428963008575309E+00
Br    3.2677021074301873E+00   -8.0954397147009409E+00    5.8913685736546011E+00
Br    3.1386979045957863E+00   -5.8921259144872398E+00    8.8830748734825704E+00
Br   -1.1565591907188978E+01    2.1056276211058127E+00    3.2052351544976432E+00
Br   -8.6919210980871568E+00    2.0826352750077115E+00   -1.2522529975422805E-01
Br    3.8962926404038862E+00   -1.1383074544877932E+01    8.5775070248891314E+00
Br   -8.9837276248819613E+00    5.6619978436211378E+00    2.2585610832256169E+00
Br   -9.0085552319248379E+00   -1.4967946453005325E-02    9.1460568811000407E+00
Br   -2.3934123592978391E+00   -5.8774958642872370E+00   -2.5392537912061788E+00
Br   -6.0433819132350415E+00    3.1984129390384788E+00    2.8887051647536262E+00
Br   -2.7949775389611080E+00    3.0936046364017411E+00    3.1182215152260129E-01
Br   -2.7094914694772241E+00    6.0553841746270614E+00    3.6044351118257714E+00
Br   -7.0183945358136227E-02    9.1033170507826924E+00    8.1818516113404645E+00
Br    2.8937658376656805E+00    8.9127131084013183E+00    5.4422334559957628E+00
Br    2.6903659095694943E+00    1.1761192000438756E+01    8.2504336404079677E+00
Br    1.6545464877341051E-01    3.0452812171413779E+00    9.3080487373019771E+00
Br    3.1297453195734661E+00    3.1223918643079371E+00    6.1407368448401991E+00
Br    2.8047603056848542E+00    6.1214527471205704E+00    8.5799338477895759E+00
Br   -5.6671896152029628E+00   -2.7622164292314060E+00    9.6102468752582109E+00
Br    3.6083004651324639E+00   -2.6639513870425526E+00    1.2027758705240217E+01
Br   -2.9095084369403916E+00   -3.2484725192770516E+00    6.6557187947306167E+00
Br   -2.5736114847946956E+00    3.5144233620451704E-01    9.0987053968021474E+00
Br   -2.0984573846085195E+00   -1.1372184358011376E+01   -2.0661750933902288E+00
Br    4.2820820809171734E+00   -8.4476932205285031E+00    1.1843433523179991E+01
Br   -1.1878862474664395E+01    2.0117882717000861E+00   -2.7365282274125731E+00
Br   -2.4664852717960293E+00   -1.1921765886697198E+01    3.2923949668376693E+00
Br   -1.1774031369584893E+01   -4.1261424326998926E+00   -2.7351873985739998E+00
Br    2.9635558655835017E+00    1.0100991340345718E+01    1.1219293452657281E+01
Br   -8.7229652577393200E+00   -3.9194064005616958E+00   -5.5718495699376689E+00
Br   -8.8733811874602502E+00   -8.9164418939268941E-01   -2.6739879682514585E+00
Br    3.9277234893223731E+00    3.6286933030831028E+00    1.2025604118370543E+01
Br   -6.5281169760602413E+00    7.8431662959882233E+00   -3.5311342029653452E+00
Br   -3.5101877684232528E+00    8.3918775182810865E+00   -6.4143197226400774E+00
Br   -4.6602503599173373E+00    1.1607671402325387E+01   -3.4484513997805730E+00
Br   -6.3838797016117530E+00    2.8199468453587628E+00   -2.9109743288766090E+00
Br   -1.1756461789114073E+01   -8.5584213277370917E+00    3.7605654513785827E+00
Br   -2.7764872316723785E+00    2.7982573733936622E+00   -5.6963566487485107E+00
Br   -5.8741799435202875E+00   -3.5426466905160168E+00   -8.1326471104998852E+00
Br   -3.4099286414238552E+00   -3.1852121308878396E+00   -1.1473675968309475E+01
Br   -2.7919171855502762E+00   -2.5159734086549740E-01   -8.2057621394385585E+00
Br   -3.5976775151191878E+00    3.8803220649062347E+00    1.1595718829638269E+01
Br   -5.2212426240780170E+00   -7.9966004805701152E+00    9.1467628379806811E+00
Br   -2.3435538581069038E+00   -8.7177250597881191E+00    6.5642874395745903E+00
Br   -2.4396486515629259E+00   -5.8809643708446000E+00    1.0626860426567848E+01
Br   -8.6699053771968320E+00   -8.6692780327912136E+00    6.9281653044474323E-01
Br   -8.5678693436193605E+00   -6.2388891941419109E+00    3.7942789310236775E+00
Br   -8.7243510279286909E+00    8.3944385150881420E+00    1.1720321129325480E+01
Br    1.0696851677415733E+01    1.1485100862760337E+01    1.7581991578488732E+00
Br   -8.9185166960552316E+00   -8.2519217724683749E+00    1.2270464947491837E+01
Br    1.1145441089093870E+01    1.0012168886253374E+01   -4.0405578214741915E+00
Br    1.1817662973968808E+01    4.6594784879151652E+00    2.9414040599927822E+00
Br   -8.3873920205185186E+00    2.4998576945964475E+00    1.1719426064727145E+01
Br   -1.1449061335649127E+01   -3.4653329547884719E+00   -9.4171877223450604E+00
Br    1.1891366557239568E+01   -2.4342081518380296E+00    8.1246132846908647E+00
Br   -5.8137578192080257E+00   -9.1928465654140137E+00    3.9630104873928773E+00
Br    5.8103203944801107E+00   -3.4661409197092796E+00   -8.9623035463912917E+00
Br    8.1167268868148099E+00   -2.5155081139060718E+00   -1.2147788279261610E+01
Br    1.2224985078453061E+01   -8.3094330801689065E+00    7.9046881417675596E+00
Br    8.5512976838836057E+00    4.0780804553673616E-01   -9.3844796550018152E+00
Br   -8.2061184837787629E+00   -1.1274410906175021E+01    9.5243666224510086E+00
Br   -2.5312677908027781E+00   -8.4065877673227281E+00    4.3269867697333425E-01
Br   -2.6442116852768285E+00   -6.0063434822143176E+00    3.8971118357446151E+00
Br    6.1009948954451403E+00   -8.4960784728268219E+00   -9.1140162038211745E+00
Br   -5.7151090270859086E+00   -9.4369397357653781E+00   -8.2731378925439802E+00
Br    9.1726323812579427E+00   -9.5497655476610959E+00   -1.1671621647911874E+01
Br    9.0132569135619320E+00   -5.5824199523315974E+00   -8.7692825310323137E+00
Br   -3.3363499472550391E+00   -1.1413186234393246E+01    9.4798844079035067E+00