 # Version information for this restart file 
 # current date 2021-06-17 12:48:10.641
 # current working dir /user/ub2042/exercises/2_fitting/MM_MD_workdir/md_settings.006
 # Program compiled at                              Thu Apr 22 21:44:59 EDT 2021
 # Program compiled on                cpn-k07-07-02.compute.cbls.ccr.buffalo.edu
 # Program compiled for                                                    local
 # Source code revision number                                       git:36754bb
 &GLOBAL
   PRINT_LEVEL  LOW
   PROJECT_NAME cp2k
   RUN_TYPE  MD
 &END GLOBAL
 &MOTION
   &MD
     ENSEMBLE  NVT
     STEPS  10000
     TIMESTEP     2.4999999999999996E+00
     STEP_START_VAL  2780
     TIME_START_VAL     6.9499999999997017E+03
     ECONS_START_VAL    -1.3043899953808431E+01
     TEMPERATURE     3.0000000000000000E+02
     &BAROSTAT
       PRESSURE     1.0100000000000000E+00
       TIMECON     9.9999999999999982E+03
     &END BAROSTAT
     &THERMOSTAT
       TYPE  CSVR
       &CSVR
         TIMECON     9.9999999999999982E+03
         &THERMOSTAT_ENERGY
              -1.0360875198020297E-01
         &END THERMOSTAT_ENERGY
         &RNG_INIT
Wiener process for Thermostat # 1        1 F T F  -1.3131959561018458E+00        2669265019.0        3715674985.0        3250008760.0        1895244340.0        2765926421.0         580535766.0             12345.0             12345.0             12345.0             12345.0             12345.0             12345.0             12345.0             12345.0             12345.0             12345.0             12345.0             12345.0
         &END RNG_INIT
       &END CSVR
     &END THERMOSTAT
     &AVERAGES  T
       &RESTART_AVERAGES
         ITIMES_START  1
         AVECPU     1.7470945639572601E-02
         AVEHUGONIOT     0.0000000000000000E+00
         AVETEMP_BARO     0.0000000000000000E+00
         AVEPOT    -1.3427949272539466E+01
         AVEKIN     4.3147058621489215E-01
         AVETEMP     2.1887144167467372E+02
         AVEKIN_QM     0.0000000000000000E+00
         AVETEMP_QM     0.0000000000000000E+00
         AVEVOL     6.7483345830900222E+06
         AVECELL_A     1.8897261328855873E+02
         AVECELL_B     1.8897261328855873E+02
         AVECELL_C     1.8897261328855873E+02
         AVEALPHA     9.0000000000000000E+01
         AVEBETA     9.0000000000000000E+01
         AVEGAMMA     9.0000000000000000E+01
         AVE_ECONS    -3.1055824658930034E+00
         AVE_PRESS     0.0000000000000000E+00
         AVE_PXX     0.0000000000000000E+00
       &END RESTART_AVERAGES
     &END AVERAGES
     &PRINT
       &ENERGY  SILENT
         &EACH
           MD  10
         &END EACH
       &END ENERGY
     &END PRINT
   &END MD
   &PRINT
     &TRAJECTORY  SILENT
       &EACH
         MD  10
       &END EACH
     &END TRAJECTORY
     &CELL  SILENT
       &EACH
         MD  10
       &END EACH
     &END CELL
     &VELOCITIES  SILENT
       &EACH
         MD  10
       &END EACH
     &END VELOCITIES
     &FORCES  SILENT
       &EACH
         MD  10
       &END EACH
     &END FORCES
     &RESTART  SILENT
       &EACH
         MD  10
       &END EACH
     &END RESTART
   &END PRINT
 &END MOTION
 &FORCE_EVAL
   METHOD  FIST
   &MM
     &FORCEFIELD
       VDW_SCALE14     1.0000000000000000E+00
       EI_SCALE14     1.0000000000000000E+00
       SHIFT_CUTOFF  T
       DO_NONBONDED  T
       IGNORE_MISSING_CRITICAL_PARAMS  T
       &SPLINE
         R0_NB     2.5000000000000000E-01
       &END SPLINE
       &NONBONDED
         &LENNARD-JONES
           ATOMS Br Br
           EPSILON     1.2630795322675199E+02
           SIGMA     3.6900000000000004E+00
         &END LENNARD-JONES
         &LENNARD-JONES
           ATOMS Cs Pb
           EPSILON     8.6920055954630968E+01
           SIGMA     3.6699999999999999E+00
         &END LENNARD-JONES
         &LENNARD-JONES
           ATOMS Cs Cs
           EPSILON     2.2644852172126850E+01
           SIGMA     4.3300000000000001E+00
         &END LENNARD-JONES
         &LENNARD-JONES
           ATOMS Pb Pb
           EPSILON     3.3363415533600227E+02
           SIGMA     5.9000000000000004E+00
         &END LENNARD-JONES
         &LENNARD-JONES
           ATOMS Br Cs
           EPSILON     5.3481070753900497E+01
           SIGMA     3.6300000000000003E+00
         &END LENNARD-JONES
         &LENNARD-JONES
           ATOMS Br Pb
           EPSILON     2.0528187276773045E+02
           SIGMA     2.9800000000000000E+00
         &END LENNARD-JONES
       &END NONBONDED
       &CHARGE
         ATOM Cs
         CHARGE     4.0230055499999995E-01
       &END CHARGE
       &CHARGE
         ATOM Pb
         CHARGE     8.0460110999999990E-01
       &END CHARGE
       &CHARGE
         ATOM Br
         CHARGE    -4.0230055499999995E-01
       &END CHARGE
     &END FORCEFIELD
     &POISSON
       PERIODIC  XYZ
       &EWALD
         EWALD_TYPE  SPME
         GMAX  62 62 62
         O_SPLINE  4
       &END EWALD
     &END POISSON
     &PRINT
       &FF_INFO  LOW
         SPLINE_INFO  F
         SPLINE_DATA  F
       &END FF_INFO
     &END PRINT
   &END MM
   &SUBSYS
     &CELL
       A     1.0000000000000001E+02    0.0000000000000000E+00    0.0000000000000000E+00
       B     0.0000000000000000E+00    1.0000000000000001E+02    0.0000000000000000E+00
       C     0.0000000000000000E+00    0.0000000000000000E+00    1.0000000000000001E+02
       PERIODIC  XYZ
       MULTIPLE_UNIT_CELL  1 1 1
     &END CELL
     &COORD
Cs    7.1861607719460208E-02    2.2903262524428256E-01   -5.7933131259879467E+00
Cs    2.4657624324827723E-01   -6.4452789976363301E+00   -5.5062667189707071E+00
Cs    7.2295594288959097E-01   -1.2421212974828618E+01   -5.1965642630790985E+00
Cs   -5.8939296076806746E+00   -6.1794605179976196E+00   -4.8178232876165223E+00
Br   -8.0642993798186566E+00   -1.2752551515630975E+01   -8.5819038872602125E+00
Br    1.1457479738931825E+01   -2.1283238259666604E+00   -8.9297312742233537E+00
Br   -2.3459250428428318E+00    2.3964467231773012E+00   -1.1588336900674296E+01
Cs    2.7335208434033936E-01    5.8578368977453623E+00   -6.3758678160431890E+00
Cs    1.3936552879803712E-01   -1.8939165056008259E-01   -3.1345925748702541E-01
Cs    6.7420908444805916E-01   -5.9328898189603461E+00    2.0736543635839491E-01
Br   -5.7698951155887119E+00   -3.1456818722064539E+00    3.7024201104236614E+00
Cs   -1.0833308086400912E+01   -5.1867797810605190E+00    1.2669037925437111E+01
Cs    1.1623553683829510E+01   -1.0816355496291653E+01   -6.2297979321865005E-01
Cs   -6.1805951434775244E+00    4.7997953356022878E+00   -3.4698139458055760E-01
Cs   -7.9484494166689512E-01    1.1713437778787315E+01    6.5415311305706680E-01
Cs   -7.7679739363997768E-01    6.8294752835559711E+00   -6.4818161770037597E-01
Cs    1.6148337136342752E-01    7.3097649479259919E-01    6.6305520213007512E+00
Cs    4.0999418323610837E-01   -5.6085476141755759E+00    6.3349596272374793E+00
Cs    9.3322940994720582E-01   -1.0796398555670647E+01    6.0089494904567191E+00
Cs   -6.3426074542932316E+00    5.7319674483547605E+00    1.2152894863146738E+01
Cs   -5.7076563999582248E+00   -7.4397850497644546E-01   -1.1156719072621271E+01
Cs   -4.9961705181449538E+00   -1.1389935686007133E+01   -5.3755193912935075E+00
Cs   -5.5979064532417997E+00   -1.1361401945640506E-01    6.2349805487783350E+00
Br   -2.8764347725782775E+00   -3.3647291314554670E+00    2.6313474148731159E-01
Cs    3.4088702084254952E-01    6.2971757474111332E+00    5.7335666518581005E+00
Br    1.2066970477460709E+01   -8.1786581622112315E+00   -8.6510913067160029E+00
Cs    1.2113684671865010E+00   -6.1917042497668451E+00    1.1539541587764031E+01
Br   -3.0305592753222208E+00    2.0193563325488084E-01    3.0003036973463235E+00
Br   -8.2503423773028182E+00   -2.5097508019163559E+00    1.2575185311719814E+01
Cs    1.1180852013817148E+01    1.1588890227118664E+01   -7.4126181422943667E+00
Cs   -1.1341948523585893E+01   -5.7205828648533084E+00    6.8796186520377880E+00
Cs   -5.4890460813796178E+00   -5.6708959873066158E+00    6.8068540441021739E+00
Cs   -7.3107594381347942E+00    1.1092900079883094E+01   -6.6217550984414713E+00
Br   -1.1821633707705359E+01   -9.2431972415168335E+00    9.2669779217320354E+00
Br   -9.2280909092921597E+00   -8.7247163630150339E+00    6.5321224999881071E+00
Cs   -1.1122237317560565E+01   -6.3854357218689293E+00   -5.2945726963866582E+00
Cs   -6.3473044203149973E+00    5.3930173099473491E+00   -5.6310558531907633E+00
Br   -8.3024697291951526E+00   -5.4593190448220481E+00    9.9143928019488055E+00
Cs    1.1676104112184278E+01    6.5584193349092370E+00    1.1012551174004573E+01
Br   -1.2009215524379144E+01    8.6829716849140155E+00    8.2262476703422660E+00
Br   -6.0061001874590874E+00   -3.7180790084886288E+00   -2.4236084117590062E+00
Cs    3.0844596949663750E-01    3.7802501272462358E-01    1.1429699617922306E+01
Cs    1.1657362309506693E+01    6.4620836799054509E+00   -6.4504299988757940E-01
Cs   -1.0556387463626132E+01   -6.7802712655210637E+00   -1.1423214009766449E+01
Cs    1.2039471286770702E+01    1.1756601771328825E+00    6.9388331687738765E+00
Cs   -1.2076232853328863E+01    1.0004217181146499E+01   -6.7078290441385349E+00
Cs    1.1928416587226184E+01   -1.1334957717889353E+01    6.4031753138908014E+00
Cs    6.0177981724300116E+00   -5.7497720846844809E+00   -1.2631599886455948E+01
Cs    6.9118260997534664E+00   -1.1531525596276120E+01    6.3305991616182364E+00
Cs   -4.5421882639194138E+00   -1.0981644734067917E+01    7.8001757864595345E-01
Cs    6.6684821196731052E+00   -1.1736783884304829E+01   -1.0758322000441792E+01
Cs    1.2662495628395554E+01    4.6062058012567375E+00   -5.8319042665724128E+00
Cs    1.1386899133061005E+01    1.1722938255697821E+01    5.0550690175300526E+00
Cs    1.0397484742317012E+01    6.2800031870995552E+00   -1.2928910519046831E+01
Cs    4.9337815080008857E-01   -6.7375153286530027E+00   -1.2212912896727712E+01
Cs   -1.1547762985701276E+01    8.6353094419151205E-02   -5.4931806941284256E+00
Cs    6.4113298735157507E+00   -5.6892584941494402E+00    1.1417864058309506E+01
Cs    1.1618758353582708E+01   -5.8037129646454542E+00    5.8767518554447919E+00
Cs   -1.0806371709681770E+01   -1.0922358581998607E+01    1.2350698569169909E+01
Cs    5.6448454160512185E-01   -1.0220034068944333E+00   -1.2000606291265592E+01
Cs    2.4473817652078211E-01    1.1373074007738950E+01    5.7810136397283056E+00
Cs   -3.5427799629723278E-01    5.2777657015450465E+00   -1.1390492680877315E+01
Cs    6.4953669806345804E+00    6.2348230801962790E-01   -5.6335708189189475E+00
Cs    6.7308473072751509E+00   -5.6212238946560014E+00   -6.1547665517474162E+00
Cs   -5.4716576011615556E+00   -1.0983443656502487E+01    6.9775504286259595E+00
Cs   -1.1658902484677302E+01    2.7217570677066172E-01    6.0876633877640929E+00
Cs    6.2135231622353269E+00    6.0262390908427865E-01   -1.1907310992433361E+01
Cs    5.7272216832393115E+00    1.1200074116699067E+01   -1.2822754106247112E+01
Cs   -2.3225115372260993E-01    6.9723998683336248E+00    1.1065431830433131E+01
Cs   -6.2783173555427689E+00    1.1176153274176249E+01    5.5615133697221495E+00
Cs    5.1658029737431272E+00    1.1025466824330895E+01   -6.8173849287604060E+00
Cs    5.3817164193907505E+00    5.6639283826499254E+00   -6.1939235835025714E+00
Cs    5.8982953996908050E+00   -2.4336597657970319E-02   -2.5645103553636767E-01
Cs    6.3542507988118162E+00   -6.0017004282593991E+00    3.8158260968658941E-01
Cs    6.2690455621753429E+00   -1.1494763662500329E+01    7.7132221131406364E-01
Cs    5.0934089364261625E+00    6.1071233247571621E+00   -1.2061520971081572E+01
Cs   -6.3313963982760599E+00    5.7940400002274126E+00    5.1279368130771896E+00
Cs   -4.8619376859813066E+00   -6.6725770435418408E+00   -1.0743789716977377E+01
Cs    5.9625333552547044E+00    6.5322398282756824E+00   -4.5657578962391993E-01
Cs    6.0442753988450564E+00   -2.4055658137860247E-01    5.1770107418370523E+00
Cs    5.6549533990553273E+00   -5.3279651340037280E+00    5.2479356583613459E+00
Cs   -6.1710325334278595E+00    1.0662332858551421E+01   -3.3373672706529456E-01
Cs    1.2020623886298388E+01   -1.9188700178355569E-02   -7.3993953700648762E-01
Cs   -5.4436284145058096E+00   -3.5933665797682829E-01    9.4185257050382476E-01
Cs   -1.1803906167744190E+01    5.7574574116101553E+00    6.7211598047566534E+00
Cs   -5.0607384150971280E+00    6.3090846620988472E-01    1.1257881636504321E+01
Cs    6.1056377478682560E+00    1.1138799070829823E+01    5.3290744759272659E+00
Cs    5.5790765977575871E+00    5.9430438988655707E+00    5.9316654927546981E+00
Cs    6.4260941843182273E+00    1.0553762056961062E+00    1.1392322445950720E+01
Cs    4.9753825992925318E+00    1.1984007564818999E+01   -8.5406460982365229E-01
Cs    1.1904980469840826E+01    1.6806291330679612E-01   -6.2365352353997965E+00
Cs    1.1481081327946937E+01   -5.8367495551313651E+00   -6.4486033009428958E+00
Cs    6.7940650926952353E+00   -1.0872659381297458E+01    1.1098559427549151E+01
Cs    1.0422686043774675E+01    1.2223723604760197E+01   -1.5547301729778051E+00
Cs   -1.0749578850758956E+01    7.8166852495521066E-01    1.3051229856007208E+01
Cs   -5.9681917501935731E+00    5.8091853365574071E+00   -1.2271542248882279E+01
Cs   -1.2003621221995081E+01    1.0754627529736958E+01   -1.1879702328486808E+00
Cs   -5.5778927334854567E+00   -5.7560938989220514E+00    1.1733511486132160E+01
Cs   -5.7982605192355869E+00   -1.1089325028858005E+01    1.1720524991852047E+01
Cs    5.8806874372285369E+00    6.9159093580062470E+00    1.1657590546721401E+01
Cs    1.1349817439575977E+01   -5.5216619723380544E+00   -4.8762973473680599E-01
Cs   -1.0929404519887829E+01   -7.4551487084514756E-01   -1.2930705941990664E-01
Cs   -6.2089063138024407E+00    1.0896664552336473E+01   -1.1691164283251084E+01
Cs   -1.2232238970474373E+01    5.0320372122828978E+00   -4.4375675151944971E-01
Cs   -1.0295671275135497E+01   -1.2346659881038349E+01   -5.4080315714521543E+00
Cs   -1.2401898179240238E+01   -5.8528451579334746E+00    1.2895258359907824E+00
Cs   -6.2712654213630730E+00   -5.4883131866078232E+00    7.5166092411367902E-01
Cs   -1.2196027241578445E+01   -1.1105324804952870E+01    5.9164324508946109E+00
Cs    1.0534862109360819E+01   -4.4743546694180143E+00    1.2378649897099352E+01
Cs    1.0787938659823174E+01    6.5882315911488840E+00    5.2159129493680574E+00
Cs   -1.1748670429805221E+01    5.0744272023488657E+00   -6.0427107471296653E+00
Cs   -5.7355242221046661E+00   -9.1864630020778448E-01   -6.2729093128889417E+00
Cs   -1.0414302130139030E+01   -1.1673493205762385E+01    4.8961853073163891E-01
Cs    1.2440689588086897E+01   -1.1702991709549107E+01   -8.9807054748425568E+00
Cs   -5.2222379454108978E+00   -1.3156565977081405E+01   -1.0542839009571846E+01
Cs    3.0615809832162810E-01    1.0782668237733096E+01   -1.2830552402032934E+01
Cs    2.3056390034708948E-01   -1.1458094925898047E+01   -1.1564552743076346E+01
Cs   -1.1104686528039533E+00    1.1353692967519708E+01   -7.0680533809389363E+00
Cs   -5.9124311658018156E+00    1.1226340049785659E+01    1.1037629323428577E+01
Cs    6.1720895831256162E-01   -1.1806812852476742E+01    4.7226157170307104E-01
Cs   -1.1479360227908677E+01   -2.1495762327319010E-01   -1.1083549457415648E+01
Cs   -1.1062690388531433E+01    1.1211136607900785E+01    5.9930823127619055E+00
Cs    7.0559171235918967E+00   -1.2048445140419805E+01   -5.1092704276199177E+00
Cs    1.0377671458223020E+01    2.7608771920656562E-02   -1.1899389615334746E+01
Cs    7.2655212070149500E-01    1.2478531381854754E+01    1.0700784756492121E+01
Pb    3.0643583530865368E+00   -2.8671809100260557E+00   -3.2012486434199250E+00
Pb    3.5911611187361134E+00   -9.2148357188605363E+00   -2.8505814639076941E+00
Pb   -8.6342679857669609E+00   -3.2016590197018928E+00    3.5643818746670735E+00
Pb   -2.3790800514293502E+00   -8.6798584582714291E+00   -2.4100932082069564E+00
Pb    2.2819702018134982E+00    8.9010097769926588E+00   -3.4214893729034555E+00
Pb    2.8965653260168076E+00    3.1156084584643744E+00   -2.9393880551893616E+00
Pb    3.0558615675203935E+00   -2.5437352026398794E+00    2.5846813085785563E+00
Pb    3.4415833720102693E+00   -8.7644568359558175E+00    3.1131126655718133E+00
Pb   -3.3594948352223071E+00    8.9970607886815372E+00    2.8928057832561933E+00
Pb    2.4066032108252027E+00    9.1819151507668924E+00    2.4301503978913006E+00
Pb    3.0742535919439069E+00    3.2620473082526842E+00    2.8078380813988080E+00
Pb    2.9888434982574754E+00   -2.7189649952755230E+00    9.1949887170069129E+00
Pb    3.7962833134774150E+00   -8.6079579226519485E+00    8.9571624176271829E+00
Pb   -3.1495086619968866E+00    3.3874648025476253E+00    3.2469104471899652E+00
Pb    2.9734551261819067E+00    9.0348707958361931E+00    8.4194747079072201E+00
Pb    3.1300257323590452E+00    3.2136429465545180E+00    9.1374516450999970E+00
Pb   -2.8261501170631247E+00   -2.7919723481687622E+00    9.7419230372773189E+00
Pb   -9.0510535647676225E+00   -9.0578951134851469E+00    3.5682664517390363E+00
Pb   -8.9333619204786672E+00    2.1117870142681761E+00   -2.8710574715061603E+00
Pb   -3.0427737769473366E+00   -3.1536942128645755E+00   -8.5576936523905456E+00
Pb   -2.9705144851643497E+00   -9.0721360662408106E+00    3.7590345438101362E+00
Pb   -3.8678375420562299E+00    8.7530996211172720E+00   -3.0942085439557605E+00
Pb   -2.3512731093365882E+00   -8.6426920722756684E+00    9.6316747566021679E+00
Pb   -9.0457981255785835E+00   -3.8652620176294725E+00   -2.6229683191316617E+00
Pb   -8.1008882699471378E+00   -9.5800499175319125E+00   -2.2032766366378613E+00
Pb   -3.4265589434003347E+00    2.9366718587871072E+00   -2.6638075336123008E+00
Pb   -8.6696934306732096E+00   -8.5624374608120224E+00    9.3604200078095854E+00
Pb   -8.8333230792878670E+00   -3.7744901239344446E+00   -8.7088742730999531E+00
Pb    8.5969839237361683E+00   -2.7393409193367013E+00   -9.0552668765885507E+00
Pb    9.2993557340811108E+00   -8.5903601309020718E+00   -8.9420561984390208E+00
Pb   -2.7291276969403988E+00   -9.3807620072393636E+00   -8.2622846700844228E+00
Pb   -9.6002496548082554E+00    7.8330401102173113E+00   -9.5009949392886064E+00
Pb    2.6775484919249579E+00   -3.2833935869414703E+00   -9.2156241608381055E+00
Pb    3.2393183585568814E+00   -9.1751094301105045E+00   -9.2771297048377459E+00
Pb   -2.9769835127691211E+00    2.5384734016344241E+00   -8.7406655833651659E+00
Pb    2.6929446160754975E+00    8.6282392062015596E+00   -9.2622786294191481E+00
Pb    2.8683546791107908E+00    2.7462515002171615E+00   -8.8147432782969606E+00
Pb    8.9845647741379757E+00   -2.3129292439867744E+00   -3.1831544762244692E+00
Pb    9.4188352369528481E+00   -8.2039890845294234E+00   -2.9276145877104152E+00
Pb   -8.7346551707449667E+00   -2.7795491019969738E+00    9.4966073670754625E+00
Pb    8.4608776696566892E+00    9.0850129951898833E+00   -1.0012502699973577E+01
Pb   -8.7516429683990271E+00    2.1218715659832421E+00   -8.8052247387011757E+00
Pb   -3.1221226903197703E+00    9.2054718178421044E+00    8.5266863903313830E+00
Pb    8.4358475502880310E+00    9.3433630739303624E+00   -4.0811139308340358E+00
Pb    8.8219667554437873E+00    3.3971090434190505E+00   -3.2946441266436315E+00
Pb    9.0940728783863349E+00   -2.4765850419858024E+00    2.5777018162065892E+00
Pb    9.3101619407291754E+00   -8.6614743067819155E+00    3.0315262181094309E+00
Pb    8.7318012166005801E+00    3.2781052397335597E+00   -9.1129571317118536E+00
Pb   -2.8240259089727608E+00    3.3052777128134982E+00    8.9383895741504560E+00
Pb    8.2589411564695148E+00    9.4779277374256132E+00    1.9986028825820092E+00
Pb    8.7895829702852897E+00    3.6371462182565786E+00    2.8933994511225758E+00
Pb    9.1062681737044731E+00   -2.7281169211647738E+00    8.3609882101628372E+00
Pb    9.6430824650957483E+00   -8.6717447431914927E+00    8.9678363484360446E+00
Pb    9.0551718247875073E+00    9.3817980090891435E+00    8.3456911762920818E+00
Pb    8.9550196809340949E+00    3.3258245976684599E+00    8.6390953029932493E+00
Pb   -8.8854558986443664E+00    2.8361889158977425E+00    8.9461928255041716E+00
Pb   -2.7401545839542236E+00   -2.8718647060310194E+00    3.5614642331897204E+00
Pb   -9.0692501451716776E+00    8.6098647423124657E+00    2.2565880344867653E+00
Pb   -9.5493838294154649E+00    7.9825205734036668E+00   -3.6805776543728861E+00
Pb   -8.6539403259989136E+00   -9.6896247938914168E+00   -8.2338824748000263E+00
Pb   -3.4825306244074916E+00    8.4367176725462318E+00   -9.2998605170601589E+00
Pb   -8.8515376708257598E+00    2.7281460005705940E+00    2.9077552742329877E+00
Pb   -9.2647843905960343E+00    8.7838238249106624E+00    8.6765764583190244E+00
Pb   -3.0730937056492382E+00   -2.9884871194518481E+00   -2.6306040403967828E+00
Br   -1.2453448730830105E-01   -2.8077221846860341E+00   -2.7280323048404265E+00
Br    2.5233019558156404E+00   -2.7422739604574011E+00   -6.2070949836484379E+00
Br    2.6846918707315304E+00    2.6044471217224219E-01   -3.3365393354490154E+00
Br    6.9958399527645276E-01   -8.5781696585574831E+00   -2.4859030674136990E+00
Br    3.0873535781927641E+00   -1.0226385476005087E+01   -5.6730772010861417E+00
Br    3.4743300981393315E+00   -6.2354880084753725E+00   -3.1793917350167167E+00
Br   -2.9652342853210749E+00   -3.0737251481753440E+00   -5.4862718574499780E+00
Br   -8.0464174818843741E+00   -2.9833139208992270E+00    6.5495190636916334E+00
Br   -3.4735703250155265E+00   -1.3449081068321813E-02   -2.3589759515602839E+00
Br    3.5794274752764856E+00   -1.2102896531833442E+01   -1.9216122417589840E+00
Br    1.1885377652274496E+01   -2.3976258989205146E+00    1.5387008472259693E+00
Br   -5.2961987747946822E+00   -8.9107211063300049E+00   -2.0464714873867957E+00
Br   -1.1674345249343338E+01   -3.2350989902883427E+00    3.9492088624252339E+00
Br   -9.1466819142805651E+00   -3.7442461783708709E+00    3.0718369125497702E-01
Br    1.2239344671567213E+01   -9.4385547198553326E+00    2.7167571828848764E+00
Br   -9.7087291670880171E-01    8.9592512407324563E+00   -3.0307244905733635E+00
Br    2.4887074574767789E+00    8.7411773629258445E+00   -6.2939505196870202E+00
Br    2.7897705763821632E+00    1.1623771691225768E+01   -3.5888832379367144E+00
Br   -2.1887388043326353E-01    3.0403357630923562E+00   -2.4683871419431642E+00
Br    2.6737945516271089E+00    3.2860390023340180E+00   -5.8993746912357237E+00
Br    2.4568692785861508E+00    6.1249473915934995E+00   -3.5847072746536388E+00
Br    2.1379185871798045E-01   -2.4038512425291705E+00    2.4580565347504018E+00
Br    3.0859547288009153E+00   -2.8526887869489528E+00   -3.9553259854005612E-01
Br    3.4180604481777044E+00    3.1930209815760630E-01    2.8658688349029444E+00
Br    5.3969769824559333E-01   -8.8666266816352355E+00    3.3325557952270519E+00
Br    3.9922253675028121E+00   -8.9406555267610788E+00    1.0476977345182713E-01
Br    3.3438645509417917E+00   -5.5449758612764093E+00    2.5311867430609665E+00
Br   -6.4011702351841970E+00    8.1228961236191708E+00   -9.2572581533232601E+00
Br   -3.6034128887978598E+00    8.7548681177587060E+00   -1.2391024367805677E+01
Br    3.7357307954671382E+00   -1.1729076831501036E+01    2.9429637373825051E+00
Br   -3.4066665276200649E+00    1.1663919462908110E+01   -9.6773248604117139E+00
Br   -3.3645191768925393E+00    5.4614317068911236E+00   -9.0897754344269526E+00
Br   -8.4070489080582096E+00   -4.6382601811208618E-01    3.4019900710693620E+00
Br   -2.2578115622151715E+00   -9.7048985879094047E+00   -5.4003767154683811E+00
Br   -6.0030658287680589E+00    8.2859670646491139E+00    2.3159514526866980E+00
Br   -3.3379835091030294E+00    8.9866232126902208E+00   -3.8904510322613423E-01
Br   -3.5813616069329051E+00    1.1811920791346362E+01    2.1216925140514586E+00
Br   -3.8940269366531710E-01    9.4644632140619009E+00    2.9933176900173248E+00
Br    2.3804992057332655E+00    8.7198999218661335E+00   -5.0549557165258829E-01
Br    2.3119678057244788E+00    1.1729946491772184E+01    1.3354735197117646E+00
Br    1.1733731924356086E-01    3.1785359097444146E+00    3.7608804050095830E+00
Br    3.2635788839768956E+00    2.9179501252536024E+00   -1.7207358737088801E-01
Br    2.5104575035807843E+00    6.3154410982936717E+00    2.5709182528161088E+00
Br    2.1813204591190749E-01   -2.9965261536159180E+00    9.7075759276825142E+00
Br    2.8965498712924291E+00   -2.5554829766357665E+00    5.6886500684174433E+00
Br    2.7241164284576795E+00    1.8116432860868301E-01    9.0731842169529759E+00
Br    9.2336351944395600E-01   -8.9430621099509828E+00    9.6833199124699831E+00
Br    3.2649056871276581E+00   -8.2967197971226430E+00    5.8900706407114995E+00
Br    3.3235125251917039E+00   -5.6738400568164318E+00    8.8937527132265508E+00
Br   -1.1539971045876593E+01    2.0554329877840507E+00    3.1862131176232391E+00
Br   -8.6546315833181371E+00    2.0744493025468946E+00   -3.2743584509115568E-02
Br    4.0244527678814705E+00   -1.1314672190600257E+01    8.6204687469881449E+00
Br   -8.8313251923295439E+00    5.6093789946904478E+00    2.4222909873826621E+00
Br   -9.0056856908134044E+00   -1.7916636560864233E-02    9.1371164946017629E+00
Br   -2.3284334263836302E+00   -5.9773639749932022E+00   -2.6709684964810432E+00
Br   -5.9763640983300279E+00    3.0599837603536675E+00    2.7906331500083619E+00
Br   -2.8568444453523067E+00    3.1341693053683803E+00    1.9974001229517685E-01
Br   -2.6691743456675368E+00    6.0202610171645645E+00    3.5135760585041274E+00
Br   -1.4109324014723018E-01    9.0994405380040835E+00    8.1922830136749365E+00
Br    2.8486418022853401E+00    8.8805512605419654E+00    5.4825085414211765E+00
Br    2.8173876004281047E+00    1.1896239611229529E+01    8.0591724480276010E+00
Br    2.5695036525589987E-01    3.1054407753480056E+00    8.9520233984579871E+00
Br    3.0045945300421657E+00    3.0602965721365347E+00    6.0948952911252352E+00
Br    2.6855204723776498E+00    6.1040277115207280E+00    8.5352388696116233E+00
Br   -5.7690783648483643E+00   -2.7809850282668060E+00    9.5480634350821632E+00
Br    3.6495996983515604E+00   -2.5034371979857597E+00    1.1899299873782855E+01
Br   -2.8908183289836709E+00   -3.2259065586549869E+00    6.7650209332949762E+00
Br   -2.6305571681592630E+00    2.9126865809816038E-01    9.0216039195315929E+00
Br   -2.1468415349004570E+00   -1.1492852003331040E+01   -2.1002353266337952E+00
Br    4.3067092762706247E+00   -8.5015806263683196E+00    1.1870166046402190E+01
Br   -1.1745190838578189E+01    1.8105757343484816E+00   -2.6244050505592349E+00
Br   -2.5579047363601997E+00   -1.1930357767474229E+01    3.3646332064490116E+00
Br   -1.1775069357253075E+01   -4.0343739425818352E+00   -2.6417035561427267E+00
Br    2.8726502108392529E+00    9.9845464761162113E+00    1.1400696912567867E+01
Br   -8.8546430459641847E+00   -4.0654461767166969E+00   -5.5506721341054543E+00
Br   -8.9624787641353976E+00   -9.8520843072594222E-01   -2.7213879100810217E+00
Br    3.9741835216711374E+00    3.6980148324363040E+00    1.2132313679090947E+01
Br   -6.4260770231024429E+00    7.8226536644424671E+00   -3.4155083490636735E+00
Br   -3.6484653492167762E+00    8.5042729610145571E+00   -6.4077569612195111E+00
Br   -4.6324284056889766E+00    1.1745901163275532E+01   -3.5304867201295438E+00
Br   -6.1722990960055890E+00    2.7998624090572473E+00   -2.8781468450853840E+00
Br   -1.1896397236784448E+01   -8.3466571611540985E+00    3.8054862936221650E+00
Br   -2.7242113709646967E+00    2.7100864466878947E+00   -5.6173077682042809E+00
Br   -5.7973172515895435E+00   -3.8349842652596791E+00   -8.1153719173441523E+00
Br   -3.2072920856728717E+00   -3.3830780726714726E+00   -1.1431413023622769E+01
Br   -2.9253747023341830E+00   -3.2102837896625641E-01   -8.4521677320342068E+00
Br   -3.7218819535694054E+00    3.9232038664495374E+00    1.1750185895473074E+01
Br   -5.5933741750960069E+00   -8.0393936509149775E+00    9.0459999860717968E+00
Br   -2.2903748730534081E+00   -8.5901395997466032E+00    6.6516325047866065E+00
Br   -2.3436246671542289E+00   -5.7515247049235292E+00    1.0558296902058970E+01
Br   -8.7760862088967446E+00   -8.7845631257905943E+00    7.3289010028246693E-01
Br   -8.4517254468413938E+00   -6.1815743208733913E+00    3.6802112173154753E+00
Br   -8.8002041168561842E+00    8.6118197953641769E+00    1.1773032920821713E+01
Br    1.0846789926709057E+01    1.1285753962431524E+01    1.6157935494942124E+00
Br   -8.9398661917560975E+00   -8.2200971913984642E+00    1.2163117351360100E+01
Br    1.1425451168633074E+01    1.0085995365110175E+01   -3.9336246190142452E+00
Br    1.1940984138108407E+01    4.7146859290539362E+00    2.9865545989766216E+00
Br   -8.3229578470122796E+00    2.4791588316979989E+00    1.1576855017619215E+01
Br   -1.1613738108804444E+01   -3.2872753675181623E+00   -9.5693531465946577E+00
Br    1.1922604803755638E+01   -2.3441863118561828E+00    8.0831650012483252E+00
Br   -5.9265159993595793E+00   -9.2945958806835787E+00    3.9707618059250964E+00
Br    5.8386013680475699E+00   -3.3693830429202318E+00   -8.9784585582992325E+00
Br    8.2567855879680181E+00   -2.5117012124930338E+00   -1.2216247682515212E+01
Br    1.2204898613140170E+01   -8.2831205270063428E+00    7.8543492864056930E+00
Br    8.3043871634124393E+00    3.9117525566783512E-01   -9.4064976679055796E+00
Br   -8.1651270843386019E+00   -1.1266198540842412E+01    9.5142357223170251E+00
Br   -2.4926154967016365E+00   -8.3303860404178796E+00    5.3477102369401552E-01
Br   -2.6301202133359545E+00   -5.9898228548931272E+00    3.9113671229697378E+00
Br    6.2007285650361146E+00   -8.5978717279608805E+00   -9.1944580982220110E+00
Br   -5.6730141653076123E+00   -9.4653391238108799E+00   -8.5078171330009535E+00
Br    9.3354314393243349E+00   -9.5746488872035744E+00   -1.1742294496465117E+01
Br    9.1663830752144921E+00   -5.7109666303252222E+00   -8.7650614946941019E+00
Br   -3.1021348887444096E+00   -1.1379113996804790E+01    9.2616857748292425E+00