 # Version information for this restart file 
 # current date 2021-06-17 12:47:39.568
 # current working dir /user/ub2042/exercises/2_fitting/MM_MD_workdir/md_settings.006
 # Program compiled at                              Thu Apr 22 21:44:59 EDT 2021
 # Program compiled on                cpn-k07-07-02.compute.cbls.ccr.buffalo.edu
 # Program compiled for                                                    local
 # Source code revision number                                       git:36754bb
 &GLOBAL
   PRINT_LEVEL  LOW
   PROJECT_NAME cp2k
   RUN_TYPE  MD
 &END GLOBAL
 &MOTION
   &MD
     ENSEMBLE  NVT
     STEPS  10000
     TIMESTEP     2.4999999999999996E+00
     STEP_START_VAL  1000
     TIME_START_VAL     2.5000000000000191E+03
     ECONS_START_VAL    -1.3043899953808431E+01
     TEMPERATURE     3.0000000000000000E+02
     &BAROSTAT
       PRESSURE     1.0100000000000000E+00
       TIMECON     9.9999999999999982E+03
     &END BAROSTAT
     &THERMOSTAT
       TYPE  CSVR
       &CSVR
         TIMECON     9.9999999999999982E+03
         &THERMOSTAT_ENERGY
              -3.5093364151400630E-02
         &END THERMOSTAT_ENERGY
         &RNG_INIT
Wiener process for Thermostat # 1        1 F T F   1.0152681475302341E+00        4151329329.0        2923023059.0        3467513410.0         632595511.0         113404566.0        2008274716.0             12345.0             12345.0             12345.0             12345.0             12345.0             12345.0             12345.0             12345.0             12345.0             12345.0             12345.0             12345.0
         &END RNG_INIT
       &END CSVR
     &END THERMOSTAT
     &AVERAGES  T
       &RESTART_AVERAGES
         ITIMES_START  1
         AVECPU     1.7501027609221651E-02
         AVEHUGONIOT     0.0000000000000000E+00
         AVETEMP_BARO     0.0000000000000000E+00
         AVEPOT    -1.3446207783474206E+01
         AVEKIN     4.1648682491615946E-01
         AVETEMP     2.1127065139616923E+02
         AVEKIN_QM     0.0000000000000000E+00
         AVETEMP_QM     0.0000000000000000E+00
         AVEVOL     6.7483345830898909E+06
         AVECELL_A     1.8897261328856308E+02
         AVECELL_B     1.8897261328856308E+02
         AVECELL_C     1.8897261328856308E+02
         AVEALPHA     9.0000000000000000E+01
         AVEBETA     9.0000000000000000E+01
         AVEGAMMA     9.0000000000000000E+01
         AVE_ECONS    -2.7450482620741825E+00
         AVE_PRESS     0.0000000000000000E+00
         AVE_PXX     0.0000000000000000E+00
       &END RESTART_AVERAGES
     &END AVERAGES
     &PRINT
       &ENERGY  SILENT
         &EACH
           MD  10
         &END EACH
       &END ENERGY
     &END PRINT
   &END MD
   &PRINT
     &TRAJECTORY  SILENT
       &EACH
         MD  10
       &END EACH
     &END TRAJECTORY
     &CELL  SILENT
       &EACH
         MD  10
       &END EACH
     &END CELL
     &VELOCITIES  SILENT
       &EACH
         MD  10
       &END EACH
     &END VELOCITIES
     &FORCES  SILENT
       &EACH
         MD  10
       &END EACH
     &END FORCES
     &RESTART  SILENT
       &EACH
         MD  10
       &END EACH
     &END RESTART
   &END PRINT
 &END MOTION
 &FORCE_EVAL
   METHOD  FIST
   &MM
     &FORCEFIELD
       VDW_SCALE14     1.0000000000000000E+00
       EI_SCALE14     1.0000000000000000E+00
       SHIFT_CUTOFF  T
       DO_NONBONDED  T
       IGNORE_MISSING_CRITICAL_PARAMS  T
       &SPLINE
         R0_NB     2.5000000000000000E-01
       &END SPLINE
       &NONBONDED
         &LENNARD-JONES
           ATOMS Br Br
           EPSILON     1.2630795322675199E+02
           SIGMA     3.6900000000000004E+00
         &END LENNARD-JONES
         &LENNARD-JONES
           ATOMS Cs Pb
           EPSILON     8.6920055954630968E+01
           SIGMA     3.6699999999999999E+00
         &END LENNARD-JONES
         &LENNARD-JONES
           ATOMS Cs Cs
           EPSILON     2.2644852172126850E+01
           SIGMA     4.3300000000000001E+00
         &END LENNARD-JONES
         &LENNARD-JONES
           ATOMS Pb Pb
           EPSILON     3.3363415533600227E+02
           SIGMA     5.9000000000000004E+00
         &END LENNARD-JONES
         &LENNARD-JONES
           ATOMS Br Cs
           EPSILON     5.3481070753900497E+01
           SIGMA     3.6300000000000003E+00
         &END LENNARD-JONES
         &LENNARD-JONES
           ATOMS Br Pb
           EPSILON     2.0528187276773045E+02
           SIGMA     2.9800000000000000E+00
         &END LENNARD-JONES
       &END NONBONDED
       &CHARGE
         ATOM Cs
         CHARGE     4.0230055499999995E-01
       &END CHARGE
       &CHARGE
         ATOM Pb
         CHARGE     8.0460110999999990E-01
       &END CHARGE
       &CHARGE
         ATOM Br
         CHARGE    -4.0230055499999995E-01
       &END CHARGE
     &END FORCEFIELD
     &POISSON
       PERIODIC  XYZ
       &EWALD
         EWALD_TYPE  SPME
         GMAX  62 62 62
         O_SPLINE  4
       &END EWALD
     &END POISSON
     &PRINT
       &FF_INFO  LOW
         SPLINE_INFO  F
         SPLINE_DATA  F
       &END FF_INFO
     &END PRINT
   &END MM
   &SUBSYS
     &CELL
       A     1.0000000000000001E+02    0.0000000000000000E+00    0.0000000000000000E+00
       B     0.0000000000000000E+00    1.0000000000000001E+02    0.0000000000000000E+00
       C     0.0000000000000000E+00    0.0000000000000000E+00    1.0000000000000001E+02
       PERIODIC  XYZ
       MULTIPLE_UNIT_CELL  1 1 1
     &END CELL
     &COORD
Cs    3.3667568083617222E-01   -7.5714472402013744E-01   -5.4251417515348388E+00
Cs   -4.1907473479566809E-01   -5.8817060290967706E+00   -5.3601540135930739E+00
Cs    5.7699852146995100E-02   -1.1255823504745921E+01   -5.2593356203193693E+00
Cs   -5.6661674965989661E+00   -5.6112407908545752E+00   -6.8606059001068100E+00
Br   -8.6373556280640766E+00   -1.2466043717451733E+01   -8.1812059669964778E+00
Br    1.1925231400907249E+01   -2.4537391097234429E+00   -8.7307765374775990E+00
Br   -1.9896429336792134E+00    2.5785524333221135E+00   -1.2146898791451344E+01
Cs   -1.5199837665012453E-01    5.5423980988974604E+00   -5.6213801707585684E+00
Cs    7.3601907044998902E-02    5.6270960116620833E-02    2.5856945971145140E-01
Cs    3.9423696188473667E-01   -5.4848115952977228E+00    8.3294558690854656E-02
Br   -5.9578436671636430E+00   -3.2638605706333368E+00    2.4459700031884064E+00
Cs   -1.0449111045733231E+01   -5.9361901435492577E+00    1.2671744952928737E+01
Cs    1.0883058931830750E+01   -1.2467676746625097E+01    5.6994015153803168E-01
Cs   -6.0547440110894497E+00    5.4843249885391501E+00   -3.6275788999398711E-01
Cs    5.2301969681803484E-01    1.1417864180090463E+01   -5.9749201299047672E-01
Cs   -1.4705539390151681E-01    5.9234072170172203E+00    4.5996579729680120E-01
Cs    2.3239970730335421E-01   -1.5795685561057546E-01    6.3738409759652024E+00
Cs    4.5939677841290760E-01   -5.3084709736504712E+00    5.5092320450976962E+00
Cs    5.6954374218352910E-01   -1.1195426435033438E+01    6.2230452878561184E+00
Cs   -6.6500089558266700E+00    6.4972284026946454E+00    1.2207767112380877E+01
Cs   -4.6147478221926770E+00   -6.8028536189459948E-02   -1.1824396165883504E+01
Cs   -5.2501156194866363E+00   -1.1207286983401334E+01   -6.1836933220405976E+00
Cs   -5.3453731970420897E+00    6.5253298299513718E-01    5.9945944190054554E+00
Br   -3.3076950258817521E+00   -3.0724291982230634E+00    1.2866490586717508E-01
Cs   -3.4565454846794857E-01    6.3547164216523990E+00    5.4278540344051578E+00
Br    1.1896415148538019E+01   -8.6759453543810654E+00   -8.6053936936089919E+00
Cs   -1.3567813983309626E-01   -5.3668740791202474E+00    1.1305319152761296E+01
Br   -2.5971003462448112E+00   -3.5535516163774894E-01    2.8913483544122016E+00
Br   -7.8628089944728456E+00   -3.2605865179913041E+00    1.1982303157327578E+01
Cs    1.0874676898546273E+01    1.1611950542620660E+01   -6.2122469447530539E+00
Cs   -1.0207523533031198E+01   -5.9483127136179235E+00    5.9471735804907642E+00
Cs   -5.8816169206378213E+00   -5.9250757983037143E+00    6.0576038454350680E+00
Cs   -6.6239138690436956E+00    1.1239638696223212E+01   -6.0035263975481330E+00
Br   -1.1611771659943608E+01   -8.6194707902147680E+00    8.8231998392092343E+00
Br   -8.8866422930046909E+00   -8.9349090166930782E+00    5.8756671902982918E+00
Cs   -1.2008793375782465E+01   -5.9211952215755064E+00   -5.6408138980878695E+00
Cs   -6.7386153148141892E+00    5.3215254505438629E+00   -6.5198075236587565E+00
Br   -8.3707633082592761E+00   -5.6210041845617011E+00    9.1252621814720225E+00
Cs    1.0901698607192229E+01    6.0310033887265089E+00    1.1457261905840545E+01
Br   -1.1821118699793811E+01    8.8681015473559750E+00    7.9673555995517491E+00
Br   -6.0152263190191322E+00   -3.2751217795614407E+00   -3.1950392206132627E+00
Cs    5.1942435092048200E-01    5.9777081546180189E-01    1.1716081743794883E+01
Cs    1.1815979474324827E+01    5.4505379079722722E+00   -3.6396826751143968E-01
Cs   -1.1133672997257975E+01   -6.4085880595703024E+00   -1.1318655616706730E+01
Cs    1.1798174861742472E+01    2.4898264602831799E-01    5.6510675099560359E+00
Cs   -1.1698230558413604E+01    1.0606664806172123E+01   -6.4077221807657399E+00
Cs    1.1553275557696125E+01   -1.1611210247090028E+01    7.2498312713045614E+00
Cs    5.2812956001304716E+00   -6.0196990169107831E+00   -1.1667450128465138E+01
Cs    5.6272017363811191E+00   -1.1210947131849011E+01    5.4436605832068858E+00
Cs   -5.8827258037943162E+00   -1.1977120787078112E+01   -6.5614544591480162E-01
Cs    6.6160723545851576E+00   -1.1503646101459429E+01   -1.1256957378916070E+01
Cs    1.1598519155124126E+01    6.9566908015281665E+00   -5.6364347871019334E+00
Cs    1.1395597081530193E+01    1.1742419787582277E+01    5.3355059996090297E+00
Cs    1.0663549437067415E+01    5.0314320664638146E+00   -1.2574833184297935E+01
Cs   -2.6048661263968120E-01   -5.4378421339591938E+00   -1.1024852233110803E+01
Cs   -1.1983189900480633E+01   -1.4833207487456017E+00   -5.4837838344050001E+00
Cs    5.9912278883093757E+00   -5.4821902508577214E+00    1.0859080572161512E+01
Cs    1.1010844593348279E+01   -5.9407154582534325E+00    6.1937340328986163E+00
Cs   -1.0230451445927642E+01   -1.1780181893619554E+01    1.2054656554936951E+01
Cs   -1.8709596922947966E-01    1.6720755806513204E-01   -1.1152220467219028E+01
Cs    3.9230903261223676E-01    1.2679866748885344E+01    6.7403430700377571E+00
Cs   -3.4926574231892188E-01    5.7909174206074390E+00   -1.1032565581617614E+01
Cs    6.1261517038214155E+00   -3.1580999183411873E-01   -5.7176987662914165E+00
Cs    5.8503538730679141E+00   -6.4442297283930836E+00   -6.5092922303369329E+00
Cs   -5.1456909731794838E+00   -1.1780335362463951E+01    5.9467449662848475E+00
Cs   -1.1438053335427547E+01    5.4232939541741720E-01    6.9136543758037030E+00
Cs    5.4820593215456332E+00    8.0251297118675256E-03   -1.1121745794117617E+01
Cs    5.6878252954684410E+00    1.0692395806002004E+01   -1.1433763911776643E+01
Cs    3.0813382105776815E-01    6.6129239611852784E+00    1.1270999544226694E+01
Cs   -4.8371720493713122E+00    1.1816760272486365E+01    6.3197530666405006E+00
Cs    5.5351439152382840E+00    1.0964290601119249E+01   -5.1945106640450245E+00
Cs    5.6800879519266410E+00    5.2423899122068569E+00   -6.5085201855903101E+00
Cs    6.5060511676778541E+00   -1.2516983555035682E-01   -3.3828042567753380E-01
Cs    5.8743640562380399E+00   -5.4330088610395562E+00    2.9152004884264560E-01
Cs    6.2328310099474473E+00   -1.0709925875407070E+01    2.2858920898569512E-01
Cs    5.6368656699246191E+00    5.4536617237996579E+00   -1.1334857982020793E+01
Cs   -5.7223132040214146E+00    6.2746417290381009E+00    5.8735497021628991E+00
Cs   -5.4871614978597778E+00   -6.9256253880601149E+00   -1.2528634491978472E+01
Cs    5.6359285859644546E+00    6.2081887976862076E+00   -5.4890476749506290E-01
Cs    6.8406776373346201E+00    3.6291465822025998E-01    6.4777910784645742E+00
Cs    5.8745956616809609E+00   -5.9142470038916768E+00    5.8161648361348224E+00
Cs   -6.1243159100049684E+00    1.1063058514322650E+01   -3.6424515738013641E-01
Cs    1.1601988086805584E+01    3.4538431734300273E-01    5.7797704248073900E-01
Cs   -6.2331104051539352E+00   -4.6531942143165000E-01    3.4577097992975053E-01
Cs   -1.1663556300528899E+01    6.2954986231874672E+00    5.9930046610375909E+00
Cs   -5.3679724529190862E+00   -4.2519060082147575E-01    1.2111258212865147E+01
Cs    5.4571486918352337E+00    1.2462141796433462E+01    6.4571117445723853E+00
Cs    6.6203491173995328E+00    5.7123878710074134E+00    5.5012077909483770E+00
Cs    6.4425197224288162E+00    9.3038957960598689E-01    1.1347222439458886E+01
Cs    6.3261891108894055E+00    1.1932181288853043E+01    2.7351405629903108E-01
Cs    1.1084676723961671E+01   -3.3522587349323890E-01   -6.1520482598367652E+00
Cs    1.1772634995741457E+01   -5.8065722249410801E+00   -6.4189472047798217E+00
Cs    6.0311859738053553E+00   -1.0853352440874133E+01    1.1202686240041448E+01
Cs    1.2004863457100479E+01    1.1466925883993374E+01   -6.1447756879377806E-02
Cs   -1.0244182897508527E+01   -3.5062249980386340E-01    1.2740253230654888E+01
Cs   -6.1721264512290386E+00    5.5405056404868622E+00   -1.1809857763631852E+01
Cs   -1.2210540735222569E+01    1.0917172327048196E+01   -2.1410830650168095E-02
Cs   -5.5719677703194064E+00   -5.3430737511767381E+00    1.1478046024122174E+01
Cs   -4.7730189084761179E+00   -1.0863464942658370E+01    1.1520830806812958E+01
Cs    6.0266165394828732E+00    7.0637038452292691E+00    1.1811240907740967E+01
Cs    1.1736893428240394E+01   -6.1296229665564317E+00   -1.3709619643841295E+00
Cs   -1.1551435141799560E+01   -4.3286016097490665E-01   -4.6121396173190632E-01
Cs   -6.2392131438229814E+00    1.0761849980421424E+01   -1.1685249222285526E+01
Cs   -1.1396896363532575E+01    5.2428593493244682E+00   -4.1721523891770301E-01
Cs   -1.1777810242892608E+01   -1.1374747754842456E+01   -6.5123369987158695E+00
Cs   -1.2020456973292916E+01   -5.8992523452444283E+00    8.7305553261815705E-01
Cs   -5.9486189041817497E+00   -5.7112720319562591E+00   -1.2197017557400279E-01
Cs   -1.2029710381168181E+01   -1.1173851217641751E+01    6.6582984945162700E+00
Cs    1.1749046873255288E+01   -5.9712446439237343E+00    1.1639288355596278E+01
Cs    1.1115438835974643E+01    6.4671403775497538E+00    5.6288692450104971E+00
Cs   -1.1361324578773534E+01    5.0551119695863456E+00   -5.8825345303423893E+00
Cs   -5.8709703122111758E+00   -1.7186730833373698E-01   -5.9092660676115480E+00
Cs   -1.0618815799365292E+01   -1.1956048389120928E+01    3.3637589960699832E-01
Cs    1.2651078644436629E+01   -1.1310279533955793E+01   -1.0174066301448754E+01
Cs   -1.0945655070308183E+01   -1.1463258655994665E+01   -1.3147699869412259E+01
Cs   -8.0486562691196073E-01    1.1191542533391335E+01   -1.1191893869009206E+01
Cs    7.9181339860483657E-01   -1.1410337273255479E+01   -1.1354555357835149E+01
Cs   -3.9428384147090023E-01    1.0700531248933006E+01   -6.2436371680198404E+00
Cs   -1.1672131468239076E+01    1.1113402671050466E+01    1.0489824219785858E+01
Cs    1.3653049658624944E-01   -1.1400306885295313E+01    4.9137468279425717E-01
Cs   -1.1769870695444903E+01    1.3558429692497498E-01   -1.1173270796633705E+01
Cs   -1.1047060779774805E+01    1.1830411190973274E+01    5.1268064443608896E+00
Cs    5.9562551108650581E+00   -1.1771800003031519E+01   -5.4299461197831027E+00
Cs    1.1700364514546383E+01   -5.6233324529649786E-01   -1.1427258041797101E+01
Cs    5.3409247560829720E-01    1.1378988091545137E+01    1.1883477698589680E+01
Pb    3.1283369026135968E+00   -2.9761772818448944E+00   -2.9770586971841166E+00
Pb    3.1686289643617873E+00   -8.9458460081016682E+00   -2.9267738633650513E+00
Pb   -8.7837147721370865E+00   -2.8689487823709716E+00    3.0468473937412313E+00
Pb   -2.6659516442319009E+00   -9.2598044804526687E+00   -2.8690166602854617E+00
Pb    3.1411744940192592E+00    8.8874722078473862E+00   -2.7776641770030968E+00
Pb    3.0829822173263959E+00    2.9002296643768948E+00   -3.0362025743457632E+00
Pb    3.1590834078199124E+00   -2.8069900586714800E+00    3.1705516688661821E+00
Pb    3.2331840133224841E+00   -8.6967583474106096E+00    3.1239268800229709E+00
Pb   -2.9315080252670342E+00    9.3038588693297015E+00    3.2164635815463072E+00
Pb    2.9991572304179308E+00    8.8711604600424465E+00    2.9733422886614420E+00
Pb    3.2338236079605185E+00    2.9829304984834497E+00    3.0520653159662325E+00
Pb    3.2334135010161749E+00   -2.8551425373751385E+00    9.0682138763879205E+00
Pb    3.1981795240107744E+00   -8.5870688506396107E+00    8.8313437850114447E+00
Pb   -2.7988444877114116E+00    3.1519503128595319E+00    3.0562879361552198E+00
Pb    3.0600067936674527E+00    9.5643082839105542E+00    8.8071593328407740E+00
Pb    3.2118712364534443E+00    3.5697469091103979E+00    9.1316832123473208E+00
Pb   -2.6068194260767172E+00   -2.4525797865345806E+00    8.8119000799695435E+00
Pb   -8.4866955715164192E+00   -8.9745497575843327E+00    2.9026137770797540E+00
Pb   -9.0422350162742333E+00    2.4304192989486308E+00   -2.6872806509910268E+00
Pb   -2.8425019303244103E+00   -3.1688245736499514E+00   -8.8330048717775362E+00
Pb   -2.5669392122328838E+00   -9.0698775022726981E+00    3.1368183149797670E+00
Pb   -2.9717850584846968E+00    8.6369218156032090E+00   -3.0149477704314607E+00
Pb   -2.6576533893160250E+00   -8.6832601655036825E+00    8.8933048892521054E+00
Pb   -9.4815455155864985E+00   -3.3024156432618859E+00   -3.4034636925332711E+00
Pb   -8.4972010070507444E+00   -9.0043690525609801E+00   -3.2336987946381015E+00
Pb   -2.8271965486414450E+00    2.7593205830859975E+00   -2.8654384480849182E+00
Pb   -8.5046775810402053E+00   -8.9174644274880670E+00    9.0884505601440537E+00
Pb   -8.9585165651092176E+00   -3.6085405620251416E+00   -9.1590155576020020E+00
Pb    9.0615354354945641E+00   -3.0612525765993408E+00   -9.3291334344558372E+00
Pb    9.0874690333263501E+00   -8.9258484006444512E+00   -8.8905857115734417E+00
Pb   -3.1477896503132095E+00   -9.1464559458298709E+00   -9.0343524672380067E+00
Pb   -9.2878289651287087E+00    8.2296656256257528E+00   -9.2162205081100108E+00
Pb    3.0844651437202111E+00   -3.1670057540359995E+00   -8.6922991766468449E+00
Pb    2.9261537762410619E+00   -9.1463435760731002E+00   -8.7262460291136108E+00
Pb   -3.0317589119763793E+00    2.9306593132969061E+00   -8.7137246234818377E+00
Pb    2.9189244066613536E+00    8.7729172642082371E+00   -8.7800078227358860E+00
Pb    2.8932020634115596E+00    2.6326849265050516E+00   -9.1684076873060008E+00
Pb    8.9039460045627870E+00   -3.0887368939584046E+00   -3.2010669879073395E+00
Pb    9.0198623920867878E+00   -8.9137578414002707E+00   -2.9690696443141880E+00
Pb   -8.4161465817154149E+00   -2.7819695875300523E+00    8.8836452078263601E+00
Pb    9.0574079825867386E+00    9.1912588108346398E+00   -9.3159959000809600E+00
Pb   -8.8544600517407250E+00    2.3317780944293895E+00   -8.6871390543196707E+00
Pb   -3.1689600953868591E+00    9.3341431531231898E+00    9.3705474994838909E+00
Pb    8.8852743353055921E+00    9.1346449356883959E+00   -3.2098758774417488E+00
Pb    9.3752084267904880E+00    2.9752441129558309E+00   -3.1866644656860172E+00
Pb    9.0590185081112633E+00   -2.5359431854507015E+00    2.7183456501885677E+00
Pb    9.1613525169234986E+00   -8.8858886862714321E+00    2.9473035096608293E+00
Pb    8.8854357175872245E+00    2.8886153368004059E+00   -8.9638102960444410E+00
Pb   -2.9879489574832290E+00    3.5425154705263648E+00    9.0375018253048545E+00
Pb    9.0594390388192210E+00    9.1982188219872274E+00    2.7022645846142317E+00
Pb    9.1351639176755377E+00    3.1806399827977554E+00    2.8312350361603458E+00
Pb    9.4287609726797488E+00   -2.6304111298122139E+00    8.9983647065457308E+00
Pb    8.8584437273833210E+00   -8.4660717784146602E+00    9.1805409266838662E+00
Pb    9.1275775171186506E+00    9.1680256373466360E+00    8.6145377450865475E+00
Pb    9.4342678886365388E+00    3.3489434658678752E+00    8.8786965883172790E+00
Pb   -8.9118156835292286E+00    3.2397458466510738E+00    9.0151720404529776E+00
Pb   -3.0437790911664369E+00   -3.2015286623748160E+00    2.8227344558922467E+00
Pb   -9.0180469115775690E+00    9.1151844672984765E+00    2.5166187751330851E+00
Pb   -8.8494549528065782E+00    8.2571196301691021E+00   -3.2979604957479749E+00
Pb   -8.9641898603695651E+00   -9.5817881263330378E+00   -9.2349340143904932E+00
Pb   -3.0808545962984781E+00    8.7097755883179815E+00   -8.7333824419415720E+00
Pb   -8.9870294784785187E+00    3.0703827088842184E+00    3.1350071432334592E+00
Pb   -8.9697318553209069E+00    9.2342683484259265E+00    8.4397519607354550E+00
Pb   -3.1066020018925253E+00   -3.0835042270538682E+00   -2.8671898330738910E+00
Br   -2.6441744971542963E-01   -2.9142013632749260E+00   -2.5519131600919178E+00
Br    2.9511726268361991E+00   -2.6489955473954185E+00   -5.9327932934340142E+00
Br    3.1927323010336015E+00   -8.6516642934757124E-02   -3.0532165220917302E+00
Br    3.6368528790593702E-01   -8.8103296035197793E+00   -2.9819940720643481E+00
Br    3.4810557042069989E+00   -9.0028358619618540E+00   -5.9017103050913899E+00
Br    2.6244318199400487E+00   -5.7637258904267554E+00   -3.3121753456316232E+00
Br   -2.8893836722527979E+00   -3.1719645563911136E+00   -5.9875047922117792E+00
Br   -8.2803158378547703E+00   -3.0277791152565237E+00    6.2137205702061715E+00
Br   -2.8804926764970911E+00   -4.1188916994598181E-02   -3.1100263833303736E+00
Br    2.6732101199468317E+00   -1.1678644320936591E+01   -3.3379888329978242E+00
Br    1.1895585098624242E+01   -1.9232346229340929E+00    2.9330747757268325E+00
Br   -5.5893378076628206E+00   -8.9231864041599618E+00   -2.6189527832591777E+00
Br   -1.1428692101385177E+01   -3.4954340888088096E+00    3.5423450111838184E+00
Br   -9.5615090699550596E+00   -3.3733603507572689E+00   -1.7481065229755502E-01
Br    1.1863824107588988E+01   -9.6159236154092227E+00    3.4566275296615880E+00
Br   -2.5802815457111639E-01    8.7744495795615940E+00   -2.7575391184007825E+00
Br    2.6660462780336065E+00    9.1520012362443506E+00   -5.5795566637058291E+00
Br    3.1578794768972749E+00    1.1703751768205064E+01   -2.8585105322704800E+00
Br    2.2146198050336921E-01    2.9977424501442576E+00   -2.6271123253840791E+00
Br    2.9403872483060436E+00    2.5898218026152473E+00   -6.1622917160458579E+00
Br    3.1751238559730508E+00    5.6830231675907390E+00   -3.6066161325695854E+00
Br    4.6878634703132516E-01   -2.4754192407253890E+00    3.0876266464394169E+00
Br    2.8785377921022706E+00   -2.7465907902825877E+00   -4.6718990543259696E-02
Br    3.7986552060545447E+00   -9.7760715872022876E-03    2.8405916555686543E+00
Br    4.1467622039696300E-01   -8.9770935496578339E+00    3.1825249281223185E+00
Br    3.0943222459314721E+00   -8.3733816403559942E+00   -2.8855573246168522E-02
Br    2.9698982496590021E+00   -5.6408902873001097E+00    2.7550513621040684E+00
Br   -6.1451235933338992E+00    8.6507212160522382E+00   -8.6580009684023249E+00
Br   -3.4124195316469992E+00    8.9884776923582361E+00   -1.1686819681144854E+01
Br    3.7007086546671926E+00   -1.1566512459513113E+01    2.8729662141114609E+00
Br   -3.1153180621189991E+00    1.1571277582187466E+01   -8.0241169929218561E+00
Br   -3.5670043773051643E+00    5.7378081672580334E+00   -9.3847877628314542E+00
Br   -8.7905802678486200E+00    9.6622623567193828E-03    2.6477428056480705E+00
Br   -3.0171812110419394E+00   -8.3534790524303926E+00   -5.8450586247020562E+00
Br   -6.1123889014806760E+00    9.5627546343691847E+00    3.1034772998267615E+00
Br   -3.1544189936926177E+00    8.9222992076418350E+00    1.9363710334432963E-01
Br   -3.0174227030536267E+00    1.2391082478750446E+01    3.7234188208303665E+00
Br    4.5382438395523091E-02    8.9923338876387824E+00    3.3960482917945289E+00
Br    2.7800144079390323E+00    8.2139332721706495E+00   -1.1875117317509060E-01
Br    3.5095848229424118E+00    1.1360732986580912E+01    1.8146737829268083E+00
Br    2.3815175607258915E-01    3.4087636669464705E+00    3.1699110786062619E+00
Br    3.4705747113588150E+00    3.6000430707225464E+00   -2.1941858037480697E-01
Br    3.1871469922539006E+00    5.7887919134881143E+00    3.6121291046042372E+00
Br    1.9578899660255045E-01   -2.7061091536391291E+00    9.0424954404080093E+00
Br    2.6628050966779626E+00   -2.4447239676068175E+00    6.1802740754552197E+00
Br    3.2832198237506267E+00    1.7862522582365034E-01    9.2605878013948040E+00
Br    1.3972571021929142E-01   -8.3984940394530057E+00    9.0810460236203649E+00
Br    3.5017496832023793E+00   -8.7846632140048246E+00    6.0026224999806317E+00
Br    2.9902795950272663E+00   -5.5506336768884275E+00    8.1892983910913504E+00
Br   -1.1737809645241800E+01    2.5321375423811943E+00    3.3340574974837871E+00
Br   -9.1185661730092082E+00    2.7654366166735311E+00    1.1935503012053790E-01
Br    3.2738615327535250E+00   -1.1523148653144263E+01    8.6656274170358145E+00
Br   -9.5782526346291057E+00    5.8335756876821758E+00    2.7333194422926055E+00
Br   -8.7865563267855915E+00   -8.5034972307427667E-02    9.0911775877923855E+00
Br   -2.6450430440246810E+00   -5.9753301220558308E+00   -2.4920143810508546E+00
Br   -5.9152200537390121E+00    2.7408163105653944E+00    3.1290201056719993E+00
Br   -3.3599869102714721E+00    3.1470277495252912E+00    5.4672358735194916E-02
Br   -2.8031130445880290E+00    6.3975047704167425E+00    3.1200785267374083E+00
Br    3.1027944909700844E-01    9.1541571066078653E+00    8.9879807636875579E+00
Br    2.5705382888518979E+00    1.0238147711475879E+01    5.8432857668500038E+00
Br    2.8410116451976526E+00    1.2409207539631138E+01    9.1053586432885947E+00
Br    4.3242738041341336E-02    2.8411671489029793E+00    9.3263738787747315E+00
Br    2.8431798938088422E+00    2.9468751551795118E+00    6.1853635755335006E+00
Br    2.8088838177856665E+00    6.2838727503071041E+00    8.6724777842419218E+00
Br   -5.5829083500284735E+00   -2.3526258635819999E+00    8.7228401402494988E+00
Br    3.3916508457201058E+00   -3.7612685351461308E+00    1.1710877336572411E+01
Br   -3.4175432541034030E+00   -2.8361365745418134E+00    5.5868613764297859E+00
Br   -2.7598172483878938E+00    4.2021309568707699E-01    8.0006487501078496E+00
Br   -3.1068226729231232E+00   -1.2057608645686059E+01   -3.6091923641816903E+00
Br    3.3400860359094335E+00   -7.8237996708970288E+00    1.1508177255918044E+01
Br   -1.1815846000021351E+01    2.5095175756042125E+00   -2.8183849942614732E+00
Br   -2.4189604030827190E+00   -1.2010228901714340E+01    3.3718089016490618E+00
Br   -1.2373853409747390E+01   -3.7669830357712777E+00   -3.0319688234316429E+00
Br    3.1513083362035532E+00    9.0624278289901543E+00    1.1669045781547913E+01
Br   -8.9993907989716870E+00   -3.7668851308840665E+00   -6.3653366797103121E+00
Br   -9.1491129665818676E+00   -5.6745854016501529E-01   -2.9954702111509648E+00
Br    3.6364573607893096E+00    3.1199413631422162E+00    1.1895981951575022E+01
Br   -5.9845718216450381E+00    8.5001456896887149E+00   -3.3927002957833490E+00
Br   -2.8041622565216553E+00    8.0310289233401644E+00   -5.8529953517012689E+00
Br   -3.3211055978067932E+00    1.1371512422533939E+01   -3.7323663829700129E+00
Br   -5.9124091246136787E+00    2.3845685730674169E+00   -2.5370992841325650E+00
Br   -1.1345813755105949E+01   -9.6700082047322820E+00    3.3264598489708792E+00
Br   -3.4287752657236328E+00    3.4138146276611088E+00   -5.7775967457617217E+00
Br   -5.8777875381465643E+00   -2.9004454720551474E+00   -8.9377594081347862E+00
Br   -3.0437214987720411E+00   -3.6798983927865474E+00   -1.1754573362117588E+01
Br   -2.8425932833569081E+00   -1.7838869921232348E-01   -8.7778492747231756E+00
Br   -3.6765552218353816E+00    3.2597537876292422E+00    1.2132281780365954E+01
Br   -5.6248156434322487E+00   -8.8390757343364292E+00    8.5692544062496019E+00
Br   -2.3693988137330151E+00   -9.2583459511386081E+00    5.9888209998562516E+00
Br   -2.7434206524014688E+00   -5.7553906039484639E+00    8.4848906056287845E+00
Br   -9.3390869004046841E+00   -8.8000482091338306E+00   -1.1525055247929018E-01
Br   -8.9549575749204422E+00   -6.2756584819197840E+00    2.7358544774046951E+00
Br   -9.4118809181005698E+00    8.7014281837112151E+00    1.1304764802380515E+01
Br    1.1732068944008139E+01    9.2653070515806579E+00    2.5470870794730489E+00
Br   -7.9295774706026485E+00   -9.3048471951045482E+00    1.1948844300253398E+01
Br    1.1689267349808052E+01    9.5492121929589633E+00   -3.4526900980566850E+00
Br    1.1817080912883352E+01    2.9830241653968534E+00    3.2660980429103228E+00
Br   -8.7011993365550246E+00    2.7065326691176188E+00    1.1961363502664321E+01
Br   -1.1906903888331998E+01   -4.1589120355789841E+00   -9.0930172541878189E+00
Br    1.1991359497267888E+01   -3.6874374729275834E+00    8.6383631635756117E+00
Br   -5.4499039335716715E+00   -8.8112346476504548E+00    3.7400184804453800E+00
Br    6.2492045835395098E+00   -3.3844079242752265E+00   -8.8689358288802378E+00
Br    8.4750572225123566E+00   -3.1231562159492881E+00   -1.2062829628169524E+01
Br    1.2048535042756214E+01   -8.5549960925026003E+00    9.4913373659650730E+00
Br    9.0288062177924235E+00    8.0688293073795700E-02   -9.3338021975427008E+00
Br   -9.2029875921501709E+00   -1.1737845508100735E+01    8.6957541934544977E+00
Br   -2.2586645281704043E+00   -9.2155803000595178E+00    2.0271024980645046E-02
Br   -2.5039219784363338E+00   -5.8693353087447599E+00    2.9099089923186128E+00
Br    5.9870309202681318E+00   -8.6164943348858447E+00   -8.9534340821363347E+00
Br   -5.8697252369396615E+00   -9.4935008343674294E+00   -9.3803277026056815E+00
Br    9.4335684953930610E+00   -9.8445689416225903E+00   -1.1624833413500310E+01
Br    8.8121504501342702E+00   -6.0953551685955523E+00   -9.2245033770706275E+00
Br   -2.7146533239329842E+00   -1.1582603962426294E+01    8.7028080694176335E+00