 # Version information for this restart file 
 # current date 2021-06-17 12:48:10.242
 # current working dir /user/ub2042/exercises/2_fitting/MM_MD_workdir/md_settings.006
 # Program compiled at                              Thu Apr 22 21:44:59 EDT 2021
 # Program compiled on                cpn-k07-07-02.compute.cbls.ccr.buffalo.edu
 # Program compiled for                                                    local
 # Source code revision number                                       git:36754bb
 &GLOBAL
   PRINT_LEVEL  LOW
   PROJECT_NAME cp2k
   RUN_TYPE  MD
 &END GLOBAL
 &MOTION
   &MD
     ENSEMBLE  NVT
     STEPS  10000
     TIMESTEP     2.4999999999999996E+00
     STEP_START_VAL  2760
     TIME_START_VAL     6.8999999999996944E+03
     ECONS_START_VAL    -1.3043899953808431E+01
     TEMPERATURE     3.0000000000000000E+02
     &BAROSTAT
       PRESSURE     1.0100000000000000E+00
       TIMECON     9.9999999999999982E+03
     &END BAROSTAT
     &THERMOSTAT
       TYPE  CSVR
       &CSVR
         TIMECON     9.9999999999999982E+03
         &THERMOSTAT_ENERGY
              -1.0136386587084817E-01
         &END THERMOSTAT_ENERGY
         &RNG_INIT
Wiener process for Thermostat # 1        1 F T F  -1.6724797270829992E+00         677791754.0        2339464025.0        1058328628.0         462914667.0         615472520.0        1126417206.0             12345.0             12345.0             12345.0             12345.0             12345.0             12345.0             12345.0             12345.0             12345.0             12345.0             12345.0             12345.0
         &END RNG_INIT
       &END CSVR
     &END THERMOSTAT
     &AVERAGES  T
       &RESTART_AVERAGES
         ITIMES_START  1
         AVECPU     1.7453205777902422E-02
         AVEHUGONIOT     0.0000000000000000E+00
         AVETEMP_BARO     0.0000000000000000E+00
         AVEPOT    -1.3428000016395885E+01
         AVEKIN     4.3115860125242844E-01
         AVETEMP     2.1871318152740778E+02
         AVEKIN_QM     0.0000000000000000E+00
         AVETEMP_QM     0.0000000000000000E+00
         AVEVOL     6.7483345830900092E+06
         AVECELL_A     1.8897261328855873E+02
         AVECELL_B     1.8897261328855873E+02
         AVECELL_C     1.8897261328855873E+02
         AVEALPHA     9.0000000000000000E+01
         AVEBETA     9.0000000000000000E+01
         AVEGAMMA     9.0000000000000000E+01
         AVE_ECONS    -3.0989052766897882E+00
         AVE_PRESS     0.0000000000000000E+00
         AVE_PXX     0.0000000000000000E+00
       &END RESTART_AVERAGES
     &END AVERAGES
     &PRINT
       &ENERGY  SILENT
         &EACH
           MD  10
         &END EACH
       &END ENERGY
     &END PRINT
   &END MD
   &PRINT
     &TRAJECTORY  SILENT
       &EACH
         MD  10
       &END EACH
     &END TRAJECTORY
     &CELL  SILENT
       &EACH
         MD  10
       &END EACH
     &END CELL
     &VELOCITIES  SILENT
       &EACH
         MD  10
       &END EACH
     &END VELOCITIES
     &FORCES  SILENT
       &EACH
         MD  10
       &END EACH
     &END FORCES
     &RESTART  SILENT
       &EACH
         MD  10
       &END EACH
     &END RESTART
   &END PRINT
 &END MOTION
 &FORCE_EVAL
   METHOD  FIST
   &MM
     &FORCEFIELD
       VDW_SCALE14     1.0000000000000000E+00
       EI_SCALE14     1.0000000000000000E+00
       SHIFT_CUTOFF  T
       DO_NONBONDED  T
       IGNORE_MISSING_CRITICAL_PARAMS  T
       &SPLINE
         R0_NB     2.5000000000000000E-01
       &END SPLINE
       &NONBONDED
         &LENNARD-JONES
           ATOMS Br Br
           EPSILON     1.2630795322675199E+02
           SIGMA     3.6900000000000004E+00
         &END LENNARD-JONES
         &LENNARD-JONES
           ATOMS Cs Pb
           EPSILON     8.6920055954630968E+01
           SIGMA     3.6699999999999999E+00
         &END LENNARD-JONES
         &LENNARD-JONES
           ATOMS Cs Cs
           EPSILON     2.2644852172126850E+01
           SIGMA     4.3300000000000001E+00
         &END LENNARD-JONES
         &LENNARD-JONES
           ATOMS Pb Pb
           EPSILON     3.3363415533600227E+02
           SIGMA     5.9000000000000004E+00
         &END LENNARD-JONES
         &LENNARD-JONES
           ATOMS Br Cs
           EPSILON     5.3481070753900497E+01
           SIGMA     3.6300000000000003E+00
         &END LENNARD-JONES
         &LENNARD-JONES
           ATOMS Br Pb
           EPSILON     2.0528187276773045E+02
           SIGMA     2.9800000000000000E+00
         &END LENNARD-JONES
       &END NONBONDED
       &CHARGE
         ATOM Cs
         CHARGE     4.0230055499999995E-01
       &END CHARGE
       &CHARGE
         ATOM Pb
         CHARGE     8.0460110999999990E-01
       &END CHARGE
       &CHARGE
         ATOM Br
         CHARGE    -4.0230055499999995E-01
       &END CHARGE
     &END FORCEFIELD
     &POISSON
       PERIODIC  XYZ
       &EWALD
         EWALD_TYPE  SPME
         GMAX  62 62 62
         O_SPLINE  4
       &END EWALD
     &END POISSON
     &PRINT
       &FF_INFO  LOW
         SPLINE_INFO  F
         SPLINE_DATA  F
       &END FF_INFO
     &END PRINT
   &END MM
   &SUBSYS
     &CELL
       A     1.0000000000000001E+02    0.0000000000000000E+00    0.0000000000000000E+00
       B     0.0000000000000000E+00    1.0000000000000001E+02    0.0000000000000000E+00
       C     0.0000000000000000E+00    0.0000000000000000E+00    1.0000000000000001E+02
       PERIODIC  XYZ
       MULTIPLE_UNIT_CELL  1 1 1
     &END CELL
     &COORD
Cs    2.2007665590778255E-01    3.0987483550703648E-01   -5.8725141505671772E+00
Cs    3.0984801161487391E-01   -6.4094215446916492E+00   -5.5443577797227555E+00
Cs    7.0660790457130296E-01   -1.2391672277591221E+01   -5.1256985716650503E+00
Cs   -5.8116066476971682E+00   -6.1982094095211977E+00   -4.8041281609474176E+00
Br   -8.1991552295320247E+00   -1.2822490139226984E+01   -8.5370657497454143E+00
Br    1.1532178080483238E+01   -2.1447717988311661E+00   -8.9286097326905107E+00
Br   -2.2589311671358461E+00    2.5084923918926698E+00   -1.1623255467792932E+01
Cs    2.1866575010312050E-01    5.8690530230603235E+00   -6.3780020731643470E+00
Cs    1.3667255688394753E-01   -2.3168361160287518E-01   -3.9047316255387532E-01
Cs    7.2662903670025158E-01   -5.9512260291890362E+00    1.7028342720018458E-01
Br   -5.8995464953122179E+00   -3.2470583370863277E+00    3.6742080987357664E+00
Cs   -1.0799663239208929E+01   -5.0885579421819225E+00    1.2638312515809830E+01
Cs    1.1674902461813538E+01   -1.0818084046811011E+01   -6.3984668167328851E-01
Cs   -6.1697101654971194E+00    4.7162035221900735E+00   -4.2423947472758261E-01
Cs   -6.7536629360161993E-01    1.1779655523084539E+01    6.3759055320045277E-01
Cs   -6.6854832440547407E-01    6.8860022247943204E+00   -5.9461810642521573E-01
Cs    1.0643232061995364E-01    7.7912887798543340E-01    6.6345771622347502E+00
Cs    3.5729393913104246E-01   -5.6591493362910077E+00    6.3220030010646040E+00
Cs    9.0668948716560727E-01   -1.0735334878296561E+01    6.0301460019920263E+00
Cs   -6.3773416115935921E+00    5.7145232067974279E+00    1.2203003618871133E+01
Cs   -5.6608289609536042E+00   -7.3850663880733736E-01   -1.1253391849224419E+01
Cs   -4.9581166426581929E+00   -1.1369014643461838E+01   -5.3717475225057862E+00
Cs   -5.6537921243943456E+00   -1.1288271437402571E-01    6.2086170853532288E+00
Br   -2.8263074063865212E+00   -3.4121942260109872E+00    2.0591745406423423E-01
Cs    2.4927226787059695E-01    6.2168367126275195E+00    5.6673500506237371E+00
Br    1.1986008842279807E+01   -8.0296457186021843E+00   -8.6987142836211948E+00
Cs    1.2515192667150785E+00   -6.2476154685654883E+00    1.1571360569192887E+01
Br   -3.1281727198320808E+00    2.6291127185034130E-01    2.9691854575880061E+00
Br   -8.3927993313218749E+00   -2.5215724558829908E+00    1.2515672434443054E+01
Cs    1.1261524435544519E+01    1.1492353269001194E+01   -7.4813847026897200E+00
Cs   -1.1324469237864420E+01   -5.7195256750520400E+00    6.8330929508783296E+00
Cs   -5.4992353394755220E+00   -5.7709250457104613E+00    6.7346789386281705E+00
Cs   -7.2447335798283730E+00    1.1074322270090601E+01   -6.6993046471514628E+00
Br   -1.1811251852444578E+01   -9.2946211762124342E+00    9.2378060348241675E+00
Br   -9.1723000795647334E+00   -8.7293517066143611E+00    6.4888956660194621E+00
Cs   -1.1130795587333301E+01   -6.4306916769412386E+00   -5.2726535220671806E+00
Cs   -6.2044951836994597E+00    5.4773944688923537E+00   -5.5947788913173548E+00
Br   -8.3414096048301563E+00   -5.5579958407135583E+00    9.8379941459327913E+00
Cs    1.1720353460810102E+01    6.7426899042725221E+00    1.0930742654547666E+01
Br   -1.1903911332948427E+01    8.6126186605837489E+00    8.1373104535512706E+00
Br   -6.0451125238677088E+00   -3.7094190423653695E+00   -2.3876891165155554E+00
Cs    3.3307163027671011E-01    3.5058171443802666E-01    1.1443516978806315E+01
Cs    1.1607933861019017E+01    6.3768092394289466E+00   -7.2085803098622636E-01
Cs   -1.0643242457014226E+01   -6.6319193796738558E+00   -1.1439566924948497E+01
Cs    1.1971713762400158E+01    1.1754004832013856E+00    6.9388932899193563E+00
Cs   -1.2052903498028773E+01    1.0013970169835412E+01   -6.6465251223159125E+00
Cs    1.1937976946370613E+01   -1.1398823507750951E+01    6.3843992656977457E+00
Cs    5.9312311223678744E+00   -5.6772104084486008E+00   -1.2639675171858327E+01
Cs    6.9314166751443249E+00   -1.1591847180155462E+01    6.4194094006735654E+00
Cs   -4.5339253907439865E+00   -1.0978676691063090E+01    8.0106765832025895E-01
Cs    6.6260130890603790E+00   -1.1736515328888153E+01   -1.0762961155119680E+01
Cs    1.2712755595999537E+01    4.6371309781119585E+00   -5.7687283555096220E+00
Cs    1.1381209839818947E+01    1.1861142892060935E+01    5.1205310402074486E+00
Cs    1.0432212236215598E+01    6.3050670405371472E+00   -1.2933976044623321E+01
Cs    3.9122791941053514E-01   -6.6697783925969363E+00   -1.2226933288718845E+01
Cs   -1.1586951031344210E+01    7.6089184868382120E-02   -5.5575505472759756E+00
Cs    6.4540096132219125E+00   -5.7398760377996512E+00    1.1483390300220982E+01
Cs    1.1618334890205670E+01   -5.8220181492785770E+00    5.8098049391763169E+00
Cs   -1.0873889793215337E+01   -1.0846069948542707E+01    1.2373613991291281E+01
Cs    4.7004036836266699E-01   -1.0077297774571030E+00   -1.2140753098341891E+01
Cs    1.9081778268317837E-01    1.1318665904595125E+01    5.8132363559412346E+00
Cs   -2.8201682178734661E-01    5.1961833231077676E+00   -1.1368948222778023E+01
Cs    6.4120508620655290E+00    6.4018797079146483E-01   -5.6520865540644714E+00
Cs    6.6807824472930104E+00   -5.7187785005200800E+00   -6.0543184891437756E+00
Cs   -5.4629028785996461E+00   -1.0887027360464927E+01    7.0422150854781762E+00
Cs   -1.1700256780679108E+01    2.7364510786487162E-01    6.0584507003195114E+00
Cs    6.1778365801558719E+00    5.9402963668215214E-01   -1.1926732208522301E+01
Cs    5.7957930599282026E+00    1.1189660683217587E+01   -1.2880146121737567E+01
Cs   -1.5966792096226473E-01    6.9019802996469615E+00    1.1002084854086014E+01
Cs   -6.2591989462399704E+00    1.1175647057892521E+01    5.5299218342610539E+00
Cs    5.2948338290336023E+00    1.1016904388700230E+01   -6.7345063842958384E+00
Cs    5.3041166128028232E+00    5.5293974010306126E+00   -6.2114078980598864E+00
Cs    5.9492178921075460E+00   -5.9695231302775820E-02   -2.6141833153247901E-01
Cs    6.3789295180172809E+00   -5.9886664381492327E+00    4.0910457209275813E-01
Cs    6.4063776177784328E+00   -1.1479885354442022E+01    8.2279644785208395E-01
Cs    5.0662276085634579E+00    6.1146570332884105E+00   -1.2073998931193511E+01
Cs   -6.3391837305955372E+00    5.6983971244443845E+00    5.2796126045357079E+00
Cs   -4.9087569010489700E+00   -6.5745747330124225E+00   -1.0737722114016709E+01
Cs    5.9717388368005437E+00    6.5576246589089902E+00   -4.8968783577627178E-01
Cs    5.9660324857727050E+00   -2.8437193172394709E-01    5.2789130649861180E+00
Cs    5.6882616004123987E+00   -5.3219457549104039E+00    5.2849754901577750E+00
Cs   -6.1290580844089781E+00    1.0781888529509214E+01   -3.3019663807185107E-01
Cs    1.1955693631496326E+01   -2.0612201149623630E-02   -7.5543101635653576E-01
Cs   -5.4444475298215185E+00   -4.5901726677835891E-01    9.1906116449294295E-01
Cs   -1.1716866990322600E+01    5.9215699876750065E+00    6.8194902011611225E+00
Cs   -5.0527221072927393E+00    6.9204105701261731E-01    1.1336348422719784E+01
Cs    6.0311888855305220E+00    1.1162163795728079E+01    5.2405833823987757E+00
Cs    5.5366590701558831E+00    5.9282764500568792E+00    5.8910035545800108E+00
Cs    6.3569298638722485E+00    9.9687069911147086E-01    1.1371306424763503E+01
Cs    5.0158964615579498E+00    1.1905846996425549E+01   -8.3190921122828076E-01
Cs    1.2029688117848123E+01    9.1531255811599863E-02   -6.2922035282415267E+00
Cs    1.1489315002117580E+01   -5.7286326127361145E+00   -6.3732778123028382E+00
Cs    6.9082890584339367E+00   -1.0838940800869638E+01    1.1084659719581916E+01
Cs    1.0369370274668439E+01    1.2209258780216450E+01   -1.5814596752929435E+00
Cs   -1.0757058951367787E+01    8.4056424701562005E-01    1.3002901085297749E+01
Cs   -5.9644890036033953E+00    5.8620438700369091E+00   -1.2313695102998780E+01
Cs   -1.2043173301765354E+01    1.0768351897813558E+01   -1.2296516489699201E+00
Cs   -5.5658615491835350E+00   -5.7347891140902787E+00    1.1703312617905437E+01
Cs   -5.7985043514945556E+00   -1.1033713646860001E+01    1.1570742280758381E+01
Cs    5.8700850145942223E+00    6.9481304087398605E+00    1.1557178310022399E+01
Cs    1.1352508444570882E+01   -5.4683864606621437E+00   -4.7361706338996856E-01
Cs   -1.0993412325541644E+01   -7.6808298183563850E-01   -7.2212749133709245E-02
Cs   -6.3009283249541674E+00    1.0877557276024485E+01   -1.1685356023982248E+01
Cs   -1.2140264183179394E+01    5.0688853117846557E+00   -4.4416934835041749E-01
Cs   -1.0315802432042403E+01   -1.2307071104092502E+01   -5.3551288566916586E+00
Cs   -1.2445697262867002E+01   -5.8471225783089622E+00    1.2991126803908368E+00
Cs   -6.2659834362986579E+00   -5.5448093310273610E+00    8.2707895019406408E-01
Cs   -1.2237114637941858E+01   -1.1100943068337378E+01    6.0123105366596192E+00
Cs    1.0590912276301765E+01   -4.4946071024706447E+00    1.2457500535286263E+01
Cs    1.0768899801863153E+01    6.5959745310357460E+00    5.2003440521423290E+00
Cs   -1.1747934292062341E+01    5.1143514329681929E+00   -6.1715046438675163E+00
Cs   -5.7605959408675513E+00   -8.6602945346803850E-01   -6.2528907133524534E+00
Cs   -1.0368972888793722E+01   -1.1651716940021371E+01    4.7264648195327524E-01
Cs    1.2343408333111334E+01   -1.1764991807206549E+01   -9.0381674171251660E+00
Cs   -5.2819445051141187E+00   -1.3154491761399010E+01   -1.0621025687258602E+01
Cs    4.1117317498245676E-01    1.0838067697558230E+01   -1.2735781199877902E+01
Cs    2.6582807373759149E-01   -1.1461014414489892E+01   -1.1559994354361717E+01
Cs   -1.0431438027915587E+00    1.1466162462613976E+01   -7.0608475160903588E+00
Cs   -6.0452190812759232E+00    1.1122998177089743E+01    1.1048572521202273E+01
Cs    7.0508762243160816E-01   -1.1704211003223410E+01    5.3008219634643572E-01
Cs   -1.1496366473430603E+01   -1.7321886137696052E-01   -1.1079393559402519E+01
Cs   -1.1137769039606125E+01    1.1286306731188636E+01    6.0756800591587572E+00
Cs    6.9939470894604137E+00   -1.2043593387203616E+01   -5.0682900665935424E+00
Cs    1.0438251711297402E+01    1.1603081268686258E-01   -1.1897995953242178E+01
Cs    7.8654213274228457E-01    1.2532242296308574E+01    1.0757441743392510E+01
Pb    3.0491831608493496E+00   -2.8832140393201211E+00   -3.2307557525527715E+00
Pb    3.5864082647532154E+00   -9.1357832703163719E+00   -2.7904824396716101E+00
Pb   -8.6601746822786581E+00   -3.1893915827270463E+00    3.5192723194866526E+00
Pb   -2.3986344285587928E+00   -8.7529094657989788E+00   -2.4238367112359218E+00
Pb    2.2485155244369071E+00    8.8444614062605957E+00   -3.4679208693701127E+00
Pb    2.8805805330606917E+00    3.1092009437993826E+00   -2.8516343600534371E+00
Pb    3.1512301656394532E+00   -2.5381308103444273E+00    2.6121782647539771E+00
Pb    3.3911158655645290E+00   -8.7794698635904211E+00    3.0936315961089154E+00
Pb   -3.3156888895131891E+00    8.9392021269016464E+00    2.9241152026578332E+00
Pb    2.3914683922112188E+00    9.1698767713640823E+00    2.4608504194140877E+00
Pb    3.0720515230887520E+00    3.1802466160423628E+00    2.8281138978291369E+00
Pb    3.0754620316228372E+00   -2.6482776805874706E+00    9.1817154119880620E+00
Pb    3.7785423219504191E+00   -8.6559007925872571E+00    9.0282418997348799E+00
Pb   -3.0776342293348793E+00    3.2941711043826269E+00    3.2615612093258597E+00
Pb    2.9486866146453448E+00    8.8899668071225690E+00    8.5106646609464196E+00
Pb    3.0998272096163020E+00    3.2396927108658748E+00    9.1124999964907296E+00
Pb   -2.8185210275671611E+00   -2.7434897703186265E+00    9.7511257638311619E+00
Pb   -9.1149999563039010E+00   -9.1133381128631736E+00    3.4795553856523096E+00
Pb   -9.0096093761149394E+00    2.1069089302299444E+00   -2.9175687232713612E+00
Pb   -3.0531052402965155E+00   -3.0753717548103769E+00   -8.5451117523871680E+00
Pb   -2.9831659574404452E+00   -9.0761014336669330E+00    3.7020262174559107E+00
Pb   -3.8918647664316866E+00    8.7993153706454290E+00   -3.1453474856668033E+00
Pb   -2.3519605392457650E+00   -8.6353942343660588E+00    9.6574997079899507E+00
Pb   -9.0557568870103147E+00   -3.8613102548239993E+00   -2.5932033324874055E+00
Pb   -8.1180196543793244E+00   -9.5812296749738248E+00   -2.1768965687706356E+00
Pb   -3.4617420306930788E+00    2.8750282442536021E+00   -2.7072486330459227E+00
Pb   -8.7633491983564333E+00   -8.4833451105172877E+00    9.3518585404954457E+00
Pb   -8.7456817968215201E+00   -3.7312011813612247E+00   -8.7598794564084983E+00
Pb    8.6494286955233619E+00   -2.7460614198010789E+00   -9.0855537932995780E+00
Pb    9.3041706770379236E+00   -8.6390392549227695E+00   -8.9209566955305917E+00
Pb   -2.6233428185042404E+00   -9.4634071819588890E+00   -8.3187517123509949E+00
Pb   -9.5672783115814735E+00    7.8052771574625277E+00   -9.5089753278145128E+00
Pb    2.6983863600706708E+00   -3.2847495261173898E+00   -9.2924481339241893E+00
Pb    3.2233630669773801E+00   -9.1869233080201038E+00   -9.3722062729523490E+00
Pb   -3.0094197851329119E+00    2.5461175846566007E+00   -8.6948637603755294E+00
Pb    2.6721779690661380E+00    8.6449660427652173E+00   -9.2635134004625943E+00
Pb    2.8756855837518871E+00    2.6955548501098270E+00   -8.7945016277677741E+00
Pb    9.0297158321680016E+00   -2.2800032982280709E+00   -3.2331093332147289E+00
Pb    9.4517401558010494E+00   -8.2465867041206344E+00   -2.9840125230469656E+00
Pb   -8.6894022338183170E+00   -2.8516334669628516E+00    9.5826468245879219E+00
Pb    8.4667477731253307E+00    9.1483813133915675E+00   -1.0035471867486683E+01
Pb   -8.8043513162878284E+00    2.1618117159840184E+00   -8.7180256506707732E+00
Pb   -3.0483290886210912E+00    9.2480138866239443E+00    8.5578163029170380E+00
Pb    8.5127682101479234E+00    9.3638332068179473E+00   -4.0826489777795620E+00
Pb    8.7966925946685475E+00    3.5058236116328230E+00   -3.2508618951355164E+00
Pb    9.0964360206028640E+00   -2.5282044731650384E+00    2.5570283186445573E+00
Pb    9.3436928999527993E+00   -8.6123853388671350E+00    2.9676304531828235E+00
Pb    8.6678377542241236E+00    3.2280285195529208E+00   -9.1009318046645422E+00
Pb   -2.8593616008486937E+00    3.3209793848725044E+00    8.9710614851585735E+00
Pb    8.3231097030032402E+00    9.5379894821088911E+00    2.0451769772968516E+00
Pb    8.8081922811882105E+00    3.5932949384935258E+00    2.8335420337860118E+00
Pb    8.9946712622146219E+00   -2.7691294922955589E+00    8.3219450341557444E+00
Pb    9.6811396180156724E+00   -8.7165216747379191E+00    8.9482304604956848E+00
Pb    9.1135823679771590E+00    9.3825596269111688E+00    8.3968550422239190E+00
Pb    8.8785296026770641E+00    3.2973512709184765E+00    8.5621197904647222E+00
Pb   -8.9254659493552317E+00    2.8134114993133617E+00    8.9085572476822534E+00
Pb   -2.7659954905844293E+00   -2.9091289400441060E+00    3.5207301982990375E+00
Pb   -9.1383103186563996E+00    8.6379430144623761E+00    2.2966377649181178E+00
Pb   -9.5671692045759507E+00    7.8678945505712612E+00   -3.5140704435040706E+00
Pb   -8.6766249522092984E+00   -9.5853905487663003E+00   -8.2032300643022005E+00
Pb   -3.4360988089630466E+00    8.4663937268568219E+00   -9.3453347965116844E+00
Pb   -8.8446179597773273E+00    2.7588698455902430E+00    2.8674976108429044E+00
Pb   -9.1794813712136669E+00    8.8303815055260912E+00    8.6584770632735353E+00
Pb   -3.1257011058772601E+00   -2.9550175509991585E+00   -2.6605575696467092E+00
Br   -1.5682166701605141E-01   -2.8596896367326905E+00   -2.7273336535882584E+00
Br    2.5951677935636788E+00   -2.8661767265432765E+00   -6.2501941825150151E+00
Br    2.7000381041254173E+00    1.6658273628790535E-01   -3.4210742477980682E+00
Br    7.6324093088212408E-01   -8.4712780428601828E+00   -2.4035186798605053E+00
Br    3.1772827466656959E+00   -1.0262200978900530E+01   -5.5896710584798921E+00
Br    3.4581741719213599E+00   -6.1577292983060286E+00   -3.2723761742392612E+00
Br   -3.0663961673555664E+00   -3.1263286811525113E+00   -5.4828297952110692E+00
Br   -8.0492047600336569E+00   -2.8673049101526256E+00    6.5459907387512448E+00
Br   -3.4808761873907392E+00    4.6673969141045005E-02   -2.3309174462806324E+00
Br    3.5828846574336310E+00   -1.1989963149804668E+01   -1.9379206552676920E+00
Br    1.1930995990342270E+01   -2.3854332842665942E+00    1.5880878679680308E+00
Br   -5.1736669681081713E+00   -8.9859885874018008E+00   -2.1925455503808857E+00
Br   -1.1582279720230375E+01   -3.2389245410146632E+00    3.9630892431556841E+00
Br   -9.1789739881036354E+00   -3.8107979489646633E+00    2.0821018665547181E-01
Br    1.2169494463518676E+01   -9.4892028539626221E+00    2.6566518494677389E+00
Br   -8.7057713331972419E-01    8.9853095407441046E+00   -3.1139639408907951E+00
Br    2.4543032658348305E+00    8.8282327915739831E+00   -6.3700170215192164E+00
Br    2.7556091245522683E+00    1.1572923149844080E+01   -3.6354397516765689E+00
Br   -2.3567558002025743E-01    2.8664603365132488E+00   -2.6002087246529011E+00
Br    2.5849065737472885E+00    3.2436805344042212E+00   -6.0083924800978474E+00
Br    2.5145225695304236E+00    6.1269012252135830E+00   -3.5802843544287772E+00
Br    8.0497175078308114E-02   -2.4851836398125489E+00    2.5682412463262150E+00
Br    3.1742619966117664E+00   -2.7855314522961239E+00   -2.8281499800260823E-01
Br    3.4202312929266108E+00    3.2276904934540834E-01    2.6966732637976358E+00
Br    6.6022565058146432E-01   -8.9711177259789743E+00    3.2758503447209026E+00
Br    3.9026279875861851E+00   -8.8357970180753167E+00    1.3064633826446384E-01
Br    3.3273843008636579E+00   -5.5422409401553283E+00    2.5958593094810016E+00
Br   -6.3464596988446420E+00    8.1555060820702696E+00   -9.4247453489175186E+00
Br   -3.7696585841503736E+00    8.7119591243138021E+00   -1.2400124778174082E+01
Br    3.6960903474049482E+00   -1.1857167133858065E+01    2.9666750152835752E+00
Br   -3.3921468654216871E+00    1.1656092311266470E+01   -9.5577535287961961E+00
Br   -3.3054053725326500E+00    5.6100915303740022E+00   -9.0776900425934013E+00
Br   -8.4681947357831113E+00   -3.4888472549098698E-01    3.4551982359835889E+00
Br   -2.3780756431853707E+00   -9.7339193807852880E+00   -5.3438235573887098E+00
Br   -6.0747349785060090E+00    8.2760855369042652E+00    2.3310867112217544E+00
Br   -3.3671961070833141E+00    9.0232959362409755E+00   -4.3740041965855231E-01
Br   -3.6781313930941661E+00    1.1772520795384118E+01    2.0662195322142511E+00
Br   -4.5585513671223177E-01    9.3960022748219476E+00    2.8900002852421425E+00
Br    2.2841786898150529E+00    8.5547202896595564E+00   -5.2139720010141366E-01
Br    2.1998276227376263E+00    1.1795387164247527E+01    1.3855224308704299E+00
Br    1.6555784240867458E-01    3.0514923209201990E+00    3.7971424510433893E+00
Br    3.2499152936369393E+00    2.9738503976342630E+00   -1.4907782286700294E-01
Br    2.5547156839080922E+00    6.2330169537581561E+00    2.6426051630259808E+00
Br    1.6723726113648912E-01   -3.0081215588973951E+00    9.7206620653827276E+00
Br    2.9430827341880503E+00   -2.5436493130777382E+00    5.6030937143466328E+00
Br    2.6929266689573064E+00    2.8492940601876249E-01    9.0923961720516981E+00
Br    8.6751204991575037E-01   -9.0423816120816571E+00    9.7327694945653427E+00
Br    3.2636959048827943E+00   -8.1620197764408502E+00    5.8764411164531865E+00
Br    3.1989256677217801E+00   -5.8315255040433707E+00    8.8855606052507650E+00
Br   -1.1545699231124983E+01    2.0906095060872940E+00    3.2082377889634990E+00
Br   -8.6761544448393462E+00    2.0775369707873401E+00   -1.1556432128413857E-01
Br    3.9382229009675855E+00   -1.1331032500364326E+01    8.5990943960426733E+00
Br   -8.9350425988792441E+00    5.6476182664388910E+00    2.3135061305674709E+00
Br   -8.9973054436437216E+00    7.7868057408748094E-03    9.1508490335139925E+00
Br   -2.3637072503624017E+00   -5.9181990780524414E+00   -2.5719106073090332E+00
Br   -6.0316969077617824E+00    3.1522907068517938E+00    2.8548470352279534E+00
Br   -2.8035258068854612E+00    3.1008444247948956E+00    2.7293683696904619E-01
Br   -2.6929621081096009E+00    6.0142684106405104E+00    3.5775244762503129E+00
Br   -9.3616678145184443E-02    9.1088027365419428E+00    8.1766513053422987E+00
Br    2.8837502840133769E+00    8.8996925096582888E+00    5.4517932641807523E+00
Br    2.7349131051269473E+00    1.1806388840589133E+01    8.2043784793802548E+00
Br    2.0817100965663163E-01    3.0559632290344956E+00    9.1838133527922317E+00
Br    3.0869101041473255E+00    3.0999983782447011E+00    6.1260531201575104E+00
Br    2.7651978242455675E+00    6.1232255460751031E+00    8.5593491466293550E+00
Br   -5.7072447802611928E+00   -2.7686326729290012E+00    9.5859374919955709E+00
Br    3.6218232163514150E+00   -2.6065378659167506E+00    1.1988082690636332E+01
Br   -2.9061501054641088E+00   -3.2447908712014102E+00    6.6935521436123091E+00
Br   -2.5967540612680038E+00    3.3759448180131585E-01    9.0765557919007289E+00
Br   -2.1208715398369455E+00   -1.1367549857065805E+01   -2.0892347311741606E+00
Br    4.2877511881505894E+00   -8.4698903427290873E+00    1.1857226903857820E+01
Br   -1.1828723236393010E+01    1.9454870554491399E+00   -2.7023091794985090E+00
Br   -2.4975810860670373E+00   -1.1936401340063522E+01    3.3147616751883491E+00
Br   -1.1737432681437276E+01   -4.1006482123747494E+00   -2.7017698962830661E+00
Br    2.9350295547652818E+00    1.0084086779209906E+01    1.1279839534690451E+01
Br   -8.7676696544639636E+00   -3.9709710169276589E+00   -5.5639028196688187E+00
Br   -8.9009689690236815E+00   -9.2946822296578968E-01   -2.6851837412795936E+00
Br    3.9491237718042052E+00    3.6516048144089064E+00    1.2076428719897741E+01
Br   -6.4560164787244902E+00    7.8256083577506566E+00   -3.4968906443938241E+00
Br   -3.5552504831653962E+00    8.4218183652253096E+00   -6.4197539173954556E+00
Br   -4.6498857609095037E+00    1.1667043267399823E+01   -3.4758339533705653E+00
Br   -6.3289743729795696E+00    2.8179278992575201E+00   -2.8866062159301906E+00
Br   -1.1785549053815009E+01   -8.4890592095641484E+00    3.7795955374535550E+00
Br   -2.7525221717737902E+00    2.7689640884931443E+00   -5.6678659150209434E+00
Br   -5.8468894465867436E+00   -3.6328441825643498E+00   -8.1217324895892737E+00
Br   -3.3410665364453274E+00   -3.2501047870614266E+00   -1.1463713284217794E+01
Br   -2.8298723055576809E+00   -2.7039037963942641E-01   -8.2875127612279833E+00
Br   -3.6448383383093139E+00    3.8981646788539264E+00    1.1649343823978702E+01
Br   -5.3384899453098118E+00   -7.9996298092110347E+00    9.1134372766424008E+00
Br   -2.3265590459224139E+00   -8.6717654873311130E+00    6.5902694628864182E+00
Br   -2.4136319107683661E+00   -5.8463136801615718E+00    1.0617792816613997E+01
Br   -8.7101524971228592E+00   -8.6993392400880207E+00    7.0597763117489520E-01
Br   -8.5278395991057359E+00   -6.2327058004343403E+00    3.7594742358551607E+00
Br   -8.7544350436065503E+00    8.4628138113499709E+00    1.1746758938635823E+01
Br    1.0743648373252443E+01    1.1431533355951133E+01    1.7092866550544934E+00
Br   -8.9258592591348282E+00   -8.2391356045509543E+00    1.2231542310950966E+01
Br    1.1234026649275940E+01    1.0034355157951460E+01   -4.0021834553527507E+00
Br    1.1857488598899710E+01    4.6963059927818600E+00    2.9717914888079004E+00
Br   -8.3765485378963884E+00    2.4784716541668370E+00    1.1650501438159100E+01
Br   -1.1506808799766230E+01   -3.4064798453733967E+00   -9.4656486207051422E+00
Br    1.1907473988612448E+01   -2.4030091922927954E+00    8.1126293136659928E+00
Br   -5.8501670086366859E+00   -9.2256986284665832E+00    3.9691858810248259E+00
Br    5.8298954259248026E+00   -3.4334297059502608E+00   -8.9646585407881663E+00
Br    8.1635849771446356E+00   -2.5158010862032820E+00   -1.2179019677734345E+01
Br    1.2205527785017820E+01   -8.2941144367886306E+00    7.8868578659358635E+00
Br    8.4748379983038866E+00    4.2798411498814032E-01   -9.3996539222810345E+00
Br   -8.1843867031848898E+00   -1.1268558553893785E+01    9.5243278390820603E+00
Br   -2.5201540840507297E+00   -8.3777611416000966E+00    4.5057240466162413E-01
Br   -2.6362399214500130E+00   -6.0034694727263407E+00    3.9040409889533536E+00
Br    6.1321240304105533E+00   -8.5237598929360114E+00   -9.1415562727118918E+00
Br   -5.7103181990740497E+00   -9.4466641339721136E+00   -8.3542971807900503E+00
Br    9.2289296746157881E+00   -9.5568094474695613E+00   -1.1703144810618916E+01
Br    9.0701439948515823E+00   -5.6246314076479962E+00   -8.7658346218308267E+00
Br   -3.2626944702887193E+00   -1.1405609000522693E+01    9.4048923791168679E+00