&CONTROL
  calculation   = 'scf',
  pseudo_dir    = '/util/academic/espresso/6.2.1/pseudopotentials/upf_files/',
  outdir        = './',
  prefix        = 'x0',
  disk_io       = 'low',
/

&SYSTEM
  ibrav       = 0,
  nat         = 25,
  ntyp        = 4,
  nspin       = 1,
  nbnd        = 100
  ecutwfc     = 30,
  ecutrho     = 300,
  occupations = 'smearing',
  smearing    = 'gaussian',
  degauss     = 0.01,
  nosym       = true,
/

&ELECTRONS
  electron_maxstep = 300,
  conv_thr         = 1.D-4,
  mixing_beta      = 0.30,
/

ATOMIC_SPECIES
C  12.010     C.pbe-n-rrkjus_psl.0.1.UPF 
H  1.007      H.pbe-rrkjus_psl.0.1.UPF 
Ir 192.217    Ir.pbe-n-rrkjus_psl.0.2.3.UPF
N  14.006     N.pbe-n-rrkjus_psl.0.1.UPF

K_POINTS gamma

CELL_PARAMETERS  angstrom
        7.0652699470        0.0000000000         0.0000000000
        0.0000000000        7.0652699470         0.0000000000
        0.0000000000        0.0000000000         7.0652699470 

ATOMIC_POSITIONS (angstrom)
Ir      -0.000702578   0.011874577  -0.005491133
N        0.935925177  -1.561454118  -1.156430301
N       -1.795723177  -0.030981556  -1.128972203
N        0.959267503   1.554729508  -1.152140868
C       -0.483040759   1.571924928   1.076740962
C        1.548519636  -0.354027242   1.087722045
C        2.012968233  -1.976535008  -0.548091557
C        2.335498714  -1.333352863   0.631409064
C       -1.114501969  -1.187720660   1.104860823
C        0.637690791   2.723202952  -0.621297306
C       -0.071216200   2.815611651   0.631454211
C       -2.695404938  -0.826924150  -0.647537449
C       -2.317832653  -1.534436634   0.596482196
H        1.786288891   0.167225451   2.008464265
H        3.158228658  -1.660079523   1.311115137
H        2.709904092  -2.745600708  -0.862378618
H        0.898714617   3.569557961  -1.308205827
H       -0.207206946   3.751788225   1.162974538
H       -1.137509214   1.525948798   1.945405350
H       -2.075249992  -2.761719428   0.785642713
H       -0.816574871  -1.558623976   2.077441403
H       -3.516010439  -0.896496871  -1.386369685
H        0.675814713  -2.137372552  -1.923752498
H        1.189299074   1.633001612  -2.125657895
H       -2.158200804   0.589753192  -1.850024993


