&CONTROL
  calculation   = 'scf',
  pseudo_dir    = '/util/academic/espresso/6.2.1/pseudopotentials/upf_files/',
  outdir        = './',
  prefix        = 'x0',
  disk_io       = 'low',
/

&SYSTEM
  ibrav       = 0,
  nat         = 25,
  ntyp        = 4,
  nspin       = 1,
  nbnd        = 100
  ecutwfc     = 30,
  ecutrho     = 300,
  occupations = 'smearing',
  smearing    = 'gaussian',
  degauss     = 0.01,
  nosym       = true,
/

&ELECTRONS
  electron_maxstep = 300,
  conv_thr         = 1.D-4,
  mixing_beta      = 0.30,
/

ATOMIC_SPECIES
C  12.010     C.pbe-n-rrkjus_psl.0.1.UPF 
H  1.007      H.pbe-rrkjus_psl.0.1.UPF 
Ir 192.217    Ir.pbe-n-rrkjus_psl.0.2.3.UPF
N  14.006     N.pbe-n-rrkjus_psl.0.1.UPF

K_POINTS gamma

CELL_PARAMETERS  angstrom
        7.0652699470        0.0000000000         0.0000000000
        0.0000000000        7.0652699470         0.0000000000
        0.0000000000        0.0000000000         7.0652699470 

ATOMIC_POSITIONS (angstrom)
Ir      -0.000918318   0.014386345  -0.004699211
N        0.932579386  -1.561784813  -1.159376094
N       -1.790179613  -0.029444947  -1.126027097
N        0.967422025   1.552831177  -1.153903118
C       -0.483331422   1.574381152   1.068706022
C        1.543338742  -0.344384247   1.090583226
C        2.005989009  -1.978809093  -0.543737655
C        2.343209871  -1.348062422   0.642225001
C       -1.113852666  -1.192626251   1.106556006
C        0.632541919   2.716741476  -0.621100727
C       -0.075530602   2.811118581   0.634381981
C       -2.689138693  -0.833007764  -0.655956116
C       -2.315591729  -1.545830442   0.591549853
H        1.781493047   0.166700034   2.013040916
H        3.129661891  -1.661039800   1.313930068
H        2.698353271  -2.770283055  -0.861083432
H        0.875086359   3.541973790  -1.329341720
H       -0.193360989   3.746485730   1.166316762
H       -1.130628232   1.523396515   1.941748431
H       -2.082596159  -2.706984594   0.691562322
H       -0.815920709  -1.563392359   2.077008598
H       -3.507499916  -0.906605164  -1.389539866
H        0.675501022  -2.134215970  -1.956389874
H        1.185520661   1.624084903  -2.133766516
H       -2.150731825   0.603299508  -1.842942233


