&CONTROL
  calculation   = 'scf',
  pseudo_dir    = '/util/academic/espresso/6.2.1/pseudopotentials/upf_files/',
  outdir        = './',
  prefix        = 'x0',
  disk_io       = 'low',
/

&SYSTEM
  ibrav       = 0,
  nat         = 25,
  ntyp        = 4,
  nspin       = 1,
  nbnd        = 100
  ecutwfc     = 30,
  ecutrho     = 300,
  occupations = 'smearing',
  smearing    = 'gaussian',
  degauss     = 0.01,
  nosym       = true,
/

&ELECTRONS
  electron_maxstep = 300,
  conv_thr         = 1.D-4,
  mixing_beta      = 0.30,
/

ATOMIC_SPECIES
C  12.010     C.pbe-n-rrkjus_psl.0.1.UPF 
H  1.007      H.pbe-rrkjus_psl.0.1.UPF 
Ir 192.217    Ir.pbe-n-rrkjus_psl.0.2.3.UPF
N  14.006     N.pbe-n-rrkjus_psl.0.1.UPF

K_POINTS gamma

CELL_PARAMETERS  angstrom
        7.0652699470        0.0000000000         0.0000000000
        0.0000000000        7.0652699470         0.0000000000
        0.0000000000        0.0000000000         7.0652699470 

ATOMIC_POSITIONS (angstrom)
Ir      -0.002500054   0.019011764  -0.003491472
N        0.926661925  -1.559848136  -1.164022749
N       -1.777013105  -0.029273500  -1.105714975
N        0.988671647   1.547917134  -1.150868850
C       -0.484553272   1.582858571   1.049815461
C        1.531825991  -0.316867873   1.102368465
C        2.001517623  -1.990065234  -0.537328303
C        2.321051219  -1.355907387   0.659813659
C       -1.094394094  -1.181440949   1.100935662
C        0.619818601   2.697856058  -0.622433163
C       -0.080613794   2.797623489   0.641716954
C       -2.661130422  -0.853105380  -0.680778096
C       -2.299370557  -1.586019644   0.572968781
H        1.782092501   0.177829576   2.057740088
H        3.080428678  -1.691302969   1.327034719
H        2.634966196  -2.844431636  -0.870025789
H        0.799208185   3.505036239  -1.285157245
H       -0.150602036   3.740841124   1.179519374
H       -1.107682369   1.516988145   1.961547378
H       -2.230682882  -2.556667914   0.420826422
H       -0.797356714  -1.609258654   2.093362078
H       -3.497116657  -0.961152682  -1.356768771
H        0.694535034  -2.112384504  -1.955201334
H        1.200645526   1.594112406  -2.176339576
H       -2.115735129   0.630258618  -1.884997987


