&CONTROL
  calculation   = 'scf',
  pseudo_dir    = '/util/academic/espresso/6.2.1/pseudopotentials/upf_files/',
  outdir        = './',
  prefix        = 'x0',
  disk_io       = 'low',
/

&SYSTEM
  ibrav       = 0,
  nat         = 25,
  ntyp        = 4,
  nspin       = 1,
  nbnd        = 100
  ecutwfc     = 30,
  ecutrho     = 300,
  occupations = 'smearing',
  smearing    = 'gaussian',
  degauss     = 0.01,
  nosym       = true,
/

&ELECTRONS
  electron_maxstep = 300,
  conv_thr         = 1.D-4,
  mixing_beta      = 0.30,
/

ATOMIC_SPECIES
C  12.010     C.pbe-n-rrkjus_psl.0.1.UPF 
H  1.007      H.pbe-rrkjus_psl.0.1.UPF 
Ir 192.217    Ir.pbe-n-rrkjus_psl.0.2.3.UPF
N  14.006     N.pbe-n-rrkjus_psl.0.1.UPF

K_POINTS gamma

CELL_PARAMETERS  angstrom
        7.0652699470        0.0000000000         0.0000000000
        0.0000000000        7.0652699470         0.0000000000
        0.0000000000        0.0000000000         7.0652699470 

ATOMIC_POSITIONS (angstrom)
Ir      -0.004751763   0.023299672  -0.000735608
N        0.926818792  -1.550667886  -1.160308524
N       -1.764454997  -0.040368814  -1.114749345
N        1.007947940   1.537924598  -1.143021071
C       -0.496112384   1.584772629   1.044705642
C        1.518809172  -0.297787295   1.108246169
C        1.971414472  -1.966972037  -0.543944525
C        2.288101665  -1.358670556   0.700247512
C       -1.061569409  -1.156045731   1.094646423
C        0.603273580   2.666167818  -0.623807980
C       -0.068501910   2.806726975   0.633907387
C       -2.610164932  -0.889765793  -0.705183045
C       -2.258638958  -1.615926082   0.529844375
H        1.764635116   0.187073240   2.093167351
H        3.094787423  -1.776565910   1.348336422
H        2.438188088  -2.898195983  -0.981606725
H        0.695725939   3.572335087  -1.206327417
H       -0.121953338   3.729648319   1.202258558
H       -1.050740962   1.510626562   1.998427271
H       -2.451549721  -2.639665824   0.326932388
H       -0.761258958  -1.672575161   2.038830190
H       -3.521311895  -1.051548750  -1.270584405
H        0.683637704  -2.096113613  -2.032274175
H        1.242687421   1.555304973  -2.135804654
H       -2.122428050   0.584216267  -1.853561317


