&CONTROL
  calculation   = 'scf',
  pseudo_dir    = '/util/academic/espresso/6.2.1/pseudopotentials/upf_files/',
  outdir        = './',
  prefix        = 'x0',
  disk_io       = 'low',
/

&SYSTEM
  ibrav       = 0,
  nat         = 25,
  ntyp        = 4,
  nspin       = 1,
  nbnd        = 100
  ecutwfc     = 30,
  ecutrho     = 300,
  occupations = 'smearing',
  smearing    = 'gaussian',
  degauss     = 0.01,
  nosym       = true,
/

&ELECTRONS
  electron_maxstep = 300,
  conv_thr         = 1.D-4,
  mixing_beta      = 0.30,
/

ATOMIC_SPECIES
C  12.010     C.pbe-n-rrkjus_psl.0.1.UPF 
H  1.007      H.pbe-rrkjus_psl.0.1.UPF 
Ir 192.217    Ir.pbe-n-rrkjus_psl.0.2.3.UPF
N  14.006     N.pbe-n-rrkjus_psl.0.1.UPF

K_POINTS gamma

CELL_PARAMETERS  angstrom
        7.0652699470        0.0000000000         0.0000000000
        0.0000000000        7.0652699470         0.0000000000
        0.0000000000        0.0000000000         7.0652699470 

ATOMIC_POSITIONS (angstrom)
Ir      -0.002899698   0.020135080  -0.003358007
N        0.926576049  -1.558225812  -1.164025858
N       -1.776611434  -0.033158811  -1.095371245
N        0.994765837   1.546077896  -1.149058390
C       -0.485826419   1.584856926   1.045773356
C        1.529936962  -0.308938164   1.106958670
C        1.993779281  -1.982810964  -0.539776050
C        2.311662211  -1.356758437   0.669902867
C       -1.084968512  -1.173478666   1.097862875
C        0.616113057   2.690795426  -0.623305642
C       -0.079315548   2.793834422   0.642506394
C       -2.648783164  -0.860601261  -0.688503850
C       -2.291071677  -1.594933668   0.564360141
H        1.785268738   0.182100611   2.074666815
H        3.086392934  -1.710022319   1.336046028
H        2.591402537  -2.872103347  -0.905619125
H        0.773571383   3.511684239  -1.257934860
H       -0.137732482   3.740303945   1.183096057
H       -1.096640866   1.515229495   1.972305541
H       -2.310900845  -2.587883905   0.339533527
H       -0.788226195  -1.629004789   2.092054384
H       -3.501794336  -0.986155813  -1.339999204
H        0.698131514  -2.110648773  -1.962977965
H        1.210237312   1.583704208  -2.179783638
H       -2.117836055   0.630675709  -1.899551546


