&CONTROL
  calculation   = 'scf',
  pseudo_dir    = '/util/academic/espresso/6.2.1/pseudopotentials/upf_files/',
  outdir        = './',
  prefix        = 'x0',
  disk_io       = 'low',
/

&SYSTEM
  ibrav       = 0,
  nat         = 25,
  ntyp        = 4,
  nspin       = 1,
  nbnd        = 100
  ecutwfc     = 30,
  ecutrho     = 300,
  occupations = 'smearing',
  smearing    = 'gaussian',
  degauss     = 0.01,
  nosym       = true,
/

&ELECTRONS
  electron_maxstep = 300,
  conv_thr         = 1.D-4,
  mixing_beta      = 0.30,
/

ATOMIC_SPECIES
C  12.010     C.pbe-n-rrkjus_psl.0.1.UPF 
H  1.007      H.pbe-rrkjus_psl.0.1.UPF 
Ir 192.217    Ir.pbe-n-rrkjus_psl.0.2.3.UPF
N  14.006     N.pbe-n-rrkjus_psl.0.1.UPF

K_POINTS gamma

CELL_PARAMETERS  angstrom
        7.0652699470        0.0000000000         0.0000000000
        0.0000000000        7.0652699470         0.0000000000
        0.0000000000        0.0000000000         7.0652699470 

ATOMIC_POSITIONS (angstrom)
Ir      -0.000729498   0.016648393  -0.003533095
N        0.929972170  -1.562076434  -1.161756973
N       -1.783892703  -0.027687786  -1.122304965
N        0.975044832   1.550538778  -1.154344491
C       -0.483518972   1.576615415   1.061008582
C        1.538706871  -0.335417942   1.093681088
C        1.999625628  -1.981519474  -0.538913959
C        2.336886371  -1.352320987   0.645203795
C       -1.112083690  -1.196137531   1.108146320
C        0.627929146   2.709929205  -0.621638267
C       -0.078615444   2.805828279   0.636907006
C       -2.681415744  -0.840077919  -0.664769527
C       -2.311604411  -1.560089521   0.585939084
H        1.779386815   0.168111725   2.023466097
H        3.102213388  -1.667103852   1.315553342
H        2.682895399  -2.797687959  -0.863272760
H        0.846525073   3.505936672  -1.339879081
H       -0.178859558   3.742406976   1.169980284
H       -1.123755731   1.520409696   1.943746085
H       -2.113217385  -2.639933976   0.596654284
H       -0.812128724  -1.574596649   2.080895541
H       -3.500716725  -0.921536903  -1.384454191
H        0.672230212  -2.128010138  -1.995504270
H        1.187052900   1.613892105  -2.148724876
H       -2.130157310   0.611384447  -1.851862274


