 # Version information for this restart file 
 # current date 2021-06-17 12:37:12.090
 # current working dir /user/ub2042/exercises/2_fitting/MM_MD_workdir/md_settings.002
 # Program compiled at                              Thu Apr 22 21:44:59 EDT 2021
 # Program compiled on                cpn-k07-07-02.compute.cbls.ccr.buffalo.edu
 # Program compiled for                                                    local
 # Source code revision number                                       git:36754bb
 &GLOBAL
   PRINT_LEVEL  LOW
   PROJECT_NAME cp2k
   RUN_TYPE  MD
 &END GLOBAL
 &MOTION
   &MD
     ENSEMBLE  NVT
     STEPS  10000
     TIMESTEP     2.4999999999999996E+00
     STEP_START_VAL  7000
     TIME_START_VAL     1.7499999999998578E+04
     ECONS_START_VAL    -1.3948793637821183E+01
     TEMPERATURE     3.0000000000000000E+02
     &BAROSTAT
       PRESSURE     1.0100000000000000E+00
       TIMECON     9.9999999999999982E+03
     &END BAROSTAT
     &THERMOSTAT
       TYPE  CSVR
       &CSVR
         TIMECON     9.9999999999999982E+03
         &THERMOSTAT_ENERGY
              -2.4268054588236426E-01
         &END THERMOSTAT_ENERGY
         &RNG_INIT
Wiener process for Thermostat # 1        1 F T F  -9.6117049849395275E-01        4292059355.0        1034014718.0        2730869498.0        3644692507.0         585491445.0        2739155311.0             12345.0             12345.0             12345.0             12345.0             12345.0             12345.0             12345.0             12345.0             12345.0             12345.0             12345.0             12345.0
         &END RNG_INIT
       &END CSVR
     &END THERMOSTAT
     &AVERAGES  T
       &RESTART_AVERAGES
         ITIMES_START  1
         AVECPU     1.7528663927988498E-02
         AVEHUGONIOT     0.0000000000000000E+00
         AVETEMP_BARO     0.0000000000000000E+00
         AVEPOT    -1.4285430079698822E+01
         AVEKIN     4.6312921774408389E-01
         AVETEMP     2.3493086854089108E+02
         AVEKIN_QM     0.0000000000000000E+00
         AVETEMP_QM     0.0000000000000000E+00
         AVEVOL     6.7483345830910429E+06
         AVECELL_A     1.8897261328855717E+02
         AVECELL_B     1.8897261328855717E+02
         AVECELL_C     1.8897261328855717E+02
         AVEALPHA     9.0000000000000000E+01
         AVEBETA     9.0000000000000000E+01
         AVEGAMMA     9.0000000000000000E+01
         AVE_ECONS    -3.9698617310726783E+00
         AVE_PRESS     0.0000000000000000E+00
         AVE_PXX     0.0000000000000000E+00
       &END RESTART_AVERAGES
     &END AVERAGES
     &PRINT
       &ENERGY  SILENT
         &EACH
           MD  10
         &END EACH
       &END ENERGY
     &END PRINT
   &END MD
   &PRINT
     &TRAJECTORY  SILENT
       &EACH
         MD  10
       &END EACH
     &END TRAJECTORY
     &CELL  SILENT
       &EACH
         MD  10
       &END EACH
     &END CELL
     &VELOCITIES  SILENT
       &EACH
         MD  10
       &END EACH
     &END VELOCITIES
     &FORCES  SILENT
       &EACH
         MD  10
       &END EACH
     &END FORCES
     &RESTART  SILENT
       &EACH
         MD  10
       &END EACH
     &END RESTART
   &END PRINT
 &END MOTION
 &FORCE_EVAL
   METHOD  FIST
   &MM
     &FORCEFIELD
       VDW_SCALE14     1.0000000000000000E+00
       EI_SCALE14     1.0000000000000000E+00
       SHIFT_CUTOFF  T
       DO_NONBONDED  T
       IGNORE_MISSING_CRITICAL_PARAMS  T
       &SPLINE
         R0_NB     2.5000000000000000E-01
       &END SPLINE
       &NONBONDED
         &LENNARD-JONES
           ATOMS Br Br
           EPSILON     1.2630795322675199E+02
           SIGMA     3.6900000000000004E+00
         &END LENNARD-JONES
         &LENNARD-JONES
           ATOMS Cs Pb
           EPSILON     8.6920055954630968E+01
           SIGMA     3.9452500000000001E+00
         &END LENNARD-JONES
         &LENNARD-JONES
           ATOMS Cs Cs
           EPSILON     2.2644852172126850E+01
           SIGMA     4.5300000000000002E+00
         &END LENNARD-JONES
         &LENNARD-JONES
           ATOMS Pb Pb
           EPSILON     3.3363415533600227E+02
           SIGMA     6.1000000000000005E+00
         &END LENNARD-JONES
         &LENNARD-JONES
           ATOMS Br Cs
           EPSILON     5.3481070753900497E+01
           SIGMA     3.6300000000000003E+00
         &END LENNARD-JONES
         &LENNARD-JONES
           ATOMS Br Pb
           EPSILON     2.0528187276773045E+02
           SIGMA     2.9800000000000000E+00
         &END LENNARD-JONES
       &END NONBONDED
       &CHARGE
         ATOM Cs
         CHARGE     4.1739999999999999E-01
       &END CHARGE
       &CHARGE
         ATOM Pb
         CHARGE     8.3479999999999999E-01
       &END CHARGE
       &CHARGE
         ATOM Br
         CHARGE    -4.1739999999999999E-01
       &END CHARGE
     &END FORCEFIELD
     &POISSON
       PERIODIC  XYZ
       &EWALD
         EWALD_TYPE  SPME
         GMAX  62 62 62
         O_SPLINE  4
       &END EWALD
     &END POISSON
     &PRINT
       &FF_INFO  LOW
         SPLINE_INFO  F
         SPLINE_DATA  F
       &END FF_INFO
     &END PRINT
   &END MM
   &SUBSYS
     &CELL
       A     1.0000000000000001E+02    0.0000000000000000E+00    0.0000000000000000E+00
       B     0.0000000000000000E+00    1.0000000000000001E+02    0.0000000000000000E+00
       C     0.0000000000000000E+00    0.0000000000000000E+00    1.0000000000000001E+02
       PERIODIC  XYZ
       MULTIPLE_UNIT_CELL  1 1 1
     &END CELL
     &COORD
Cs   -7.7402893460869204E-01   -1.0745996307576440E+00   -6.5503717879993051E+00
Cs    1.2358691085212516E+00   -6.2143807127624004E+00   -5.3184834879751373E+00
Cs    1.8018267557156160E+00   -1.1500292004793680E+01   -4.9234380094699750E+00
Cs   -5.5049547891872441E+00   -6.5026092983213664E+00   -4.3110491929439627E+00
Br   -6.5996035572159535E+00   -1.4298552078689589E+01   -6.0583142775220891E+00
Br    1.1490002629631881E+01   -1.8955939191633466E+00   -9.0061173697060717E+00
Br   -4.3893176642064633E+00    4.7477944061350330E-01   -1.2249123682704710E+01
Cs   -1.0259778114991807E+00    4.8812441880840565E+00   -7.2367980341374709E+00
Cs    7.6987334074355068E-02    5.8517737015864535E-01    2.5008264290029125E-01
Cs    1.4125897602211219E+00   -5.3788693370222811E+00   -2.1827923675392141E-04
Br   -5.4050439537772155E+00   -2.9516570835320777E+00    3.8906780413063866E+00
Cs   -1.0571852560553188E+01   -5.1511305488383377E+00    1.2918652252752963E+01
Cs    1.3789760466922887E+01   -9.6579916442226832E+00    7.0935922556685516E-02
Cs   -6.1927303820719262E+00    5.5775939158483432E+00    5.7471568821039640E-02
Cs   -1.7504860851543769E-01    1.2157783920079263E+01   -9.7255685506014755E-01
Cs   -7.7954814290697172E-01    5.9017248891071565E+00   -7.3119918691082353E-01
Cs    1.6560952790807237E-01    1.4779816975153444E+00    5.5434544293465420E+00
Cs    1.5190332226388190E+00   -5.2052154429742759E+00    6.8383395143020369E+00
Cs    2.3816679403713739E+00   -1.0914167761070626E+01    6.9386338773928324E+00
Cs   -6.1128724423798628E+00    7.4310668080095521E+00    1.0680476352668217E+01
Cs   -7.8101799073442395E+00   -3.5072940386709535E+00   -1.1077900911579745E+01
Cs   -4.5107662800658170E+00   -1.1950628430783237E+01   -4.0955766069797139E+00
Cs   -5.0921519087331770E+00    9.9325746802468612E-02    6.1732849821969848E+00
Br   -2.7922724240711485E+00   -3.1429329292434236E+00    9.1071890251037224E-01
Cs   -2.3403118832124228E-01    7.0344705332272408E+00    5.1505367829801703E+00
Br    1.2989426707375690E+01   -8.1654916388229726E+00   -9.3189284276771946E+00
Cs    4.7679960942324309E-02   -4.6665663153384145E+00    1.2928818873460431E+01
Br   -2.6903847025084717E+00    3.4102957116391197E-01    3.7710799447941010E+00
Br   -7.6417115441903141E+00   -1.5086386407862431E+00    1.2579163406909363E+01
Cs    1.1131164942707313E+01    1.1872953901826019E+01   -8.5081173039713640E+00
Cs   -1.0723253629784320E+01   -6.7902931072728139E+00    8.1332508823574052E+00
Cs   -4.8506876134673229E+00   -5.4165008431073236E+00    7.0322298065502498E+00
Cs   -7.1338174368598963E+00    9.6066163619836260E+00   -7.1967360239730560E+00
Br   -1.0871622727561324E+01   -8.7420285832412716E+00    1.0710131132365715E+01
Br   -7.7631415652915434E+00   -8.9222801190727008E+00    7.5925651972237462E+00
Cs   -1.0594272461765545E+01   -8.1780399487351545E+00   -3.8029867376480881E+00
Cs   -7.1874749690281048E+00    4.6747673186719734E+00   -7.7008457783001667E+00
Br   -8.2611481270348754E+00   -5.7876273165720553E+00    1.0639540314977815E+01
Cs    1.1424494686880136E+01    7.4004915851596351E+00    9.5902804471826677E+00
Br   -1.2378971180125715E+01    8.3643877015818724E+00    8.0914452276216959E+00
Br   -5.5496902072974770E+00   -3.4984056036507329E+00   -2.2238025776895340E+00
Cs    4.9257055088908058E-01    2.1952230766948744E+00    1.2690326139446741E+01
Cs    1.0793774253661185E+01    6.4590748760708188E+00   -9.4159308317353108E-01
Cs   -1.1812689690574743E+01   -9.4544120755567445E+00   -8.6750571510596810E+00
Cs    1.2253903342321168E+01    1.2040316998614768E+00    5.8460275286437824E+00
Cs   -1.2942569061625090E+01    8.8309914243848215E+00   -6.0804470096033061E+00
Cs    1.2764179567299816E+01   -9.1851812247636371E+00    6.6756154766225668E+00
Cs    5.8858989780646684E+00   -6.0645610338202234E+00   -1.1176957403987847E+01
Cs    7.2532756897512325E+00   -1.0396464802328223E+01    6.3647743672364907E+00
Cs   -4.5809480386195514E+00   -1.1221629959200424E+01    1.3223155873069903E+00
Cs    6.2152586776639245E+00   -1.2195008982152464E+01   -1.0299315945008354E+01
Cs    1.0539079535289703E+01    6.7206889468284388E+00   -7.3155325483034890E+00
Cs    1.2016225478687646E+01    1.2175506927500084E+01    4.1640213941369657E+00
Cs    1.0247823184508558E+01    6.0863200116986009E+00   -1.3762772846780440E+01
Cs    3.7657526546651138E-01   -7.1256853938580260E+00   -1.1172326153430355E+01
Cs   -1.2147576103528227E+01   -3.1201883489358253E+00   -5.6402697707866798E+00
Cs    6.6023158766848873E+00   -3.8861565606565986E+00    1.2118660331397070E+01
Cs    1.2216730433596091E+01   -4.1223900913456211E+00    7.0460191124255305E+00
Cs   -1.0160867766595215E+01   -1.1621559639367375E+01    8.7395737598252108E+00
Cs   -4.4770065853007673E-01   -1.3969494521745680E+00   -1.1561227954364176E+01
Cs   -5.6303354417573626E-01    1.1896452625052785E+01    4.8138992239249054E+00
Cs   -2.0220678351053385E+00    3.6802634821452531E+00   -1.2586457684371016E+01
Cs    5.9298376686863392E+00   -2.9625216248079111E-01   -6.5959688590745840E+00
Cs    6.0559522800408550E+00   -5.6347046241649092E+00   -5.9301706267623846E+00
Cs   -3.0950026086206215E+00   -1.3763173539684455E+01    5.7281738350904092E+00
Cs   -1.1037903652547426E+01   -6.6494019279389305E-01    5.8558025137437335E+00
Cs    5.5372567009939928E+00   -5.8229992045118206E-01   -1.1604050375446972E+01
Cs    4.5528654290406427E+00    9.9791272979738874E+00   -1.3929659384002557E+01
Cs   -3.9268469236899861E-02    6.9482182691282475E+00    1.0224339264159841E+01
Cs   -6.2657166842218075E+00    1.1506335130884827E+01    4.8728475700389478E+00
Cs    4.7418810321106468E+00    1.0955630810769946E+01   -7.5814545444699393E+00
Cs    5.0279138405142358E+00    5.9476980886472646E+00   -6.8159061513777193E+00
Cs    6.4552104533706460E+00    5.8882968663608193E-01   -8.8053254427483729E-01
Cs    7.3458494731261679E+00   -5.1260063668917262E+00    1.3035509025049485E-01
Cs    7.8896860730293090E+00   -1.0569320738849296E+01    5.4494921890527637E-01
Cs    4.0247305590499911E+00    5.6134784847963557E+00   -1.2879016814006413E+01
Cs   -5.8936203597610151E+00    5.7794888921523802E+00    6.2370405344379680E+00
Cs   -5.9953881362619068E+00   -9.0346364274731190E+00   -9.7727581132803465E+00
Cs    5.4613309032989017E+00    6.3283204687483741E+00   -3.9112779311536267E-01
Cs    5.6891788958198113E+00    9.1426526138952713E-01    5.4535984443646290E+00
Cs    6.6467372633841340E+00   -4.5729510267285693E+00    6.3396387591411774E+00
Cs   -6.5691564411001782E+00    1.0319767500995491E+01   -1.5979876553730974E+00
Cs    1.1962785571818292E+01    1.4434641621768762E-01    5.9274811910977609E-02
Cs   -5.5715276919392949E+00   -9.6730729182457220E-01    7.5426600007708022E-01
Cs   -1.1198906246497012E+01    5.2717646149880526E+00    5.2443742983396993E+00
Cs   -5.3602769257528404E+00    5.2798959338488793E-01    1.1560995298144645E+01
Cs    4.5612557264332025E+00    1.4791360192618393E+01    5.2536499391001872E+00
Cs    6.5167949117458939E+00    7.1168105297085731E+00    4.6921459903163365E+00
Cs    6.4046513259065847E+00    1.8581742986139755E+00    1.0938887372743833E+01
Cs    3.9234720438511581E+00    1.2237886283568622E+01   -1.1823370181481554E+00
Cs    1.1000038953921393E+01    1.0283218844620128E+00   -7.8336257713168393E+00
Cs    1.1643687422256178E+01   -5.6616970254440853E+00   -6.4928290383543725E+00
Cs    6.9044574951345776E+00   -1.0147846230698065E+01    1.1837823040471140E+01
Cs    1.0977079629747109E+01    1.1626166647609381E+01   -1.7700885373718762E+00
Cs   -1.0817999477917619E+01    3.7168652523563966E-01    1.2310829863097823E+01
Cs   -7.3582300960593097E+00    3.3127352814389841E+00   -1.2100434481762575E+01
Cs   -1.2995392954588091E+01    1.0619364779075857E+01   -1.1926475796824496E+00
Cs   -5.3171762804869109E+00   -5.1462654158666359E+00    1.2473773633732870E+01
Cs   -4.6150415076822489E+00   -8.3397197706563251E+00    1.5355805047895213E+01
Cs    6.0470966694447030E+00    8.3716102444440175E+00    1.0310666276740395E+01
Cs    1.3039362317386793E+01   -4.5070976187817120E+00    1.1366530965086132E+00
Cs   -1.1259374726552272E+01   -7.4435081389389735E-01    5.6723318915317866E-01
Cs   -8.2055129049573488E+00    8.7168788820711871E+00   -1.2445293576283950E+01
Cs   -1.2003467233842699E+01    4.0887993133991394E+00   -1.6700612027597178E-01
Cs   -9.1152079054602755E+00   -1.4576811514450862E+01   -3.0296556536621546E+00
Cs   -1.1481609315643572E+01   -6.6366625084784214E+00    2.7664283347830811E+00
Cs   -5.1975530096497851E+00   -6.2266781282626473E+00    1.6127013934941097E+00
Cs   -5.2293368594569021E+00   -1.0971311075688693E+01    7.8276602212399249E+00
Cs    1.2165768118458079E+01   -4.0209110750803463E+00    1.1972014237316182E+01
Cs    1.1751529568122434E+01    6.9319938086893931E+00    4.0779437228165172E+00
Cs   -1.1722524655356999E+01    3.3416175943235857E+00   -5.5881051636478274E+00
Cs   -5.7809428202535624E+00   -8.2581438201121304E-01   -4.8456111994563065E+00
Cs   -1.0242612908805485E+01   -1.2730002920779144E+01    2.8680793900549282E+00
Cs    1.0672908493544307E+01   -6.4554157186447174E+00   -1.1791979538381481E+01
Cs   -4.0451509508267200E+00   -1.3898092947530960E+01   -8.7593570964562151E+00
Cs   -1.1577578150696513E+00    1.0735148942304166E+01   -1.3487230729142258E+01
Cs    8.4290461021938123E-01   -1.1991911155055428E+01   -1.1284708351952856E+01
Cs   -6.3946159212494236E-01    1.1844788296592418E+01   -7.0429607039730140E+00
Cs   -1.1754200944330320E+01    6.1591285149953565E+00    1.0345280757168991E+01
Cs    1.5022793347725090E+00   -1.0760735238332289E+01    6.9953112129315664E-01
Cs   -1.2756043003751275E+01    2.8569616934074586E+00   -1.0901823079582261E+01
Cs   -1.2607184143474285E+01    1.0580011611548345E+01    4.9202387792939577E+00
Cs    6.9396482990135500E+00   -1.1571934630432814E+01   -5.0944054981969842E+00
Cs    1.1593596703736676E+01    3.3979745717073129E-01   -1.1692431000445930E+01
Cs   -7.9247218756742321E-01    1.3195861668777694E+01    8.7905734285393624E+00
Pb    3.3610282270823051E+00   -2.8360946996774752E+00   -2.7361207144980120E+00
Pb    4.1518140844838998E+00   -8.8648283547421638E+00   -2.3548736273288249E+00
Pb   -8.4513345214022344E+00   -3.3579957762342638E+00    4.1051837280656240E+00
Pb   -1.7799883584015077E+00   -9.0711838205843716E+00   -1.5849308903732553E+00
Pb    2.3284198177070135E+00    9.0745011458028202E+00   -4.2934412819703907E+00
Pb    2.9375413748034673E+00    3.1405480573147626E+00   -3.8736470066318396E+00
Pb    3.2537228395312168E+00   -2.0502919014752998E+00    3.3469604458710625E+00
Pb    4.1598011029377124E+00   -7.8806433950919974E+00    3.7304604460751456E+00
Pb   -3.6097642348838006E+00    9.0839282732123916E+00    1.7870368997305413E+00
Pb    2.4566777450747614E+00    9.9901136414197964E+00    1.7700566903130743E+00
Pb    2.9416684069917465E+00    3.7978141094437481E+00    2.2417162709536340E+00
Pb    3.3847176934110403E+00   -1.6937897161982567E+00    9.4575538697378310E+00
Pb    3.8783108194756077E+00   -7.6590490021335214E+00    9.8197423482015154E+00
Pb   -3.1062086787924579E+00    3.2535812014686250E+00    3.1120384206999523E+00
Pb    2.6016762836836578E+00    1.0228715074606074E+01    7.7984335591491432E+00
Pb    3.0557109350750267E+00    4.2629068911335670E+00    8.2416149053663954E+00
Pb   -2.3193763856852554E+00   -2.6354846086908368E+00    1.0030259028818447E+01
Pb   -7.9039770896181016E+00   -9.2389537188890163E+00    4.7635198653921798E+00
Pb   -9.2990195347971891E+00    1.3900595371131697E+00   -2.6502979311707451E+00
Pb   -3.0499550497319543E+00   -4.3246569038623548E+00   -8.4091829286315622E+00
Pb   -1.7168410132906344E+00   -8.8200873861651967E+00    4.3076233100431027E+00
Pb   -3.7935008269045167E+00    8.2070074285917745E+00   -4.1709669384752273E+00
Pb   -2.1492508573399305E+00   -8.7871013486759892E+00    1.0490567202374315E+01
Pb   -9.0113064690209228E+00   -4.4523467479608358E+00   -1.5898157794442871E+00
Pb   -8.4349639957997695E+00   -1.0541523770146370E+01   -1.0011567337152820E+00
Pb   -3.1524869148140917E+00    2.4985343354784550E+00   -2.9697494314215116E+00
Pb   -7.9314648958568208E+00   -8.8708772319627531E+00    1.1657195107698980E+01
Pb   -9.1085125947546821E+00   -5.7797797001193381E+00   -7.4607902920523923E+00
Pb    8.8255153849411521E+00   -2.6038847562019551E+00   -9.3888352948268974E+00
Pb    1.0200853920820565E+01   -9.5529966357064087E+00   -8.5798575489391968E+00
Pb   -2.0926038978009149E+00   -9.9886929066679251E+00   -7.4175077065136339E+00
Pb   -1.0717305707741525E+01    6.6027962531570958E+00   -9.4361482356002515E+00
Pb    2.9646448200618392E+00   -3.2481871525964268E+00   -8.8934735126099742E+00
Pb    4.1097426294717083E+00   -9.2301661329390665E+00   -8.1719327887651012E+00
Pb   -4.1016494774524750E+00    1.3277605548778122E+00   -9.3377682384753413E+00
Pb    1.0229848865424478E+00    8.4095418844583474E+00   -1.0361918826792799E+01
Pb    1.8440439073362211E+00    2.5227448997439850E+00   -1.0039746512143175E+01
Pb    9.4153454614489824E+00   -2.5913193934471601E+00   -3.1744151896499320E+00
Pb    1.0508657247214670E+01   -8.3728348031973017E+00   -2.7267117006634560E+00
Pb   -8.3643941056792777E+00   -2.8185205527708028E+00    1.0034652111432985E+01
Pb    7.3361279608694723E+00    9.2521330115217655E+00   -1.0947293010568865E+01
Pb   -9.8467787381583012E+00    4.7034264844761081E-01   -8.7326889023060463E+00
Pb   -3.5396714154178106E+00    9.6722763298566434E+00    7.8130305698635185E+00
Pb    8.5211032010593080E+00    9.3716437769914780E+00   -4.9141650974106712E+00
Pb    8.6311223251670430E+00    3.4605191694247055E+00   -4.2637047649082378E+00
Pb    9.0710127710504835E+00   -1.5377648910941712E+00    3.0665040560351935E+00
Pb    1.0216424806492100E+01   -7.2007466499367663E+00    3.3052791268818797E+00
Pb    8.3125872320222189E+00    3.4471519068769556E+00   -1.0563384046732269E+01
Pb   -2.8672904573246951E+00    3.6268671249706577E+00    8.9476552469829791E+00
Pb    8.3178410559319307E+00    1.0435685777332322E+01    1.0609016865206147E+00
Pb    9.0158166795887915E+00    4.2754593023684029E+00    1.8764861481194361E+00
Pb    9.7292893538617538E+00   -9.1761548901981904E-01    9.0067097414580335E+00
Pb    9.8167250888269066E+00   -6.8551334084781965E+00    9.3217849506675936E+00
Pb    8.6772546714874554E+00    1.0667721299764612E+01    7.0240872416663791E+00
Pb    8.9487591159959923E+00    4.7576638310359618E+00    7.8536973863349377E+00
Pb   -8.9542532471118932E+00    2.9347921417970655E+00    8.9623287784821368E+00
Pb   -2.4308696833834169E+00   -2.6485765662432166E+00    3.9241146949608630E+00
Pb   -9.6976205253468084E+00    8.3547877162830471E+00    2.0965463641084834E+00
Pb   -1.0056215622516707E+01    7.3290952228511967E+00   -3.6840225047774964E+00
Pb   -8.4075514259444812E+00   -1.1971169248435345E+01   -6.7106011291877534E+00
Pb   -4.8007593271917814E+00    7.4142990267541498E+00   -1.0496067144419611E+01
Pb   -8.9482173090778367E+00    2.4698579195351580E+00    3.0511133592265582E+00
Pb   -9.6065893728996166E+00    8.9917667276958682E+00    8.0700875812243869E+00
Pb   -2.6956761207635012E+00   -3.3287781395162903E+00   -2.2638333392786767E+00
Br    3.4828505693512862E-01   -2.8249990247509174E+00   -2.7430616204256606E+00
Br    3.3406524766557211E+00   -3.4067990263996619E+00   -5.7917849473944099E+00
Br    3.7631520576421580E+00   -5.7110132860160999E-02   -3.9943301832581071E+00
Br    9.1061746259062148E-01   -8.5554096565443984E+00   -2.1103443532163118E+00
Br    4.0662048514202995E+00   -8.7501613838931185E+00   -5.2771950561633965E+00
Br    3.3306580612768890E+00   -5.8350528161370869E+00   -2.8654998848931901E+00
Br   -2.9028370845196600E+00   -4.1951256324255768E+00   -5.3176980020584335E+00
Br   -8.6873984918883522E+00   -3.4036389109378606E+00    7.0903803412304764E+00
Br   -3.3651430407447211E+00   -5.0297010185734081E-01   -2.6394152337024273E+00
Br    3.8353673601794314E+00   -1.1701219887510112E+01   -2.3586572967440800E+00
Br    1.2011073524934398E+01   -1.3743472429658381E+00    3.2529218035327343E+00
Br   -4.7809638069871676E+00   -8.9561589018281769E+00   -1.3101395700582457E+00
Br   -1.1624182433089789E+01   -3.5369916146287705E+00    4.3139440345489266E+00
Br   -8.4553982361024094E+00   -4.1012879150516479E+00    1.2137035167673824E+00
Br    1.3082758065771872E+01   -7.2562363997640880E+00    3.7718303714169479E+00
Br   -5.1197636347989228E-01    8.5668258525292522E+00   -4.2714482369710245E+00
Br    1.6987961968219067E+00    9.3336519711940369E+00   -7.2909760166333344E+00
Br    1.4438650381067362E+00    1.1947908345976062E+01   -4.2198695141303988E+00
Br   -3.1310379045900651E-02    2.3988267412368049E+00   -3.1412385205835514E+00
Br    2.0170503998144529E+00    3.2292051603321443E+00   -6.6000013571484502E+00
Br    2.9713515924478107E+00    6.2433882617905452E+00   -3.5654862908653802E+00
Br    5.3855075472052238E-01   -2.9094516854769261E+00    3.4517460466900824E+00
Br    2.7202397041902806E+00   -1.9073038504604460E+00    3.1326427188451866E-01
Br    2.6629864853109195E+00    6.9565071300069869E-01    3.2142292503529726E+00
Br    1.0613987068947617E+00   -8.3866351097892107E+00    4.0130752494329469E+00
Br    3.8158567158085783E+00   -8.1799564092301846E+00    7.1795295568040052E-01
Br    3.5721995436484928E+00   -4.8548752698286597E+00    2.6689616351063492E+00
Br   -7.5340329588859056E+00    6.5960241107505162E+00   -9.9796329180219114E+00
Br   -5.7092555985451767E+00    6.7396635678458221E+00   -1.3173328205535320E+01
Br    4.8557820012543305E+00   -1.0636769963709241E+01    4.3789888529563932E+00
Br   -5.5792907857346572E+00    1.0129841152176631E+01   -1.0029089087447439E+01
Br   -4.3861133391218230E+00    4.1810498351282126E+00   -1.0229199113682785E+01
Br   -8.5104076172642333E+00   -4.3312063859911787E-01    3.7510032013193784E+00
Br   -1.9956441528092614E+00   -9.3766817661422603E+00   -4.5978544529441994E+00
Br   -6.9918492923521853E+00    8.9207602759136133E+00    1.6799669620355981E+00
Br   -3.8011939567309754E+00    8.4572560695242753E+00   -1.2245652922329500E+00
Br   -3.4372041561284234E+00    1.1995605364396148E+01    1.6380083644030083E+00
Br   -5.8328138621632009E-01    9.4640157529373727E+00    1.5627643166081038E+00
Br    2.7757735142162030E+00    9.4098487920793090E+00   -1.4820290859255147E+00
Br    1.6405012410745488E+00    1.2919255257982574E+01    1.4400534124678814E+00
Br   -1.3828851553706520E-01    3.4130936830181549E+00    2.4145421377678598E+00
Br    3.0388125032607478E+00    2.6570870504115214E+00   -1.0577892403787754E+00
Br    2.8545263414761743E+00    6.5266181887486105E+00    1.6593427419564388E+00
Br    5.7658604082445042E-01   -2.4822113231239769E+00    9.8160750122797271E+00
Br    3.1950950157537163E+00   -2.2985997419798547E+00    6.2094518017248888E+00
Br    2.6824419361741159E+00    1.3820403065778712E+00    9.1218753133463295E+00
Br    7.9422710126497464E-01   -7.8725519317870170E+00    9.5484256247375079E+00
Br    3.9539618263055889E+00   -7.7648862374214866E+00    6.7469394226387571E+00
Br    4.2307498495955151E+00   -4.7289728865290783E+00    9.0563581702238150E+00
Br   -1.1582407964697094E+01    1.8730314655947204E+00    2.4629631861007955E+00
Br   -8.7045503938883080E+00    1.6924709779804770E+00    1.3475627073509328E-01
Br    3.8626500730994380E+00   -1.0656867501150057E+01    1.0324634636311538E+01
Br   -9.0654640527301478E+00    5.4886180153728121E+00    2.2384906349276963E+00
Br   -8.8732449937995721E+00   -7.7362754100139042E-02    9.3114774355344423E+00
Br   -2.2072274931029745E+00   -6.0585926795722775E+00   -1.7463658227661083E+00
Br   -5.9351196694232433E+00    3.5868108138405437E+00    3.5854923921084825E+00
Br   -3.2624536792832841E+00    2.6993116085902540E+00    2.7184383735615808E-01
Br   -3.1604868781011479E+00    6.1443977303417698E+00    2.3674398419629208E+00
Br   -5.4053278152613926E-01    9.8662785846083985E+00    7.8020120282709469E+00
Br    1.8270745885544657E+00    9.6731328836392123E+00    4.7312179640228695E+00
Br    2.0178128659067198E+00    1.3024340779612714E+01    7.2740947973020695E+00
Br   -6.4440253224025607E-02    4.5118660885615389E+00    8.2514987078295672E+00
Br    3.0535143800863054E+00    3.8095750633112710E+00    5.1062130129378707E+00
Br    3.1552061171089893E+00    7.0416515904923251E+00    7.6840623201634095E+00
Br   -5.2620535557458483E+00   -2.7692085955183541E+00    9.2431423427492003E+00
Br    3.1696261963311301E+00   -2.1453782322539259E+00    1.2238995744479864E+01
Br   -1.9576961682633358E+00   -2.4228840604665947E+00    6.7081403814542160E+00
Br   -2.7562332427938792E+00    7.6854833893174057E-01    9.8038355962836068E+00
Br   -1.9305362998247046E+00   -1.1785611284266297E+01   -1.5398746899599101E+00
Br    4.8989780727581058E+00   -6.8621259873378539E+00    1.2395837326194108E+01
Br   -1.1997583070427476E+01    1.5147175504373931E+00   -2.3880292771266975E+00
Br   -1.1487913716820455E+00   -1.1250444224427984E+01    5.5312682443633454E+00
Br   -1.1839120038912169E+01   -5.3654265532645038E+00   -1.7569135227168966E+00
Br    2.6836097069137415E+00    9.7431147899371489E+00    1.0760050839131386E+01
Br   -8.5693396092493881E+00   -5.1048438372159195E+00   -4.6550943467026418E+00
Br   -9.2821512547543783E+00   -1.6668798839434142E+00   -1.7033750997381789E+00
Br    2.6166416062604894E+00    4.5380408121873348E+00    1.1201871141036751E+01
Br   -7.2401213435925333E+00    8.4760367965080903E+00   -4.1677298068167516E+00
Br   -4.5185172765958539E+00    7.1719451776647771E+00   -7.5282754181632994E+00
Br   -4.2131793437838345E+00    1.0514726158326791E+01   -5.6181482803244593E+00
Br   -6.6803291174021187E+00    1.8880652761056489E+00   -3.3976965555013972E+00
Br   -1.0722350090984081E+01   -9.2735547454470648E+00    4.9512323060482499E+00
Br   -3.4573450530779066E+00    2.1405035284063025E+00   -6.4492897726416443E+00
Br   -5.8968653672915350E+00   -5.1928508981470189E+00   -7.9600979217713537E+00
Br   -2.5494579709689473E+00   -4.3651863392343397E+00   -1.1381739852028224E+01
Br   -3.5972249933968761E+00   -1.3005677141157070E+00   -8.4319789730584453E+00
Br   -2.2768406929387712E+00    4.6695082090710516E+00    1.1961938247360074E+01
Br   -5.2055241399125460E+00   -9.1198190684798455E+00    1.1266572425272901E+01
Br   -2.8484039387814986E+00   -8.2514713142906455E+00    7.4196455287130147E+00
Br   -2.5168954299766768E+00   -5.7082041332628926E+00    1.0828991324936664E+01
Br   -8.3513090653308240E+00   -1.0132197613315370E+01    1.8901662490317503E+00
Br   -7.5689096461652996E+00   -6.3527908627301750E+00    4.1614675189520547E+00
Br   -1.0023464400474843E+01    9.1173379444597931E+00    1.0790262565348742E+01
Br    1.1057940049008421E+01    1.0622313664046288E+01    1.3853773794531834E+00
Br   -7.7451225583500012E+00   -7.0953874926935292E+00    1.3706760279163799E+01
Br    1.1600363092354863E+01    9.3564821919853198E+00   -4.5084498980322119E+00
Br    1.1663546547910270E+01    4.1826181651411618E+00    1.3905052492635170E+00
Br   -8.8987912227870360E+00    2.9903109426123455E+00    1.1862843160817555E+01
Br   -1.1700160744101343E+01   -6.6460264360556991E+00   -6.5255670072476253E+00
Br    1.2303220768347494E+01   -9.2107008838789628E-01    8.2365998386911876E+00
Br   -5.1353835723993582E+00   -9.1589108682525620E+00    4.3293751089712940E+00
Br    5.9241918936253262E+00   -2.5311443837351044E+00   -8.9328766475755206E+00
Br    8.7150567313089962E+00   -3.1757012626924972E+00   -1.2079010089497062E+01
Br    1.2603773267117024E+01   -6.2051347424464236E+00    9.7503322348547581E+00
Br    8.2812915579003743E+00    2.4213410670587104E-01   -9.8238615501790552E+00
Br   -8.7673731838802684E+00   -1.1670054420222080E+01    1.2129908825297582E+01
Br   -1.5825975650990729E+00   -9.5541483631596105E+00    1.5613919544613983E+00
Br   -1.9322102612353993E+00   -5.5510838021324656E+00    4.0969154355616411E+00
Br    6.6771961128541415E+00   -8.4674034680165207E+00   -8.8339534288827988E+00
Br   -4.9191454363216645E+00   -1.0409571406398326E+01   -6.9907447740004374E+00
Br    8.9666294916139613E+00   -1.0071438638273820E+01   -1.1750900542534326E+01
Br    9.2133615719681217E+00   -5.4646016786312543E+00   -8.9367759146854926E+00
Br   -2.7024424668042824E+00   -1.1871475213092936E+01    9.8909199679820965E+00