 # Version information for this restart file 
 # current date 2021-06-17 12:35:26.763
 # current working dir /user/ub2042/exercises/2_fitting/MM_MD_workdir/md_settings.002
 # Program compiled at                              Thu Apr 22 21:44:59 EDT 2021
 # Program compiled on                cpn-k07-07-02.compute.cbls.ccr.buffalo.edu
 # Program compiled for                                                    local
 # Source code revision number                                       git:36754bb
 &GLOBAL
   PRINT_LEVEL  LOW
   PROJECT_NAME cp2k
   RUN_TYPE  MD
 &END GLOBAL
 &MOTION
   &MD
     ENSEMBLE  NVT
     STEPS  10000
     TIMESTEP     2.4999999999999996E+00
     STEP_START_VAL  1000
     TIME_START_VAL     2.5000000000000191E+03
     ECONS_START_VAL    -1.3948793637821183E+01
     TEMPERATURE     3.0000000000000000E+02
     &BAROSTAT
       PRESSURE     1.0100000000000000E+00
       TIMECON     9.9999999999999982E+03
     &END BAROSTAT
     &THERMOSTAT
       TYPE  CSVR
       &CSVR
         TIMECON     9.9999999999999982E+03
         &THERMOSTAT_ENERGY
              -3.6962099955900551E-02
         &END THERMOSTAT_ENERGY
         &RNG_INIT
Wiener process for Thermostat # 1        1 F T F   1.0152681475302341E+00        4151329329.0        2923023059.0        3467513410.0         632595511.0         113404566.0        2008274716.0             12345.0             12345.0             12345.0             12345.0             12345.0             12345.0             12345.0             12345.0             12345.0             12345.0             12345.0             12345.0
         &END RNG_INIT
       &END CSVR
     &END THERMOSTAT
     &AVERAGES  T
       &RESTART_AVERAGES
         ITIMES_START  1
         AVECPU     1.7373590023024035E-02
         AVEHUGONIOT     0.0000000000000000E+00
         AVETEMP_BARO     0.0000000000000000E+00
         AVEPOT    -1.4341828289046621E+01
         AVEKIN     4.0868872637636056E-01
         AVETEMP     2.0731492156369137E+02
         AVEKIN_QM     0.0000000000000000E+00
         AVETEMP_QM     0.0000000000000000E+00
         AVEVOL     6.7483345830898909E+06
         AVECELL_A     1.8897261328856308E+02
         AVECELL_B     1.8897261328856308E+02
         AVECELL_C     1.8897261328856308E+02
         AVEALPHA     9.0000000000000000E+01
         AVEBETA     9.0000000000000000E+01
         AVEGAMMA     9.0000000000000000E+01
         AVE_ECONS    -2.2845190827502431E+00
         AVE_PRESS     0.0000000000000000E+00
         AVE_PXX     0.0000000000000000E+00
       &END RESTART_AVERAGES
     &END AVERAGES
     &PRINT
       &ENERGY  SILENT
         &EACH
           MD  10
         &END EACH
       &END ENERGY
     &END PRINT
   &END MD
   &PRINT
     &TRAJECTORY  SILENT
       &EACH
         MD  10
       &END EACH
     &END TRAJECTORY
     &CELL  SILENT
       &EACH
         MD  10
       &END EACH
     &END CELL
     &VELOCITIES  SILENT
       &EACH
         MD  10
       &END EACH
     &END VELOCITIES
     &FORCES  SILENT
       &EACH
         MD  10
       &END EACH
     &END FORCES
     &RESTART  SILENT
       &EACH
         MD  10
       &END EACH
     &END RESTART
   &END PRINT
 &END MOTION
 &FORCE_EVAL
   METHOD  FIST
   &MM
     &FORCEFIELD
       VDW_SCALE14     1.0000000000000000E+00
       EI_SCALE14     1.0000000000000000E+00
       SHIFT_CUTOFF  T
       DO_NONBONDED  T
       IGNORE_MISSING_CRITICAL_PARAMS  T
       &SPLINE
         R0_NB     2.5000000000000000E-01
       &END SPLINE
       &NONBONDED
         &LENNARD-JONES
           ATOMS Br Br
           EPSILON     1.2630795322675199E+02
           SIGMA     3.6900000000000004E+00
         &END LENNARD-JONES
         &LENNARD-JONES
           ATOMS Cs Pb
           EPSILON     8.6920055954630968E+01
           SIGMA     3.9452500000000001E+00
         &END LENNARD-JONES
         &LENNARD-JONES
           ATOMS Cs Cs
           EPSILON     2.2644852172126850E+01
           SIGMA     4.5300000000000002E+00
         &END LENNARD-JONES
         &LENNARD-JONES
           ATOMS Pb Pb
           EPSILON     3.3363415533600227E+02
           SIGMA     6.1000000000000005E+00
         &END LENNARD-JONES
         &LENNARD-JONES
           ATOMS Br Cs
           EPSILON     5.3481070753900497E+01
           SIGMA     3.6300000000000003E+00
         &END LENNARD-JONES
         &LENNARD-JONES
           ATOMS Br Pb
           EPSILON     2.0528187276773045E+02
           SIGMA     2.9800000000000000E+00
         &END LENNARD-JONES
       &END NONBONDED
       &CHARGE
         ATOM Cs
         CHARGE     4.1739999999999999E-01
       &END CHARGE
       &CHARGE
         ATOM Pb
         CHARGE     8.3479999999999999E-01
       &END CHARGE
       &CHARGE
         ATOM Br
         CHARGE    -4.1739999999999999E-01
       &END CHARGE
     &END FORCEFIELD
     &POISSON
       PERIODIC  XYZ
       &EWALD
         EWALD_TYPE  SPME
         GMAX  62 62 62
         O_SPLINE  4
       &END EWALD
     &END POISSON
     &PRINT
       &FF_INFO  LOW
         SPLINE_INFO  F
         SPLINE_DATA  F
       &END FF_INFO
     &END PRINT
   &END MM
   &SUBSYS
     &CELL
       A     1.0000000000000001E+02    0.0000000000000000E+00    0.0000000000000000E+00
       B     0.0000000000000000E+00    1.0000000000000001E+02    0.0000000000000000E+00
       C     0.0000000000000000E+00    0.0000000000000000E+00    1.0000000000000001E+02
       PERIODIC  XYZ
       MULTIPLE_UNIT_CELL  1 1 1
     &END CELL
     &COORD
Cs   -1.1764223432336018E-02   -7.0438387996575272E-02   -5.6067035264309961E+00
Cs   -7.7032577042276951E-03   -6.2873212073520666E+00   -5.6257465141137795E+00
Cs   -3.9541894388179927E-01   -1.1756183079435155E+01   -5.5177662374457785E+00
Cs   -6.0650308068207943E+00   -5.7401624745915978E+00   -6.2905340282214057E+00
Br   -9.4709473228347605E+00   -1.2231094564906915E+01   -8.4989560691849508E+00
Br    1.1756169903234126E+01   -2.4603496907430058E+00   -8.9004784361746161E+00
Br   -2.4400466523316422E+00    2.4206416946285887E+00   -1.1682170528975094E+01
Cs    3.0882337650833330E-01    5.5839921860652026E+00   -5.8648624244580345E+00
Cs    5.0998324290761843E-01    2.7156299204745840E-02    1.3528862513665049E-01
Cs    1.4047984250108922E-01   -5.7683721300099826E+00   -2.9182509273126556E-01
Br   -5.6955051742761178E+00   -3.1523995535693090E+00    2.9641848594125983E+00
Cs   -1.0688227768440832E+01   -5.9763449467038372E+00    1.2559626368962805E+01
Cs    1.1494268308858233E+01   -1.2281161822710670E+01    1.2844987192138697E+00
Cs   -5.7755572463535207E+00    6.0533342718287475E+00   -5.1688494156119846E-01
Cs    5.7696483736027848E-01    1.1434796720454891E+01   -8.0354781187585156E-01
Cs   -4.0239665735876834E-01    5.9427751368684900E+00    4.6819836387814379E-01
Cs    5.7220532892434539E-01   -1.0367992788982894E-01    6.6969901150724844E+00
Cs    4.0531793727702170E-01   -5.0970594265793050E+00    5.6010220727593545E+00
Cs    7.1661803617243669E-01   -1.1403193833908283E+01    6.4124782927654636E+00
Cs   -6.4460450409008114E+00    6.7226544768592058E+00    1.2075041019520469E+01
Cs   -4.8654019755038931E+00   -7.3587044886257072E-02   -1.1580028515415883E+01
Cs   -5.7468280851445854E+00   -1.1653227849505608E+01   -6.1491839895268319E+00
Cs   -5.0478712022745542E+00    1.2906144945101367E-01    5.8226417277730533E+00
Br   -2.9949795214766666E+00   -2.9862802487195115E+00    1.4829435417192247E-01
Cs    6.7759712063263688E-01    6.7844678364873259E+00    5.7817245771900438E+00
Br    1.1656347430378380E+01   -8.6665289600172013E+00   -8.7370312214334511E+00
Cs    6.4691092830950508E-02   -5.6947857954019501E+00    1.1714285803786272E+01
Br   -2.9154704496794146E+00    2.1925268258529360E-01    2.8889416340999610E+00
Br   -8.6644697979879286E+00   -3.1950024800072168E+00    1.1942025530457954E+01
Cs    1.0713488104024107E+01    1.2298777825131058E+01   -6.1336051784065031E+00
Cs   -1.0424682607243417E+01   -5.9757067428329238E+00    5.6246871976571020E+00
Cs   -5.3771053105005535E+00   -6.0813647960610817E+00    6.0855065439923735E+00
Cs   -7.0282464314098565E+00    1.0954283147569299E+01   -6.0285759599731232E+00
Br   -1.1491186418333299E+01   -8.4168212413586545E+00    9.8393495466323095E+00
Br   -8.9935332412780298E+00   -8.8899275120416394E+00    5.7087627142183015E+00
Cs   -1.2504411411831189E+01   -5.8428260147706821E+00   -5.5455714515623420E+00
Cs   -6.3880990545409011E+00    5.2423912105285897E+00   -6.3909480365455842E+00
Br   -8.5553575330549272E+00   -5.9594222497435574E+00    9.4439124628719888E+00
Cs    1.0946967919696180E+01    5.6207858299876854E+00    1.1660521587291242E+01
Br   -1.1934570228334163E+01    8.9324115481700286E+00    8.1089395718949469E+00
Br   -6.2320969520557403E+00   -3.2733212489508383E+00   -2.9713420210142458E+00
Cs    9.1821659746135031E-01    1.6747718259617755E-01    1.2010152931826665E+01
Cs    1.1298928192208441E+01    5.4910135681635452E+00    7.2608365437781056E-02
Cs   -1.1134637173154236E+01   -6.7376064920533700E+00   -1.1353245609830003E+01
Cs    1.2194968659467875E+01    4.3802210696572286E-01    5.0334735972291238E+00
Cs   -1.1453782533249447E+01    1.0656681849467400E+01   -6.4971860841531246E+00
Cs    1.1620648543480986E+01   -1.1665550659491338E+01    7.0354974630198637E+00
Cs    5.5231071305028490E+00   -5.6016830573444851E+00   -1.1328665012285098E+01
Cs    5.6713781324153985E+00   -1.1515747259443296E+01    5.4411888661259251E+00
Cs   -5.6892933989249279E+00   -1.1554481650322266E+01   -4.5828671378484648E-01
Cs    6.4210451118037923E+00   -1.1491025320388509E+01   -1.1499311214383829E+01
Cs    1.1863378704198380E+01    6.5381015774354392E+00   -5.8770704568434873E+00
Cs    1.1586775754255305E+01    1.1288358115033546E+01    5.7146169917961753E+00
Cs    1.1219915802663298E+01    5.9926100669903244E+00   -1.2580521347721920E+01
Cs    8.0876056257138104E-02   -5.6589262931414845E+00   -1.1062710363899217E+01
Cs   -1.1662809707223888E+01   -3.1299777780136667E-01   -5.9385287597871317E+00
Cs    6.2739432959559487E+00   -5.5284456495202727E+00    1.0853244814689452E+01
Cs    1.1272994634075928E+01   -5.5317186213295910E+00    6.2038165756187524E+00
Cs   -1.0981307590959839E+01   -1.1381188931619128E+01    1.1872840638442403E+01
Cs   -4.7588978597812720E-02    2.7867098548948510E-01   -1.1321232497136220E+01
Cs    2.1968715887619067E-01    1.2531397125294744E+01    6.6505177815170891E+00
Cs   -5.4039782593053021E-01    5.5069882304066420E+00   -1.1060590029279950E+01
Cs    5.6972182040064521E+00   -4.2830959807583024E-01   -5.7663149854969733E+00
Cs    5.8354107480853052E+00   -6.8268095178821211E+00   -5.9682207932190234E+00
Cs   -5.4990360266638669E+00   -1.1681203266445097E+01    5.5703392857885090E+00
Cs   -1.1193347054500737E+01   -3.1870931860976248E-01    7.0200754356876720E+00
Cs    5.7094918073923777E+00   -1.3531062200716212E-01   -1.0997594749067762E+01
Cs    5.3382185582948676E+00    1.0656871527790518E+01   -1.1480326779052479E+01
Cs    8.9506683678401211E-01    6.5931767953601579E+00    1.1998248182347664E+01
Cs   -5.3587889309319872E+00    1.1922565765315623E+01    6.5993040011601289E+00
Cs    5.4197248706075367E+00    1.1229594144143405E+01   -5.1649115026803996E+00
Cs    6.0773835855584393E+00    5.5454426915953308E+00   -6.4885375073936897E+00
Cs    6.4595319102266773E+00    7.6384630295620481E-02    9.9857242240004099E-02
Cs    6.0812164889453380E+00   -5.2095906326420653E+00    5.5601235332508414E-01
Cs    6.5156570260490438E+00   -1.0982326828280126E+01    1.8718222247920929E-01
Cs    5.8757276746636089E+00    5.6472166470983165E+00   -1.1328322693499423E+01
Cs   -5.9577049696533955E+00    6.1001816595572027E+00    6.2932170797689500E+00
Cs   -5.5359421907274671E+00   -7.1178471975397830E+00   -1.2372244486210542E+01
Cs    5.3651393868499788E+00    6.4677256599646054E+00    3.8255250521903883E-01
Cs    6.8329355933001050E+00    2.9668741316679870E-01    6.4560310904992297E+00
Cs    5.5184340933968716E+00   -6.0513262784724446E+00    5.6679575992810758E+00
Cs   -5.8474835091436290E+00    1.1335414646525738E+01   -1.5017594197189837E-01
Cs    1.1104914558965381E+01    2.2699275786612141E-01   -1.5531472760877127E-01
Cs   -5.9904091145241978E+00    3.7883993491626011E-01    1.0839787682923372E+00
Cs   -1.1415138442299879E+01    5.8933589662086954E+00    6.5853590590217852E+00
Cs   -5.1101261255196473E+00   -1.2640886141932867E-01    1.1918418723945912E+01
Cs    5.6168221939494449E+00    1.2594084060578378E+01    6.3928169897023173E+00
Cs    6.5786859153304551E+00    5.4231719969705168E+00    5.6836441739339891E+00
Cs    6.5422383050269390E+00    7.6178980550569675E-01    1.1178236663485436E+01
Cs    6.3361987011369321E+00    1.1467585819762110E+01    4.9424107215507779E-01
Cs    1.1361226241242296E+01   -5.9262470214509211E-01   -5.9773537863928166E+00
Cs    1.1715122101755126E+01   -6.2422106158890607E+00   -6.3225396216296517E+00
Cs    5.9680596487040392E+00   -1.0801944414913761E+01    1.1332674488591268E+01
Cs    1.2145966732390191E+01    1.0998044678930063E+01   -5.7702728228355049E-01
Cs   -1.0298590378426411E+01   -2.6748857549032118E-01    1.2164216585388788E+01
Cs   -5.7030542794700265E+00    5.9467477864131402E+00   -1.1701176214445139E+01
Cs   -1.1752774520553702E+01    1.0757670076703825E+01   -2.9837966983869119E-01
Cs   -5.8285191858670879E+00   -5.5369713843520474E+00    1.1333267678718130E+01
Cs   -4.7782606777446501E+00   -1.1341279589115857E+01    1.1671909198094589E+01
Cs    6.5595587858862601E+00    7.2506084828267863E+00    1.2063012465887777E+01
Cs    1.1493801494377459E+01   -6.5158181926479459E+00   -1.5420719848662412E+00
Cs   -1.1021501076919471E+01   -7.4247619213888094E-01    1.4314320371860761E-01
Cs   -6.0773682013238197E+00    1.1217187088490759E+01   -1.1670243816833084E+01
Cs   -1.0983779247357674E+01    5.6386443788872436E+00   -5.1863811579399133E-01
Cs   -1.2215438013573381E+01   -1.1028576677460380E+01   -6.6691656529314702E+00
Cs   -1.1633128344230185E+01   -5.5736650829378354E+00    9.2778951499279824E-02
Cs   -5.9336919650304703E+00   -5.8218415772843288E+00    9.7554259001477548E-03
Cs   -1.1961617891894917E+01   -1.1316224292171562E+01    6.5032022859536847E+00
Cs    1.1647900653093135E+01   -5.7626545281384782E+00    1.1455128606955036E+01
Cs    1.0676221950558418E+01    6.3654683280971769E+00    5.6750458467063361E+00
Cs   -1.1563166262360509E+01    5.4034886799024688E+00   -5.9743387521114624E+00
Cs   -5.8933340314358436E+00   -2.3173649534892446E-01   -6.1710989188188234E+00
Cs   -1.0379968755258499E+01   -1.2090114307627264E+01   -4.4280370784214268E-01
Cs    1.2676129617078315E+01   -1.1919780801966924E+01   -9.2844613778359477E+00
Cs   -1.0189849941908731E+01   -1.2578824282446273E+01   -1.2146633537029752E+01
Cs   -1.1289270620763814E+00    1.1152839438851080E+01   -1.1131495787186783E+01
Cs   -1.3999571538395345E-03   -1.1271357009320530E+01   -1.1966439300383684E+01
Cs   -2.0712156740605470E-01    1.0551339985215044E+01   -6.2293534630579588E+00
Cs   -1.2048909279164185E+01    1.1007871347101675E+01    1.0602328811680966E+01
Cs    2.0183926671985108E-01   -1.1354680115170801E+01   -1.8802686736987520E-01
Cs   -1.2170594276122550E+01    4.9539681193146216E-02   -1.1147561395716423E+01
Cs   -1.1360793628459993E+01    1.1320871663850877E+01    5.4743873667144385E+00
Cs    6.1683739535954833E+00   -1.1264457358177134E+01   -5.7120969328722593E+00
Cs    1.1359285743151830E+01   -5.9767911770089499E-01   -1.1274124426209486E+01
Cs    5.9654080531557918E-01    1.1756755166355083E+01    1.1730224759752979E+01
Pb    2.9724394590199479E+00   -3.0146358966121403E+00   -3.1176215394652256E+00
Pb    3.3362167051134417E+00   -8.8839507910008848E+00   -3.0887413290952690E+00
Pb   -8.6853526778523911E+00   -3.1524468162709742E+00    3.2400847795551977E+00
Pb   -2.7656213539455141E+00   -9.2404204545382260E+00   -3.1745143799964874E+00
Pb    3.0255420776466382E+00    8.8374826304543195E+00   -2.9147642135419813E+00
Pb    3.2976997512906965E+00    2.8498455544245123E+00   -2.9537039907387088E+00
Pb    3.1517848322778494E+00   -2.7687705945016519E+00    2.9262546258938587E+00
Pb    3.1664338144095288E+00   -8.8976169158824625E+00    3.0904091547184191E+00
Pb   -3.0915004301301972E+00    9.6061974065671958E+00    3.2911388325503599E+00
Pb    2.9367974571565107E+00    9.1000493964151374E+00    3.0430660154964593E+00
Pb    3.1087108214117189E+00    2.9471373326367294E+00    3.2416683633334800E+00
Pb    3.1163546552500616E+00   -2.6120737115057437E+00    9.0788133722889999E+00
Pb    3.0922327921510369E+00   -8.6387138109770429E+00    8.7966137740790789E+00
Pb   -2.8618368952266064E+00    3.3324223629113394E+00    3.1446414549648898E+00
Pb    3.1170922806900419E+00    9.8577395982613769E+00    8.9192402006640794E+00
Pb    3.2397202127029123E+00    3.4488629886866158E+00    9.1075205169661029E+00
Pb   -2.6425960076951038E+00   -2.7780845022872609E+00    8.9049306699425408E+00
Pb   -8.8198455794321546E+00   -9.0198899332776463E+00    2.5088128885166938E+00
Pb   -8.6249279366478344E+00    2.4748871776917545E+00   -2.7675481239864559E+00
Pb   -3.0062484512963561E+00   -3.6739817745223218E+00   -8.6912074664832186E+00
Pb   -2.5345603552329821E+00   -8.9678876396222424E+00    2.7700960550429143E+00
Pb   -2.8231993648374423E+00    8.7057590531199285E+00   -3.1032874282883558E+00
Pb   -2.5604127243703765E+00   -8.8629749309247217E+00    8.9072206791426591E+00
Pb   -9.5012951891488946E+00   -3.3588443278478204E+00   -3.3110858006993205E+00
Pb   -8.7839286025801382E+00   -9.3403976166478131E+00   -3.3623356065965875E+00
Pb   -2.8857362425582225E+00    2.7978469447726457E+00   -2.8278167899458002E+00
Pb   -8.6678633921715260E+00   -9.0384540396781059E+00    8.9799715901027728E+00
Pb   -8.9731993644620047E+00   -3.5200846653221411E+00   -9.1718573130437200E+00
Pb    8.8011896963703897E+00   -3.0479324744439773E+00   -9.1951647687778451E+00
Pb    8.8709557245907682E+00   -8.9986656124035669E+00   -9.0939365425141361E+00
Pb   -3.0277441671388519E+00   -9.6168150076593601E+00   -9.1499529980538359E+00
Pb   -9.0736307785368293E+00    8.3336064637887439E+00   -9.2598130762684594E+00
Pb    2.7764718488731099E+00   -3.2074177429420399E+00   -8.9628623280593800E+00
Pb    2.7809995942735686E+00   -9.0754086848883571E+00   -8.9651331646878667E+00
Pb   -2.9721234278094242E+00    2.6356752241400505E+00   -8.8786920167795564E+00
Pb    2.6873459875891696E+00    8.8471983667644007E+00   -9.2466286506583728E+00
Pb    3.2463723965003584E+00    2.6419244232058348E+00   -9.0630198464915033E+00
Pb    8.8473368527712033E+00   -2.9231989232113098E+00   -3.1681254224108528E+00
Pb    9.1529148524220201E+00   -9.0692940775733479E+00   -3.2046504285080513E+00
Pb   -8.5777522661824381E+00   -2.8139173697373776E+00    9.1843977912733141E+00
Pb    9.1789058445375851E+00    9.4592556993235526E+00   -9.2545137840347618E+00
Pb   -8.9626035026092961E+00    2.3283352364555578E+00   -8.8085236442125812E+00
Pb   -2.9572924055404712E+00    9.5634627054136203E+00    9.3825553666668977E+00
Pb    8.9331568540337276E+00    8.9803497740116462E+00   -3.3704001134000934E+00
Pb    9.5086618989565448E+00    3.1336168238703426E+00   -3.3152648735967825E+00
Pb    9.1929259649129982E+00   -2.9308841124534668E+00    2.9422635319978911E+00
Pb    9.2790288349545200E+00   -8.9149900924003891E+00    3.1726197270917527E+00
Pb    9.2731084548650600E+00    3.0247229339780168E+00   -9.2640957363589980E+00
Pb   -2.7198768535802258E+00    3.6433252777394642E+00    9.2837293654140094E+00
Pb    8.9393984390630656E+00    9.3443784831225738E+00    2.7849624615258470E+00
Pb    9.0708827069808553E+00    3.1750620492727837E+00    2.8227606650439654E+00
Pb    9.4252640901797538E+00   -2.5033602026754802E+00    9.3007024356445314E+00
Pb    9.0720813056992782E+00   -8.6266989172368866E+00    8.9459982478777622E+00
Pb    8.9559543138025006E+00    9.4836467606412533E+00    8.9364482211976668E+00
Pb    9.3059803197737079E+00    3.3684325296420434E+00    9.0562381273130459E+00
Pb   -8.8264054901733751E+00    3.1301095196109636E+00    9.1215203908478397E+00
Pb   -2.7903315770539403E+00   -2.7400946479907216E+00    2.9403314384263561E+00
Pb   -9.0804001067194520E+00    9.3146878331064027E+00    2.6383528238390235E+00
Pb   -8.9245158895878980E+00    8.3678651754359876E+00   -3.3276222227824301E+00
Pb   -9.0751576710643622E+00   -9.5689673830478661E+00   -9.1507351416440876E+00
Pb   -3.3095403503692369E+00    8.5269891672159712E+00   -8.8666541453318661E+00
Pb   -9.0016986606400362E+00    3.0753720172118642E+00    3.2382057062255969E+00
Pb   -9.1844756033770132E+00    9.2279521022845827E+00    8.5523540934797424E+00
Pb   -3.2744621111242957E+00   -3.1785329363290371E+00   -2.8758801569357715E+00
Br    1.5428862759513376E-01   -2.7170982213593220E+00   -2.8656163735703770E+00
Br    2.9181764676383843E+00   -3.0109612731653415E+00   -6.2420259406984551E+00
Br    3.2696115473078975E+00    9.2400937762204850E-03   -3.0775337988512832E+00
Br    1.8095521695201533E-01   -8.8666517635190338E+00   -3.2568019503644785E+00
Br    3.3283478552651604E+00   -9.3685000815753554E+00   -6.0420794740821444E+00
Br    2.7894734930917706E+00   -5.9853043773273846E+00   -3.5836897611120242E+00
Br   -3.1817042998277061E+00   -3.5082851137499884E+00   -5.7255152725504965E+00
Br   -8.2794924443298346E+00   -3.1308747116494100E+00    6.2200757475277868E+00
Br   -2.6733437807858347E+00   -8.0118162950711027E-03   -3.0408769209807409E+00
Br    2.1541250505619938E+00   -1.1781663540144447E+01   -2.9898907640989201E+00
Br    1.1916364727267680E+01   -2.2989032350995537E+00    3.0870121662762120E+00
Br   -5.8255669603745792E+00   -8.9264234230918760E+00   -2.7836494584320155E+00
Br   -1.1425239105810626E+01   -3.0412434023617236E+00    3.5909269331963158E+00
Br   -8.9493818543166643E+00   -3.6164327831278458E+00   -1.7991056053381532E-01
Br    1.1926058592657430E+01   -9.8976420157012885E+00    3.6647329093206937E+00
Br    4.6126334829147075E-02    8.4155084237584674E+00   -3.1434126590111200E+00
Br    2.4319893282650304E+00    8.7232484785452904E+00   -6.0727023185354927E+00
Br    3.0868158188492485E+00    1.1599468209323872E+01   -3.0603827537843786E+00
Br    4.5940110575098841E-01    2.6850118815680406E+00   -2.1128830702572321E+00
Br    2.9030829218524161E+00    3.0295510535988086E+00   -6.3345712654643593E+00
Br    3.2862207736832070E+00    5.8061711113891015E+00   -3.5404069152346458E+00
Br    1.0807089203980143E-01   -2.2007819311275441E+00    2.7682765876034154E+00
Br    3.2576618772398902E+00   -3.0029961422068352E+00   -1.8713334809469970E-01
Br    3.5543795011109256E+00    3.7246217108173794E-02    2.3729954019600430E+00
Br    2.5664350091182531E-01   -9.3067842387505326E+00    2.9709709472334547E+00
Br    3.3810828889201896E+00   -8.8313460036941596E+00   -2.3028574722348555E-01
Br    2.8925116935736237E+00   -5.9458785405849053E+00    3.0819686300412124E+00
Br   -6.2083867263657986E+00    8.3810969076651070E+00   -8.6492955962059188E+00
Br   -3.1101274894117572E+00    8.4653000445115651E+00   -1.1550919554137495E+01
Br    3.9926333689951559E+00   -1.1557618843598322E+01    2.5048554187914820E+00
Br   -3.8355065478176718E+00    1.1765295710590880E+01   -9.1718156557389854E+00
Br   -3.4654669267415952E+00    5.3789149958181621E+00   -9.3735560891217045E+00
Br   -8.5939752276044832E+00   -1.0488594731107886E-01    3.1356758894464600E+00
Br   -3.0685047030785881E+00   -9.1766736613316802E+00   -6.1557539883479260E+00
Br   -6.2548158320350611E+00    1.0036986816786730E+01    2.9037509064248570E+00
Br   -2.9983665215705502E+00    9.0558235727373724E+00    1.3612935900958958E-01
Br   -3.0617385868808320E+00    1.2368785361308959E+01    3.4113613756432501E+00
Br   -2.6656460023850626E-01    9.1405645661859989E+00    3.7637095177915429E+00
Br    2.1305491374323418E+00    8.3384321815801794E+00   -4.5194198078797303E-03
Br    2.8768450349432850E+00    1.1660368857880831E+01    1.8082605329166426E+00
Br    2.2370220970695587E-01    3.2932121536742618E+00    3.3675457415686720E+00
Br    3.5704500808199144E+00    3.5116381726511903E+00    1.6807847366891837E-01
Br    3.3295817302463679E+00    6.1356384896380725E+00    3.2531241606489716E+00
Br    1.8503526094744133E-01   -2.7793565112720846E+00    8.7674904100546680E+00
Br    2.8336832381990726E+00   -2.4428111540994499E+00    6.0292101448812510E+00
Br    3.0942827687891232E+00    1.9741252566279180E-01    9.1380058242330957E+00
Br    3.6418467301952173E-01   -8.2624336481383835E+00    9.2095460878333064E+00
Br    3.3659904958143150E+00   -9.0550337825102343E+00    5.9271515292255676E+00
Br    3.0954162381312242E+00   -5.3888000962251930E+00    8.2346731468285377E+00
Br   -1.1951055700273754E+01    2.7928365287795103E+00    2.6980361944005011E+00
Br   -9.1445875830989145E+00    2.8180901263981313E+00    2.2287018295331978E-01
Br    3.2804362112352434E+00   -1.1511912456297544E+01    8.6944911788700878E+00
Br   -9.1925121956180043E+00    6.1376876467834096E+00    2.6596154175538742E+00
Br   -8.7028210538064457E+00   -1.0693837740072491E-01    9.4281091968596282E+00
Br   -2.7336605050534675E+00   -6.3696303132877414E+00   -2.4500996758888238E+00
Br   -5.7310675635361754E+00    2.9418620836867331E+00    2.9084021472885095E+00
Br   -3.0938350379307122E+00    3.3695381178979122E+00    1.4193992503150446E-01
Br   -3.2941947091375652E+00    6.6270574862814362E+00    3.6553914981455438E+00
Br    1.8670497323850216E-01    9.1401851763038575E+00    9.1100159175929658E+00
Br    2.6356931851640586E+00    9.9273134898979762E+00    5.7580357738692065E+00
Br    2.7677308253117241E+00    1.2533778663534536E+01    9.0528677028653437E+00
Br    3.5744938602086646E-01    2.9116220886059527E+00    9.3433276853983696E+00
Br    2.9075371576356073E+00    3.0619413564502809E+00    6.2236048275837152E+00
Br    2.8418324206026986E+00    6.5586466722480550E+00    8.2456482777480513E+00
Br   -5.7040238715833791E+00   -2.6217378707595618E+00    9.0774730753406772E+00
Br    2.6469951183109344E+00   -2.9944266734258744E+00    1.1808860482538581E+01
Br   -3.4667436274344894E+00   -2.6160429304781680E+00    5.9322593410159339E+00
Br   -2.4010461843115039E+00    4.1440099875105468E-02    7.9384265146519928E+00
Br   -3.1858151888205626E+00   -1.1809479258777342E+01   -3.5872454957318807E+00
Br    3.3420163944122701E+00   -8.0932566753623369E+00    1.1483430026488554E+01
Br   -1.1689878376904398E+01    3.2162188838999439E+00   -3.5299026891266436E+00
Br   -2.7089226682995511E+00   -1.1877818086819969E+01    3.1440045658822604E+00
Br   -1.2144670100797969E+01   -3.6330283988926011E+00   -2.4553033376757503E+00
Br    3.4293482221025973E+00    9.0000369810669696E+00    1.1496893085192921E+01
Br   -9.2490083753362455E+00   -3.6641451137128902E+00   -6.1846945824020150E+00
Br   -9.3367957245844480E+00   -2.4047853940615771E-01   -2.9902886739372767E+00
Br    3.6779455179930389E+00    2.8779090040156814E+00    1.1697030900354363E+01
Br   -5.8822103211950614E+00    8.4889995057791072E+00   -3.1644244492924156E+00
Br   -2.6222970318984959E+00    8.0627896493293996E+00   -6.0576855661485762E+00
Br   -3.0338019762754236E+00    1.1281294384408675E+01   -4.2192645240985547E+00
Br   -5.7680096456873029E+00    2.6034255159135880E+00   -2.6039115996235531E+00
Br   -1.1937803623841980E+01   -9.5916831493563706E+00    3.3030514318035444E+00
Br   -3.1314987356112836E+00    3.3784218326452713E+00   -5.7561777713093560E+00
Br   -5.9015070099860694E+00   -3.1410363198268332E+00   -8.6294645764150193E+00
Br   -2.8479320239770920E+00   -3.8405401834784141E+00   -1.1618096239704698E+01
Br   -3.1331991344935957E+00   -3.7615008364669517E-01   -8.0260416143397748E+00
Br   -3.2379040469244238E+00    3.5644838057540702E+00    1.1980762881404933E+01
Br   -5.3845885818227304E+00   -8.8745138877021414E+00    8.7419303003508695E+00
Br   -2.7798325922830527E+00   -9.1787981460148789E+00    5.9077802878256449E+00
Br   -2.7466094863323893E+00   -5.8683812167406870E+00    8.6285100951454581E+00
Br   -9.0021636566185794E+00   -8.7620551080281537E+00   -1.7571693250983883E-01
Br   -9.0115274512529329E+00   -6.1495787247188485E+00    2.6471527830725035E+00
Br   -9.6371438191515750E+00    8.5854810426810371E+00    1.1295947746998783E+01
Br    1.1936955306612282E+01    9.2516384542064962E+00    2.7631435998489735E+00
Br   -8.5087326771847973E+00   -9.1993429142246566E+00    1.1944395917423170E+01
Br    1.1707032242245559E+01    9.2587519524007469E+00   -3.6915980604542047E+00
Br    1.1952302413397575E+01    3.4522325908497851E+00    2.7634994112002729E+00
Br   -8.7212697570660289E+00    2.5836570393630396E+00    1.1850255315544331E+01
Br   -1.2004165330371467E+01   -4.3806996152023663E+00   -8.7550508038483148E+00
Br    1.2114567021446371E+01   -3.2376185690773065E+00    8.8086643039099712E+00
Br   -5.3036037603915283E+00   -8.5824833502600928E+00    2.9415887833479788E+00
Br    5.7335910573452127E+00   -3.1383560065231082E+00   -9.2538479214144971E+00
Br    8.1890564200255689E+00   -2.7284429499048390E+00   -1.2037556131586296E+01
Br    1.1814102670806369E+01   -8.5033106649635393E+00    9.3342027460843866E+00
Br    9.1149696130710449E+00    1.7696356066627443E-02   -9.2429399780776382E+00
Br   -8.9908156994098754E+00   -1.1890447079719934E+01    8.8681951542368189E+00
Br   -2.3832688122871484E+00   -9.1019882970717241E+00   -4.4318372217567271E-02
Br   -2.0619286154594936E+00   -6.0766368407264011E+00    3.4591176559929315E+00
Br    5.9977996319166769E+00   -8.6148467786709801E+00   -9.1560993329118396E+00
Br   -6.1992447431061084E+00   -9.5177539626033898E+00   -9.5390637841870518E+00
Br    9.5499661520778858E+00   -1.0435877674751140E+01   -1.1366753678964805E+01
Br    8.3390113431272539E+00   -5.8594012283960222E+00   -9.1962802635654786E+00
Br   -2.5161436884606743E+00   -1.1802494052720947E+01    8.9149055350439674E+00