 # Version information for this restart file 
 # current date 2021-06-17 12:38:03.856
 # current working dir /user/ub2042/exercises/2_fitting/MM_MD_workdir/md_settings.002
 # Program compiled at                              Thu Apr 22 21:44:59 EDT 2021
 # Program compiled on                cpn-k07-07-02.compute.cbls.ccr.buffalo.edu
 # Program compiled for                                                    local
 # Source code revision number                                       git:36754bb
 &GLOBAL
   PRINT_LEVEL  LOW
   PROJECT_NAME cp2k
   RUN_TYPE  MD
 &END GLOBAL
 &MOTION
   &MD
     ENSEMBLE  NVT
     STEPS  10000
     TIMESTEP     2.4999999999999996E+00
     STEP_START_VAL  9970
     TIME_START_VAL     2.4924999999995514E+04
     ECONS_START_VAL    -1.3948793637821183E+01
     TEMPERATURE     3.0000000000000000E+02
     &BAROSTAT
       PRESSURE     1.0100000000000000E+00
       TIMECON     9.9999999999999982E+03
     &END BAROSTAT
     &THERMOSTAT
       TYPE  CSVR
       &CSVR
         TIMECON     9.9999999999999982E+03
         &THERMOSTAT_ENERGY
              -3.2075168675788057E-01
         &END THERMOSTAT_ENERGY
         &RNG_INIT
Wiener process for Thermostat # 1        1 F T F   2.7653048661578805E-01        4127636088.0        4103140563.0        2040976024.0         115846524.0         859054296.0        2160992230.0             12345.0             12345.0             12345.0             12345.0             12345.0             12345.0             12345.0             12345.0             12345.0             12345.0             12345.0             12345.0
         &END RNG_INIT
       &END CSVR
     &END THERMOSTAT
     &AVERAGES  T
       &RESTART_AVERAGES
         ITIMES_START  1
         AVECPU     1.7497959252658922E-02
         AVEHUGONIOT     0.0000000000000000E+00
         AVETEMP_BARO     0.0000000000000000E+00
         AVEPOT    -1.4262749922563771E+01
         AVEKIN     4.8417143405156443E-01
         AVETEMP     2.4560492226875056E+02
         AVEKIN_QM     0.0000000000000000E+00
         AVETEMP_QM     0.0000000000000000E+00
         AVEVOL     6.7483345830912264E+06
         AVECELL_A     1.8897261328855686E+02
         AVECELL_B     1.8897261328855686E+02
         AVECELL_C     1.8897261328855686E+02
         AVEALPHA     9.0000000000000000E+01
         AVEBETA     9.0000000000000000E+01
         AVEGAMMA     9.0000000000000000E+01
         AVE_ECONS    -4.0021899943080710E+00
         AVE_PRESS     0.0000000000000000E+00
         AVE_PXX     0.0000000000000000E+00
       &END RESTART_AVERAGES
     &END AVERAGES
     &PRINT
       &ENERGY  SILENT
         &EACH
           MD  10
         &END EACH
       &END ENERGY
     &END PRINT
   &END MD
   &PRINT
     &TRAJECTORY  SILENT
       &EACH
         MD  10
       &END EACH
     &END TRAJECTORY
     &CELL  SILENT
       &EACH
         MD  10
       &END EACH
     &END CELL
     &VELOCITIES  SILENT
       &EACH
         MD  10
       &END EACH
     &END VELOCITIES
     &FORCES  SILENT
       &EACH
         MD  10
       &END EACH
     &END FORCES
     &RESTART  SILENT
       &EACH
         MD  10
       &END EACH
     &END RESTART
   &END PRINT
 &END MOTION
 &FORCE_EVAL
   METHOD  FIST
   &MM
     &FORCEFIELD
       VDW_SCALE14     1.0000000000000000E+00
       EI_SCALE14     1.0000000000000000E+00
       SHIFT_CUTOFF  T
       DO_NONBONDED  T
       IGNORE_MISSING_CRITICAL_PARAMS  T
       &SPLINE
         R0_NB     2.5000000000000000E-01
       &END SPLINE
       &NONBONDED
         &LENNARD-JONES
           ATOMS Br Br
           EPSILON     1.2630795322675199E+02
           SIGMA     3.6900000000000004E+00
         &END LENNARD-JONES
         &LENNARD-JONES
           ATOMS Cs Pb
           EPSILON     8.6920055954630968E+01
           SIGMA     3.9452500000000001E+00
         &END LENNARD-JONES
         &LENNARD-JONES
           ATOMS Cs Cs
           EPSILON     2.2644852172126850E+01
           SIGMA     4.5300000000000002E+00
         &END LENNARD-JONES
         &LENNARD-JONES
           ATOMS Pb Pb
           EPSILON     3.3363415533600227E+02
           SIGMA     6.1000000000000005E+00
         &END LENNARD-JONES
         &LENNARD-JONES
           ATOMS Br Cs
           EPSILON     5.3481070753900497E+01
           SIGMA     3.6300000000000003E+00
         &END LENNARD-JONES
         &LENNARD-JONES
           ATOMS Br Pb
           EPSILON     2.0528187276773045E+02
           SIGMA     2.9800000000000000E+00
         &END LENNARD-JONES
       &END NONBONDED
       &CHARGE
         ATOM Cs
         CHARGE     4.1739999999999999E-01
       &END CHARGE
       &CHARGE
         ATOM Pb
         CHARGE     8.3479999999999999E-01
       &END CHARGE
       &CHARGE
         ATOM Br
         CHARGE    -4.1739999999999999E-01
       &END CHARGE
     &END FORCEFIELD
     &POISSON
       PERIODIC  XYZ
       &EWALD
         EWALD_TYPE  SPME
         GMAX  62 62 62
         O_SPLINE  4
       &END EWALD
     &END POISSON
     &PRINT
       &FF_INFO  LOW
         SPLINE_INFO  F
         SPLINE_DATA  F
       &END FF_INFO
     &END PRINT
   &END MM
   &SUBSYS
     &CELL
       A     1.0000000000000001E+02    0.0000000000000000E+00    0.0000000000000000E+00
       B     0.0000000000000000E+00    1.0000000000000001E+02    0.0000000000000000E+00
       C     0.0000000000000000E+00    0.0000000000000000E+00    1.0000000000000001E+02
       PERIODIC  XYZ
       MULTIPLE_UNIT_CELL  1 1 1
     &END CELL
     &COORD
Cs   -3.1699909562255862E-01   -9.6791880780397943E-01   -5.6856771535515191E+00
Cs    8.9682227254057789E-01   -6.7865193379197395E+00   -4.5976501638926548E+00
Cs    1.0632095125621552E+00   -1.2653533698534114E+01   -2.7672925545240523E+00
Cs   -6.1948447995582372E+00   -7.6652913737419723E+00   -3.8320132462582177E+00
Br   -6.4903671925140483E+00   -1.4328630325227847E+01   -5.3695456111854067E+00
Br    1.1569076932870194E+01   -2.8993086450653771E+00   -9.3730263954031763E+00
Br   -4.7385050061741811E+00    1.7605674779447852E-01   -1.2137035916476838E+01
Cs   -2.2603116843022746E+00    4.1562664024558469E+00   -7.3184439282625506E+00
Cs   -3.1399032189027021E-01   -2.1172089813766420E-01    5.2754041608917379E-01
Cs    5.3634650006787299E-01   -5.7572148097960794E+00    1.0921430375061107E+00
Br   -4.9136903265476164E+00   -3.0509670541972573E+00    4.1693712509113006E+00
Cs   -9.1774609673505410E+00   -5.4395809062757401E+00    1.4268763431444333E+01
Cs    1.2821163097870372E+01   -9.9520319919264573E+00    1.1400464221817124E+00
Cs   -6.8947616551411262E+00    4.8292118517029410E+00   -7.1839084364449368E-01
Cs   -1.7084988868277484E+00    1.0910823213764152E+01   -2.0336913983779761E+00
Cs   -6.0686607046485230E-01    5.7553062075633212E+00   -1.0882413743947907E+00
Cs   -1.7447308746980122E-01    1.0829456264411423E+00    6.4889964255212478E+00
Cs    1.7527011809109347E+00   -4.0850453788919916E+00    6.4413287221638420E+00
Cs    1.0512734718859706E+00   -1.0050462035688470E+01    8.5675237214290938E+00
Cs   -5.8810824908493409E+00    6.7905812036344706E+00    1.1096412742642119E+01
Cs   -8.2514819668916353E+00   -3.6045709743582490E+00   -1.2075902319758589E+01
Cs   -4.4779222785092214E+00   -1.2436412237761466E+01   -2.9112497177718031E+00
Cs   -5.5011014647077952E+00    8.9751933352914859E-01    6.3154229697977815E+00
Br   -2.5395484937735402E+00   -3.0913821228349514E+00    9.0185037378474486E-01
Cs   -9.7735447783617702E-01    7.2091794777206699E+00    4.0463778811917130E+00
Br    1.2551056316993083E+01   -7.5216180225839793E+00   -8.6575794196140716E+00
Cs    2.2950889763113440E+00   -3.2056211571622555E+00    1.2499618541258426E+01
Br   -2.7835602197087854E+00    1.8698821260869011E-01    3.9346373850352312E+00
Br   -7.4204730270854702E+00   -2.3127746593499614E+00    1.4083105911071259E+01
Cs    1.0153601536085676E+01    1.1669095196898903E+01   -9.9743869512408523E+00
Cs   -9.9270933848641558E+00   -6.5090519122323460E+00    7.9064010503213638E+00
Cs   -4.6791546020370047E+00   -5.7259301013079247E+00    7.0294332941648552E+00
Cs   -8.0603959087039083E+00    8.8148923196613893E+00   -6.9210291832935384E+00
Br   -8.9722376321622939E+00   -8.9796464334451187E+00    1.0179485237118525E+01
Br   -5.6890617316803800E+00   -8.9136570292630690E+00    8.2503246242150095E+00
Cs   -1.1559447341194053E+01   -7.8944024556067482E+00   -2.6328695340808839E+00
Cs   -6.7989788800290647E+00    4.0906010524332057E+00   -6.5811063025236010E+00
Br   -7.0448031089361560E+00   -5.5178249082509447E+00    1.1362401520623784E+01
Cs    1.0552066441661559E+01    1.0539023214729980E+01    8.0892049934445822E+00
Br   -1.3013822884236710E+01    7.3218845707581055E+00    8.5834976956993074E+00
Br   -6.0197043905741010E+00   -4.1999204856332506E+00   -2.2615740315073567E+00
Cs    1.3794838117580555E-01    2.5591208117224502E+00    1.0982927250265705E+01
Cs    1.0325363077407520E+01    7.5249766339688993E+00   -1.9616938662578680E+00
Cs   -1.1122880188077447E+01   -9.8439365632883540E+00   -8.4353242440465994E+00
Cs    1.1064661619112242E+01    3.1213694688279721E+00    5.2930767725362013E+00
Cs   -1.3091294377678375E+01    8.8946023835594445E+00   -6.8790139859405439E+00
Cs    1.4464437082823343E+01   -7.7316946264655728E+00    7.8252944075811710E+00
Cs    7.5207301420950152E+00   -6.9981560491183457E+00   -1.1224927384662564E+01
Cs    9.2196844833563709E+00   -8.4805063016680879E+00    6.9909150763635619E+00
Cs   -2.9056952216125409E+00   -1.2159286439951105E+01    3.1166838432813195E+00
Cs    7.8835778005754582E+00   -1.3386139824517761E+01   -9.4389104294486295E+00
Cs    1.0969607515785059E+01    6.8204188845158580E+00   -9.4915032217831072E+00
Cs    3.6972951441907433E+00    1.2835844993329960E+01    2.3542243839187931E+00
Cs    8.2307633072092710E+00    4.3426846428448282E+00   -1.5728191858901221E+01
Cs   -6.6122692405091377E-01   -8.1147417928124312E+00   -1.0576254502198756E+01
Cs   -1.1940563319798168E+01   -3.4323759250273902E+00   -4.8358651717400241E+00
Cs    6.5234175284213816E+00   -1.6488099237434510E+00    1.2732392826558385E+01
Cs    1.2833356813351564E+01   -2.2876568868975573E+00    6.1178310377430059E+00
Cs   -7.7605236908894035E+00   -1.2274477151325518E+01    9.2536952429648167E+00
Cs   -1.2890336426268170E+00   -2.2561426547593766E+00   -1.1138144744851120E+01
Cs   -2.6541666093876466E+00    1.2504118761059578E+01    4.4408845097878116E+00
Cs   -1.8637195829011011E+00    3.3440215269899647E+00   -1.1825588544025898E+01
Cs    5.1772658214522007E+00   -4.4884834621038583E-01   -6.5871623496176399E+00
Cs    6.6210445329103544E+00   -6.0039061302472545E+00   -4.6993872364153866E+00
Cs    7.1090892897464029E+00   -1.1440237759716203E+01    8.9396953307443514E+00
Cs   -1.1709835561264995E+01   -1.0442753153288815E+00    7.6600239065820706E+00
Cs    5.0657454645338786E+00   -9.6924511619914810E-01   -1.1990283828686890E+01
Cs    3.9952485129590731E+00    1.0413609139136081E+01   -1.5418996874602803E+01
Cs    5.8368687314886603E-01    8.7112884071620069E+00    1.1247204696557878E+01
Cs   -7.7824581623813973E+00    1.1638903881552556E+01    5.7041940948692442E+00
Cs    5.1137709032096597E+00    1.1620652597245465E+01   -1.0308723889386760E+01
Cs    4.5543814078608511E+00    6.0409645661150870E+00   -7.5430607277325121E+00
Cs    6.1348551858881741E+00    1.2094843314644417E+00   -5.0486396127138211E-01
Cs    7.0831011536707944E+00   -5.2262538770091185E+00    3.0347867601689565E-01
Cs    8.7523274346723703E+00   -1.0473544249998357E+01    2.2512927458286582E+00
Cs    4.2951712272722595E+00    4.1337625861322129E+00   -1.2809748225729438E+01
Cs   -5.7398656947011748E+00    6.0547785200570949E+00    5.3405161866601611E+00
Cs   -6.0348739805432272E+00   -9.3739392514213957E+00   -9.8413096260107107E+00
Cs    4.4387050746270358E+00    6.3281429427089027E+00   -2.1995110012515759E+00
Cs    5.9798381898248687E+00    2.4000238004625425E+00    5.7151977428992247E+00
Cs    8.0439268608620207E+00   -3.4806010364921018E+00    5.9878669396430189E+00
Cs   -7.4994142669385004E+00    1.0442354377401861E+01   -2.0609121955053449E+00
Cs    1.2534448406498734E+01    8.3213650081533053E-01   -1.5923765391895022E+00
Cs   -6.5567294881797080E+00   -8.1017075556036455E-01    3.3831389710497262E-01
Cs   -1.1594745993699515E+01    4.6111286437089030E+00    6.0935149805204647E+00
Cs   -5.2060785248634289E+00    1.5904198598688628E+00    1.2764159065692054E+01
Cs    4.0731945162244347E+00    1.4212246468529774E+01    7.5742079129168234E+00
Cs    5.7534431793014162E+00    7.3206277711929442E+00    3.8347954868184617E+00
Cs    5.9632488465740581E+00    2.8423243207173807E+00    1.0493499390904462E+01
Cs    4.0428633882567802E+00    1.2091141534378924E+01   -2.9159168169698515E+00
Cs    1.0613360509505252E+01    1.5977104757696570E-01   -6.9619917369466018E+00
Cs    1.1386089273068427E+01   -5.0948289828976900E+00   -6.4237628586107478E+00
Cs    8.4375661867056611E+00   -6.1509937732870252E+00    1.3916941066206773E+01
Cs    9.8572430256548600E+00    1.3636197361112904E+01   -4.0167734721742407E+00
Cs   -1.0373331114105817E+01   -3.6334452421095881E-01    1.3590603189607059E+01
Cs   -8.0924034400587921E+00    1.7651092195973903E+00   -1.2864336215784126E+01
Cs   -1.2621937757207430E+01    1.0729480829200874E+01   -8.0130765189399955E-01
Cs   -3.6669802906069817E+00   -4.1930136368756790E+00    1.2997393453176205E+01
Cs   -1.8633560587000775E+00   -9.8678538964343918E+00    1.4944242628536051E+01
Cs    5.6084907199696570E+00    9.3315742130832646E+00    9.0526792376965339E+00
Cs    1.2191778877164948E+01   -3.6871258999568761E+00   -1.5608180753150540E+00
Cs   -1.1476976924353387E+01   -2.1517547899146399E+00    2.1010549414991249E+00
Cs   -8.1959960964940528E+00    7.1151213565020095E+00   -1.3179996914079020E+01
Cs   -1.2746220116339259E+01    4.2186005304743963E+00    3.3152837513337774E-01
Cs   -1.0384350060228737E+01   -1.3281388522739439E+01   -3.0412269970635446E+00
Cs   -1.0088612357217443E+01   -7.2655771242551790E+00    2.8621729376725917E+00
Cs   -5.4973827698809430E+00   -6.9782263868016576E+00    1.3628102337568031E+00
Cs   -3.3887013391768090E+00   -1.1384835693247682E+01    8.4846014900510269E+00
Cs    1.2362164221081773E+01   -1.2333043667607682E+00    1.1420111054830565E+01
Cs    1.0469303787112429E+01    9.1980773390041861E+00    3.2603840697161490E+00
Cs   -1.3229305696111862E+01    3.0273107921007383E+00   -5.6116352385331449E+00
Cs   -7.2896635471049516E+00   -2.8497961678634667E+00   -5.1340879510482429E+00
Cs   -9.1444833268211223E+00   -1.5456673067941411E+01    2.2838597560298721E+00
Cs    1.5822574851727666E+01   -6.9071483106031382E+00   -1.0442857396404348E+01
Cs   -4.3852723463633936E+00   -1.4498577786789387E+01   -7.7989591696322753E+00
Cs   -1.8352367015964819E+00    9.0316579496997473E+00   -1.3112277693923803E+01
Cs    2.0079974840673334E+00   -1.2987386644221829E+01   -8.7525551350269613E+00
Cs   -2.6210384959513817E+00    1.0546473492364115E+01   -8.0586586449195146E+00
Cs   -1.1989995567582319E+01    5.0638573929268764E+00    1.0788826642135209E+01
Cs    2.1061834186594579E+00   -1.0902622135192743E+01    1.8068753905789297E+00
Cs   -1.3033890828206538E+01    1.9366980378868126E+00   -1.1999490338635969E+01
Cs   -1.2505108448034264E+01    9.9707075842226676E+00    5.2794489565705041E+00
Cs    7.8122547721372397E+00   -1.1598220050980514E+01   -3.3406184818650697E+00
Cs    1.0274486708762298E+01   -9.6975131396452552E-01   -1.2488519223427780E+01
Cs   -1.6211918465754924E+00    1.3440596896030009E+01    8.6117618286832514E+00
Pb    3.1060695633569151E+00   -2.8826076102656502E+00   -2.8393817571538840E+00
Pb    4.3012312302971054E+00   -8.5234846174081333E+00   -1.2352065108058898E+00
Pb   -7.8944432653673067E+00   -3.5852001778545786E+00    4.6141959730370772E+00
Pb   -1.8663743070410941E+00   -9.4554624331156916E+00   -6.6178944788151417E-01
Pb    1.6538501039498792E+00    9.1837626668796446E+00   -5.4696790380457365E+00
Pb    2.1513993316205133E+00    3.0158170206817667E+00   -4.3547191418874434E+00
Pb    4.2546832165185240E+00   -1.8956656084257193E+00    2.7362503847503041E+00
Pb    5.3471558618782646E+00   -7.5728811482633702E+00    4.7058254066259151E+00
Pb   -4.1392320192554379E+00    8.9004017684318946E+00    1.6609473955676295E+00
Pb    1.7708619467671447E+00    9.7284154390949347E+00    5.5775223903637550E-01
Pb    2.5412840329751050E+00    3.8546573026159945E+00    1.8047400854893503E+00
Pb    3.6336268075648199E+00   -7.4444532080587933E-01    8.7437101849159919E+00
Pb    4.9664938036006276E+00   -6.6760614542378161E+00    1.0858971451749989E+01
Pb   -3.6115954252355991E+00    2.9848543366114226E+00    2.6562468477531658E+00
Pb    1.5329781382938099E+00    1.1213332078295370E+01    6.3391038537867797E+00
Pb    2.5924480697528338E+00    5.3226860691385252E+00    7.5034791286199489E+00
Pb   -1.9056286831144884E+00   -1.6122506975241169E+00    9.9600925582970721E+00
Pb   -6.7220171566617974E+00   -9.7929543467027909E+00    5.2629633012705188E+00
Pb   -1.0125692915737121E+01    9.7436582839547969E-01   -2.3382054596453510E+00
Pb   -2.9222391656054350E+00   -5.4942676741448917E+00   -7.6879959585716167E+00
Pb   -5.9854991053584894E-01   -8.0701640174059577E+00    5.0381185551579266E+00
Pb   -4.3560595295564513E+00    7.7069055923798517E+00   -4.3993925508088179E+00
Pb   -9.2356195859917201E-01   -7.2205268484121152E+00    1.1213219175676167E+01
Pb   -8.9431751205051349E+00   -4.9654793121503173E+00   -1.3164323693040771E+00
Pb   -7.8872259588102960E+00   -1.0936166293836729E+01   -4.5918972898041555E-01
Pb   -4.0491195091099694E+00    1.8899723785722686E+00   -3.3438549693692075E+00
Pb   -6.6960388961199762E+00   -8.8250634204705225E+00    1.1998758392481024E+01
Pb   -9.1110449035049612E+00   -6.4317581733499152E+00   -7.1039206967315360E+00
Pb    8.8471564600898578E+00   -3.5170791108543731E+00   -9.0660024311944127E+00
Pb    1.0547846446825533E+01   -9.7011512850757846E+00   -7.8942319836511849E+00
Pb   -1.2083199976033834E+00   -1.0919359186486666E+01   -6.3713811271547529E+00
Pb   -1.0996315718678169E+01    5.8267821196769143E+00   -9.5718929481346002E+00
Pb    2.6722208792282878E+00   -4.1073468603823375E+00   -8.7849234412209274E+00
Pb    4.3997140258552001E+00   -9.7659253733424443E+00   -7.4483745874883827E+00
Pb   -4.3021775967137019E+00    2.0829930550029668E-01   -9.1695638742041261E+00
Pb    1.4856793280994556E+00    7.9068582075985319E+00   -1.1481850537079442E+01
Pb    1.6051203675766819E+00    2.1961887817307644E+00   -9.9451123772407897E+00
Pb    8.9745648158672466E+00   -2.1503766472242334E+00   -3.4068980080108084E+00
Pb    1.0492079437507938E+01   -8.3397719112139672E+00   -2.2416006927804681E+00
Pb   -7.6445783460620325E+00   -2.8569787043932866E+00    1.0848764834651753E+01
Pb    7.4883304618284070E+00    8.2373857092732798E+00   -1.2886901013144154E+01
Pb   -1.0095220362115567E+01   -2.9536163062943582E-01   -8.4572718543354561E+00
Pb   -4.1670279820966387E+00    1.0039317991998299E+01    7.6131281860349231E+00
Pb    7.4970528838381982E+00    9.0775457142481137E+00   -6.9284833508915975E+00
Pb    8.1110966953131260E+00    3.5153010006840781E+00   -4.5733601927710579E+00
Pb    1.0103244028808382E+01   -7.1948207188140278E-01    2.2396156659745832E+00
Pb    1.1147693523427559E+01   -6.3752274449317197E+00    3.6867637785108998E+00
Pb    7.6268540281330335E+00    2.4933402097654400E+00   -1.0660084184653888E+01
Pb   -3.2239008736042689E+00    4.1208825558786630E+00    8.6254167554463113E+00
Pb    7.6071745240562691E+00    1.0848879563808653E+01   -6.5343867681477175E-01
Pb    9.0828719063467087E+00    4.9341662837039379E+00    1.2121241929341755E+00
Pb    9.4482042501336228E+00    4.9418356485030746E-01    8.1692288854814787E+00
Pb    1.1009247681534383E+01   -5.5182489614500891E+00    1.0219036276274526E+01
Pb    7.4809915790070098E+00    1.2296544126685523E+01    5.5241965814628111E+00
Pb    8.3975956994703846E+00    6.1718933948170562E+00    7.4297378377031311E+00
Pb   -8.9211649309246503E+00    2.9798417520316045E+00    9.5449922715621316E+00
Pb   -1.9283704328837432E+00   -2.5618466472903458E+00    3.8560011081196381E+00
Pb   -9.9248864034995261E+00    7.8301940484474439E+00    2.5836405143081524E+00
Pb   -1.0436818598459155E+01    7.1287970122367890E+00   -3.3116891693482806E+00
Pb   -7.5656277016390572E+00   -1.1928737942436186E+01   -6.1632971955153790E+00
Pb   -4.7441518072905806E+00    6.4642553869462684E+00   -1.0473293882587619E+01
Pb   -9.3129091210257879E+00    1.8844916999605248E+00    3.4496683934426353E+00
Pb   -1.0127082081323255E+01    8.7051817026730980E+00    8.6928915587935922E+00
Pb   -3.0550469863899106E+00   -3.8837224260634340E+00   -2.0857822790391869E+00
Br    3.1772475818759466E-01   -3.2047012675860675E+00   -1.9602270107938904E+00
Br    2.4129595317304537E+00   -3.5859155881495428E+00   -5.6728571106784962E+00
Br    2.5826053613476585E+00   -5.3349530840849237E-02   -4.0848404218842047E+00
Br    1.0065646528312295E+00   -8.9482254408770441E+00   -1.5887190301408798E+00
Br    4.3973652512684076E+00   -8.4324409437924217E+00   -4.1818373807005500E+00
Br    3.7069579553593286E+00   -5.6684943867704503E+00   -1.4989765043086722E+00
Br   -2.6246570113544117E+00   -4.6965797812245391E+00   -4.7668062644772879E+00
Br   -7.3873132811441380E+00   -2.9368045577307487E+00    7.6042622088007974E+00
Br   -3.3012667249640208E+00   -9.4719745504442754E-01   -2.7922334855391338E+00
Br    4.7910576505279510E+00   -1.1496789579105187E+01   -6.8836510431406561E-01
Br    1.2685861317352254E+01   -4.1977120132747825E-03    2.0072851068341255E+00
Br   -4.7341974697173370E+00   -1.0189689593870762E+01   -4.3371246677916603E-01
Br   -1.0556710300388136E+01   -4.5085328138156431E+00    5.0720903839882308E+00
Br   -8.4095924265068795E+00   -4.1222230205005665E+00    1.6409206583968778E+00
Br    1.3825885962611393E+01   -6.8397272308441561E+00    4.3580326197429295E+00
Br   -1.6032344111974643E+00    8.0586898898703403E+00   -5.4280157802946718E+00
Br    1.5575211109353710E+00    8.2703210136894096E+00   -8.2043759153265636E+00
Br    2.7327175223486394E-01    1.1461093722776766E+01   -5.1647827739675956E+00
Br   -8.9817933942881001E-01    2.5543616697988423E+00   -3.7161784947660266E+00
Br    1.8863458866753731E+00    2.7054474077881165E+00   -7.1451379478275499E+00
Br    2.2346219628326334E+00    5.9293366362947868E+00   -5.2872564807074394E+00
Br    1.2901634099759183E+00   -1.8775672800938792E+00    2.8814831715271789E+00
Br    4.3227894759700849E+00   -1.8130759396563947E+00   -4.2541913075334259E-01
Br    4.3284907347732409E+00    9.3885314405672904E-01    2.7444429331402223E+00
Br    2.4328611220379623E+00   -8.3238616532910719E+00    4.4382096507648185E+00
Br    5.5695572948209451E+00   -8.5244431472785038E+00    1.7890747021268523E+00
Br    4.8343882066601838E+00   -4.5038319346983098E+00    3.7980224319026377E+00
Br   -7.9735123215462673E+00    5.9777522058154258E+00   -1.0192237866869181E+01
Br   -4.4783385210066626E+00    4.8407189858032558E+00   -1.2857010819402722E+01
Br    6.1696264460391994E+00   -9.9374549333926794E+00    5.9813262073015796E+00
Br   -4.7932414610230847E+00    9.1202766612525945E+00   -1.1348907129397796E+01
Br   -4.7663219094114782E+00    3.4448902829119272E+00   -9.3394735745628346E+00
Br   -8.6491577255191334E+00   -9.7204124298160566E-01    3.8048909712105279E+00
Br   -1.7401403411710852E+00   -1.0534786949596123E+01   -3.5464797504866623E+00
Br   -7.2368777662378614E+00    7.9047814465059991E+00    1.9567152865342317E+00
Br   -4.3608026664282047E+00    8.0527851563878343E+00   -1.3017827771394526E+00
Br   -4.2828644973279202E+00    1.1594568395797696E+01    7.8909920069232442E-01
Br   -1.0548670512154750E+00    9.0579865338778500E+00    1.0514235321586536E+00
Br    1.7720239902724588E+00    9.0710632742874875E+00   -2.4907410695019321E+00
Br    1.3421042393651614E+00    1.2329251666043044E+01   -4.1331247031009261E-01
Br   -7.9019478789251951E-01    3.6467890567317021E+00    2.4245975095600585E+00
Br    2.4075370956098725E+00    3.4767933467571437E+00   -1.1644594299367281E+00
Br    2.2833815243120816E+00    6.6722965826504606E+00    9.8281268480476902E-01
Br    1.0171465572111895E+00   -9.3242138396906415E-01    9.4821844056742410E+00
Br    3.2285405680177850E+00   -1.1492317489566408E+00    6.0675278581341514E+00
Br    3.1485106394073310E+00    2.0604824054938340E+00    8.4068808197193245E+00
Br    2.0696062356871225E+00   -7.2595920365651390E+00    1.1247160453169128E+01
Br    4.7448350548264608E+00   -6.7487879651874421E+00    7.6301653650090104E+00
Br    4.3381021248686666E+00   -3.6163387498401813E+00    9.8107031951721879E+00
Br   -1.1844594421593737E+01    7.2817686447845742E-01    3.9893819157518289E+00
Br   -9.5255641903940536E+00    1.5828141636075868E+00    6.8411104566043013E-01
Br    5.7128366313325980E+00   -9.5276126601457634E+00    1.1622846370546632E+01
Br   -9.8583603695871478E+00    4.7822945287236918E+00    3.0970445054492810E+00
Br   -8.3367817586001838E+00   -2.6595472335200121E-01    9.9980156830340210E+00
Br   -2.7806004718885293E+00   -6.5271942807828029E+00   -1.1837605102883670E+00
Br   -6.4192680275483749E+00    2.2697283629893796E+00    3.0731886781731852E+00
Br   -4.0885397371327459E+00    2.6728712000057664E+00   -4.7250270185865273E-01
Br   -3.6497313956529425E+00    6.2157818328019685E+00    2.1131768552359120E+00
Br   -1.2243429638410446E+00    1.0620957739024380E+01    6.6297294778887377E+00
Br    1.7192876334406839E+00    1.0262576428979354E+01    3.5155559571135000E+00
Br    1.1380959564479809E+00    1.3694106315817690E+01    5.0910566361841489E+00
Br   -4.8749469876476847E-01    4.6155080513377094E+00    8.4895868119000912E+00
Br    2.6655526476222420E+00    4.2321474876978478E+00    4.9353748744204058E+00
Br    2.0767769886192835E+00    8.2030376699464576E+00    7.0502925239824403E+00
Br   -4.6553347983187834E+00   -2.6479431389533641E+00    1.0281908435223027E+01
Br    4.0120869484718904E+00    1.2642608498300059E-01    1.1603222410625385E+01
Br   -1.4687763357933501E+00   -2.1872374611368826E+00    6.9465062638181987E+00
Br   -2.6653087198533898E+00    1.0173014692965796E+00    8.5388369866713223E+00
Br   -8.3677673564621269E-01   -1.2210507454553628E+01    3.2816337937882506E-01
Br    5.2298675537641595E+00   -5.0468014678768887E+00    1.3147077065191294E+01
Br   -1.3322155574003437E+01    1.6599956897200057E+00   -1.8840450752781004E+00
Br   -4.2426989269342075E-01   -1.0860853602094080E+01    5.6813665202878383E+00
Br   -1.1557313714572727E+01   -4.7317031099092333E+00   -5.4526682309451513E-01
Br    1.8560871084281974E+00    1.2322226629307917E+01    9.0549854281823858E+00
Br   -8.7111711675674464E+00   -5.8952724677135464E+00   -3.9363803991736162E+00
Br   -9.6600636302956691E+00   -2.3625234139598605E+00   -2.4266133880175640E+00
Br    2.5284943897052101E+00    5.7078310638774372E+00    1.0382496583322812E+01
Br   -7.7718619589221651E+00    7.4249752543974816E+00   -3.9849280442834436E+00
Br   -4.7811581763193249E+00    7.0627298893991748E+00   -7.5852216980810017E+00
Br   -5.1810094553002681E+00    1.0199964986915196E+01   -5.0741811335896152E+00
Br   -6.8200399329798875E+00    1.4102888046484041E+00   -2.9271395303773646E+00
Br   -9.3458207345147670E+00   -1.0683654313669127E+01    6.5659505590610809E+00
Br   -4.4031336053298586E+00    8.6432961899084448E-01   -6.3293032897851509E+00
Br   -6.2162779666194350E+00   -5.5858473109953843E+00   -6.5326846720877194E+00
Br   -4.1840003685771840E+00   -6.6428129068500805E+00   -1.0017967656117635E+01
Br   -3.2853501967223875E+00   -2.5514131531804196E+00   -8.3070277610611694E+00
Br   -3.4052317537154462E+00    4.4905893244625608E+00    1.1717886681291041E+01
Br   -3.7003470620749375E+00   -7.0993243466431259E+00    1.1849779930393023E+01
Br   -7.8411766694340412E-01   -7.1148067510390414E+00    8.1328722327405814E+00
Br   -6.4899835035146869E-01   -4.2175368860674425E+00    1.1132978850297569E+01
Br   -7.5689794985242651E+00   -1.0532786973994490E+01    2.4558540700761804E+00
Br   -7.1417937436989574E+00   -6.6969052763835126E+00    4.2441867423653505E+00
Br   -8.8651161830930789E+00    7.7782777365913045E+00    1.1289519900080251E+01
Br    1.0120360578631480E+01    1.1006918880169254E+01   -1.7906921908338862E+00
Br   -7.2450969837642862E+00   -8.7013397619555022E+00    1.4712043920269938E+01
Br    1.0237554549754847E+01    9.1636804032390611E+00   -7.2459570082743339E+00
Br    1.1474912681497798E+01    6.6014621546534267E+00    1.5994253246562213E+00
Br   -9.3120403944319765E+00    3.2701681617267888E+00    1.2534721642777452E+01
Br   -1.1716441068471751E+01   -7.0776290514105131E+00   -5.8214550892922192E+00
Br    1.2184630608096640E+01    5.8079451998182641E-01    8.1965041346972694E+00
Br   -3.6485487901016582E+00   -8.2980088629338411E+00    4.7144846688317701E+00
Br    5.5580612634982565E+00   -3.3198932406552548E+00   -9.5025571934114410E+00
Br    8.6284568933694388E+00   -3.6884861413677785E+00   -1.1972391811240943E+01
Br    1.3238220185001504E+01   -3.8262626683817209E+00    9.7303915866881976E+00
Br    8.5058648865768678E+00   -3.8609130896519250E-01   -9.6258245803184845E+00
Br   -5.0814998632137032E+00   -1.1238591201066962E+01    1.1464797018157919E+01
Br   -9.6738259575975594E-01   -8.9784015850637022E+00    2.1887274313170142E+00
Br   -1.1935099230843871E+00   -5.2927864240858202E+00    4.0492113415211168E+00
Br    7.3931723196980732E+00   -1.0142019996743102E+01   -7.1713504336385041E+00
Br   -4.7146216928946156E+00   -1.0822895368777061E+01   -6.6917592124171525E+00
Br    9.6997853235549325E+00   -9.8722796824971208E+00   -1.0605470130734139E+01
Br    8.6811742424833191E+00   -6.4582896585127632E+00   -7.8040859678281285E+00
Br   -8.3055279128304671E-01   -1.0395950469580935E+01    1.1510952918649810E+01