 # Version information for this restart file 
 # current date 2021-06-17 12:35:35.496
 # current working dir /user/ub2042/exercises/2_fitting/MM_MD_workdir/md_settings.002
 # Program compiled at                              Thu Apr 22 21:44:59 EDT 2021
 # Program compiled on                cpn-k07-07-02.compute.cbls.ccr.buffalo.edu
 # Program compiled for                                                    local
 # Source code revision number                                       git:36754bb
 &GLOBAL
   PRINT_LEVEL  LOW
   PROJECT_NAME cp2k
   RUN_TYPE  MD
 &END GLOBAL
 &MOTION
   &MD
     ENSEMBLE  NVT
     STEPS  10000
     TIMESTEP     2.4999999999999996E+00
     STEP_START_VAL  1500
     TIME_START_VAL     3.7499999999999500E+03
     ECONS_START_VAL    -1.3948793637821183E+01
     TEMPERATURE     3.0000000000000000E+02
     &BAROSTAT
       PRESSURE     1.0100000000000000E+00
       TIMECON     9.9999999999999982E+03
     &END BAROSTAT
     &THERMOSTAT
       TYPE  CSVR
       &CSVR
         TIMECON     9.9999999999999982E+03
         &THERMOSTAT_ENERGY
              -5.9119213162546758E-02
         &END THERMOSTAT_ENERGY
         &RNG_INIT
Wiener process for Thermostat # 1        1 F T F   1.1382529309756741E+00        2887901994.0        1068922118.0        3409092692.0        1438995407.0        1790216091.0        3655652836.0             12345.0             12345.0             12345.0             12345.0             12345.0             12345.0             12345.0             12345.0             12345.0             12345.0             12345.0             12345.0
         &END RNG_INIT
       &END CSVR
     &END THERMOSTAT
     &AVERAGES  T
       &RESTART_AVERAGES
         ITIMES_START  1
         AVECPU     1.7404598576637609E-02
         AVEHUGONIOT     0.0000000000000000E+00
         AVETEMP_BARO     0.0000000000000000E+00
         AVEPOT    -1.4338875792366402E+01
         AVEKIN     4.1542178823637871E-01
         AVETEMP     2.1073039182578933E+02
         AVEKIN_QM     0.0000000000000000E+00
         AVETEMP_QM     0.0000000000000000E+00
         AVEVOL     6.7483345830898769E+06
         AVECELL_A     1.8897261328856047E+02
         AVECELL_B     1.8897261328856047E+02
         AVECELL_C     1.8897261328856047E+02
         AVEALPHA     9.0000000000000000E+01
         AVEBETA     9.0000000000000000E+01
         AVEGAMMA     9.0000000000000000E+01
         AVE_ECONS    -2.4769662086294253E+00
         AVE_PRESS     0.0000000000000000E+00
         AVE_PXX     0.0000000000000000E+00
       &END RESTART_AVERAGES
     &END AVERAGES
     &PRINT
       &ENERGY  SILENT
         &EACH
           MD  10
         &END EACH
       &END ENERGY
     &END PRINT
   &END MD
   &PRINT
     &TRAJECTORY  SILENT
       &EACH
         MD  10
       &END EACH
     &END TRAJECTORY
     &CELL  SILENT
       &EACH
         MD  10
       &END EACH
     &END CELL
     &VELOCITIES  SILENT
       &EACH
         MD  10
       &END EACH
     &END VELOCITIES
     &FORCES  SILENT
       &EACH
         MD  10
       &END EACH
     &END FORCES
     &RESTART  SILENT
       &EACH
         MD  10
       &END EACH
     &END RESTART
   &END PRINT
 &END MOTION
 &FORCE_EVAL
   METHOD  FIST
   &MM
     &FORCEFIELD
       VDW_SCALE14     1.0000000000000000E+00
       EI_SCALE14     1.0000000000000000E+00
       SHIFT_CUTOFF  T
       DO_NONBONDED  T
       IGNORE_MISSING_CRITICAL_PARAMS  T
       &SPLINE
         R0_NB     2.5000000000000000E-01
       &END SPLINE
       &NONBONDED
         &LENNARD-JONES
           ATOMS Br Br
           EPSILON     1.2630795322675199E+02
           SIGMA     3.6900000000000004E+00
         &END LENNARD-JONES
         &LENNARD-JONES
           ATOMS Cs Pb
           EPSILON     8.6920055954630968E+01
           SIGMA     3.9452500000000001E+00
         &END LENNARD-JONES
         &LENNARD-JONES
           ATOMS Cs Cs
           EPSILON     2.2644852172126850E+01
           SIGMA     4.5300000000000002E+00
         &END LENNARD-JONES
         &LENNARD-JONES
           ATOMS Pb Pb
           EPSILON     3.3363415533600227E+02
           SIGMA     6.1000000000000005E+00
         &END LENNARD-JONES
         &LENNARD-JONES
           ATOMS Br Cs
           EPSILON     5.3481070753900497E+01
           SIGMA     3.6300000000000003E+00
         &END LENNARD-JONES
         &LENNARD-JONES
           ATOMS Br Pb
           EPSILON     2.0528187276773045E+02
           SIGMA     2.9800000000000000E+00
         &END LENNARD-JONES
       &END NONBONDED
       &CHARGE
         ATOM Cs
         CHARGE     4.1739999999999999E-01
       &END CHARGE
       &CHARGE
         ATOM Pb
         CHARGE     8.3479999999999999E-01
       &END CHARGE
       &CHARGE
         ATOM Br
         CHARGE    -4.1739999999999999E-01
       &END CHARGE
     &END FORCEFIELD
     &POISSON
       PERIODIC  XYZ
       &EWALD
         EWALD_TYPE  SPME
         GMAX  62 62 62
         O_SPLINE  4
       &END EWALD
     &END POISSON
     &PRINT
       &FF_INFO  LOW
         SPLINE_INFO  F
         SPLINE_DATA  F
       &END FF_INFO
     &END PRINT
   &END MM
   &SUBSYS
     &CELL
       A     1.0000000000000001E+02    0.0000000000000000E+00    0.0000000000000000E+00
       B     0.0000000000000000E+00    1.0000000000000001E+02    0.0000000000000000E+00
       C     0.0000000000000000E+00    0.0000000000000000E+00    1.0000000000000001E+02
       PERIODIC  XYZ
       MULTIPLE_UNIT_CELL  1 1 1
     &END CELL
     &COORD
Cs   -7.4094449783021921E-01   -2.1960723814884126E-01   -6.6719004222269902E+00
Cs    1.2447229552243987E-01   -5.9295185168539204E+00   -7.1094114044556855E+00
Cs    1.0819225155218536E-01   -1.1199622489831508E+01   -5.8772244850889779E+00
Cs   -5.4933141396367677E+00   -5.7843270134900502E+00   -5.3629969344561452E+00
Br   -8.6038315766211308E+00   -1.2418399014542661E+01   -7.6239985001476285E+00
Br    1.2184846366923598E+01   -2.7012244057342927E+00   -8.8878477779981981E+00
Br   -3.0077533975792092E+00    3.2331537811354720E+00   -1.2002882659756818E+01
Cs   -4.7752015315125196E-01    5.8020985059740156E+00   -5.5133207669281346E+00
Cs   -2.4487201029001276E-01    4.2971654372274604E-01   -2.4359179732393177E-01
Cs    9.5157761865514412E-01   -6.0529483021756487E+00   -1.3001803377092766E-02
Br   -5.7614113251807915E+00   -2.3135736863134926E+00    3.7637604606310830E+00
Cs   -1.1263241258685785E+01   -5.2772265985102864E+00    1.1855491936144078E+01
Cs    1.2172441486697290E+01   -1.1266513197906901E+01   -5.5434369151153895E-01
Cs   -5.4948117067572149E+00    5.4640803132074316E+00    6.6557149566239104E-01
Cs   -7.7067145659865044E-01    1.2173424950070212E+01    4.3828840751658760E-01
Cs    1.7538579339876106E-01    6.9116398821793057E+00   -2.6170886115532782E-01
Cs   -1.8684518426432076E-01    3.0856731381756142E-01    5.4752655698396948E+00
Cs    6.5370550773489799E-01   -5.7455347382502682E+00    6.9341422703456059E+00
Cs    1.1251794599725876E-01   -1.1050488119732028E+01    5.5443432361630753E+00
Cs   -4.4005105723764153E+00    6.8121230336875147E+00    1.3489884402814560E+01
Cs   -6.1794927974635216E+00   -2.9000420785833925E-01   -1.1922209363923921E+01
Cs   -5.6860945223315262E+00   -1.1655941223610126E+01   -5.2218967467782855E+00
Cs   -5.9210974280333613E+00   -3.1640160977450378E-02    6.3110638003948658E+00
Br   -3.3551440577720646E+00   -3.4270494870766393E+00   -9.3770328111101170E-02
Cs    2.5492326825315109E-01    5.6932844333590964E+00    6.1202311690482700E+00
Br    1.1722129279741901E+01   -9.4965980444834575E+00   -8.9492126154999703E+00
Cs    9.7467346712930236E-01   -5.2497711851040059E+00    1.2227899025956226E+01
Br   -2.6321401747830073E+00    9.2782522194626585E-02    2.3996831561258869E+00
Br   -8.5820943326589187E+00   -3.4746862606706257E+00    1.1733902879431716E+01
Cs    1.1253009136895871E+01    1.1607959409670457E+01   -6.9141672007131119E+00
Cs   -1.1357461658467329E+01   -6.0404551034449288E+00    5.9299896204128055E+00
Cs   -5.9066444030868350E+00   -5.0349457324414226E+00    5.7040292933660597E+00
Cs   -5.8534357206701788E+00    1.1258846788058014E+01   -6.3084010294673014E+00
Br   -1.1725848483543606E+01   -1.1057642630943398E+01    8.5796278781496724E+00
Br   -8.8662453024324748E+00   -9.3225567852882616E+00    6.6377813074070398E+00
Cs   -1.1324726695698107E+01   -6.5028797590327594E+00   -5.7344165351607463E+00
Cs   -6.0434854669930944E+00    5.8555664342496652E+00   -6.1345114321209433E+00
Br   -8.7539678236940812E+00   -6.0707335713830419E+00    8.7865413833144608E+00
Cs    1.1370408303474509E+01    6.6196998948599628E+00    1.0910035179818095E+01
Br   -1.2190919244887889E+01    8.9783367397511444E+00    9.0755407059155928E+00
Br   -5.8717928849871024E+00   -3.3783410533046001E+00   -3.2101848376999986E+00
Cs    1.6336638042026974E-01   -5.6201469273512057E-02    1.1001803940668205E+01
Cs    1.0933176390593225E+01    5.9529923516968726E+00    1.8431255093580098E-01
Cs   -1.1745502284176256E+01   -6.4961215172592359E+00   -1.1153340395117866E+01
Cs    1.1366288788419899E+01   -1.4492210041339745E-01    6.2071513213928311E+00
Cs   -1.2092663188910421E+01    1.1220582654230988E+01   -6.3231903916030685E+00
Cs    1.1874686095616529E+01   -1.1119136481418305E+01    5.9439028746632294E+00
Cs    5.6253947461274434E+00   -5.8193969646043380E+00   -1.0975756526550983E+01
Cs    6.5927937904237313E+00   -1.0459355652445648E+01    6.1199127865523089E+00
Cs   -5.6898770032753871E+00   -1.1469125104150770E+01    5.9259449337809289E-01
Cs    5.8858636306059955E+00   -1.0763836694105798E+01   -1.2287516854956763E+01
Cs    1.1229990014828470E+01    5.2141114765666519E+00   -6.1815829351072571E+00
Cs    1.1937867861401411E+01    1.1803204662422031E+01    6.1472635526585400E+00
Cs    1.1677844526294630E+01    5.6546946425606093E+00   -1.0871274453972399E+01
Cs   -4.1831993409315466E-01   -6.5134983822128634E+00   -1.1697346503458883E+01
Cs   -1.1025460140573086E+01   -4.2415231510204943E-01   -5.4942076823151194E+00
Cs    6.0404500925437103E+00   -5.4290939107601250E+00    1.0995365044079476E+01
Cs    1.1782496362543482E+01   -5.5103299909618393E+00    6.3965028260844337E+00
Cs   -1.1571300678045082E+01   -1.1375982620313724E+01    1.2237137982605905E+01
Cs    4.2063881769301037E-01    1.4794414668386530E-01   -1.2321074263701345E+01
Cs    1.9582436966185326E-01    1.1442465106121574E+01    5.7839729303002505E+00
Cs   -3.9136409927959315E-01    5.6626216658855748E+00   -1.1749895891302476E+01
Cs    6.1570911866643385E+00    9.5330922285899705E-02   -5.7179739746981468E+00
Cs    6.5260865982589955E+00   -5.3898171914217512E+00   -6.1888061442262483E+00
Cs   -5.2516201483959604E+00   -1.0064619900285100E+01    6.0686322659189829E+00
Cs   -1.2117776623049577E+01    1.6595585307617902E-01    6.5717307254405313E+00
Cs    5.8170682940379210E+00    2.0870195439823042E-01   -1.2276589161409110E+01
Cs    5.9368067137716922E+00    1.1990083353205664E+01   -1.3229349616930609E+01
Cs    4.1677479949662050E-01    6.2298718323615159E+00    1.1603622697199421E+01
Cs   -6.0109655525435093E+00    1.1310585266895133E+01    5.3292830515446532E+00
Cs    5.7575552341657472E+00    1.1155877468815209E+01   -5.9555118273155569E+00
Cs    5.8542783444653121E+00    5.9062396198126521E+00   -5.2478438078158955E+00
Cs    5.8268476941876717E+00    2.4909556273986186E-01    2.3470920519792129E-01
Cs    6.1718941016082107E+00   -5.5744698644669564E+00   -6.1438936098389330E-01
Cs    6.3486651503257336E+00   -1.1409446005102286E+01    8.9946872439978209E-01
Cs    5.7213603920602241E+00    5.9043407507095811E+00   -1.1721901125194782E+01
Cs   -5.8830007755544891E+00    6.3620587581308232E+00    6.4283107653742846E+00
Cs   -5.7010513389462032E+00   -6.5821966028410257E+00   -1.1180032494112659E+01
Cs    6.5891998093754403E+00    5.9716849728149448E+00    3.4796765784399669E-01
Cs    5.5818616762943112E+00    4.6837970692912828E-01    5.7109560289203971E+00
Cs    6.5038276536000250E+00   -5.5633912199860829E+00    6.6746236541567594E+00
Cs   -6.1318996249834825E+00    1.1121474393436815E+01   -4.1295535026024194E-01
Cs    1.2130628324554110E+01    4.2903772940191681E-01   -5.6062098150138839E-01
Cs   -5.8491160047228234E+00   -6.6522993464777846E-01   -6.6862120956057580E-01
Cs   -1.1941704944346526E+01    5.7865069978406884E+00    7.1166433222529113E+00
Cs   -5.9365639974960738E+00   -2.2852626022258371E-01    1.2038472406990842E+01
Cs    6.1333563404054647E+00    1.3077884126911769E+01    7.6105640744755334E+00
Cs    6.3668098899642347E+00    5.9155589034453859E+00    6.2900109737689869E+00
Cs    5.8565430207166749E+00    2.6682590250930960E-01    1.1115060853982184E+01
Cs    4.5996857501974659E+00    1.2138350508345967E+01   -1.6407543570754671E-01
Cs    1.1564182062557476E+01   -2.4950969607201862E-01   -6.2959211063517069E+00
Cs    1.1241848049709754E+01   -6.2068028821531671E+00   -6.3095684575260069E+00
Cs    6.7996121991898075E+00   -1.0892733032736611E+01    1.1824452013509644E+01
Cs    1.1320146675421459E+01    1.1189139790230930E+01   -4.4686732462987477E-01
Cs   -1.1353757436983104E+01   -6.1979234061159821E-02    1.1257173457860137E+01
Cs   -6.8211231589834505E+00    5.2473718300295342E+00   -1.1873142240230647E+01
Cs   -1.0642395384303240E+01    1.2084649851347848E+01    2.3969550168939441E-02
Cs   -4.8538923892520458E+00   -5.4318449251361063E+00    1.1355197679247583E+01
Cs   -5.0162757182537270E+00   -1.1809924540082195E+01    1.0847097556147332E+01
Cs    6.5458069217100379E+00    6.5765020522887934E+00    1.0822427887194051E+01
Cs    1.1987903877716093E+01   -5.3622603266698352E+00    6.0971578689246630E-01
Cs   -1.1321961063985130E+01   -3.1353969407424365E-01    3.4830730763606854E-01
Cs   -6.1186500146328298E+00    9.8655510278962364E+00   -1.2257215743078991E+01
Cs   -1.1368942119284128E+01    5.6668341193099483E+00   -1.5548324904767169E-01
Cs   -1.1742414588518402E+01   -1.1955491241881862E+01   -5.8485564147488835E+00
Cs   -1.0962308480394025E+01   -6.0583835968112085E+00    7.5717771499194919E-01
Cs   -5.2952055102659950E+00   -6.1949420905976078E+00   -3.7935362694823510E-01
Cs   -1.1834351591406207E+01   -1.2504881766163299E+01    5.6496502401167010E+00
Cs    1.1494679442593775E+01   -4.8806778460861384E+00    1.1669978447742061E+01
Cs    1.1500747097730965E+01    6.0397649661725445E+00    5.8029306786675487E+00
Cs   -1.1480181856949256E+01    5.6865250882336200E+00   -6.3722965782175649E+00
Cs   -5.5402878120707522E+00    9.2552197069408954E-02   -6.2462271898500150E+00
Cs   -1.0093186742161157E+01   -1.2751007091601862E+01    1.2012928120722818E-01
Cs    1.1495999082360761E+01   -1.2356905639800400E+01   -1.0469866163481807E+01
Cs   -6.3991157883990128E+00   -1.2986930791087040E+01   -1.0259652130868073E+01
Cs   -2.2887111525948015E-01    1.0967054944939456E+01   -1.1672626744681645E+01
Cs    2.1987926600372487E-01   -1.1793656111237448E+01   -1.1755458597393577E+01
Cs    1.1436127201018068E-01    1.1429892176031984E+01   -6.2920464915311785E+00
Cs   -1.1973493160243720E+01    1.1016705706752214E+01    1.2034216491735421E+01
Cs    6.2537347820951694E-01   -1.2000689143753171E+01    1.7206064221903003E-01
Cs   -1.1534733378006527E+01   -5.7173661174129342E-01   -1.1050686501065734E+01
Cs   -1.1534501355181154E+01    1.0630658322505294E+01    6.2192186952424366E+00
Cs    6.6425548857506600E+00   -1.1378519888957028E+01   -5.5850385312821160E+00
Cs    1.1790419539281848E+01    5.7669807337203483E-01   -1.1429836226479207E+01
Cs   -2.6637067121237712E-01    1.2359234312373172E+01    1.0713859352799901E+01
Pb    2.8506296811857585E+00   -2.8138742550607900E+00   -3.5470297689441712E+00
Pb    3.1920313865858509E+00   -9.1089239794674377E+00   -3.0844203438119915E+00
Pb   -8.9082202529098033E+00   -2.9062314982176494E+00    2.8114794489001484E+00
Pb   -2.7314551373664284E+00   -9.1999854297413250E+00   -2.7069796398208639E+00
Pb    2.7220040764119426E+00    9.1748717264788429E+00   -3.3183602525558991E+00
Pb    3.1249056534528958E+00    2.9830336694071815E+00   -3.3307392398285072E+00
Pb    3.0437881124548496E+00   -2.7252106615907743E+00    2.9178248956580615E+00
Pb    3.2512062111267568E+00   -8.6211751091146311E+00    2.9264896519460284E+00
Pb   -2.9218361677734825E+00    8.7366367418582396E+00    2.9277761782498821E+00
Pb    3.0833099121254981E+00    9.1068295236006556E+00    2.9502345402756571E+00
Pb    2.9501676508924302E+00    3.4001289981611715E+00    2.6628326233866111E+00
Pb    3.3416466819175712E+00   -2.7875833091871396E+00    8.9604695238670793E+00
Pb    3.5079636976257103E+00   -8.8531079201382372E+00    9.3604815222952986E+00
Pb   -3.0689298154153168E+00    2.9592549093660443E+00    3.2090004035860242E+00
Pb    2.8648526377883354E+00    9.3058763329924332E+00    8.8634143190079211E+00
Pb    3.1030523182631642E+00    3.2713829652350213E+00    8.7435499134262358E+00
Pb   -2.5933817325851911E+00   -2.4770789310630907E+00    8.9018791040595246E+00
Pb   -9.1061307326663190E+00   -8.9003434438405851E+00    3.4880867552869796E+00
Pb   -9.0067734371389037E+00    2.4774481296032160E+00   -2.7584595477354710E+00
Pb   -3.2096406305210348E+00   -3.2504559592990319E+00   -9.2316702874053043E+00
Pb   -2.7929234077222156E+00   -8.5924928050357110E+00    3.2303021522888877E+00
Pb   -3.0207841886589772E+00    8.8442778693801412E+00   -2.8603953230019856E+00
Pb   -2.6572960978856863E+00   -8.6958201621954725E+00    9.2904106417972354E+00
Pb   -8.8061630433476985E+00   -3.6098869640552764E+00   -2.9254016932098899E+00
Pb   -8.9319998548680850E+00   -9.8472587319546232E+00   -2.5043066314733378E+00
Pb   -2.9512320322996302E+00    2.8566819406673640E+00   -2.9010228578746200E+00
Pb   -8.9076984310547918E+00   -9.2698453289194429E+00    9.4797224012336780E+00
Pb   -9.3176350754921824E+00   -3.3880642924828908E+00   -9.0133346869067612E+00
Pb    9.3054853659217827E+00   -3.1350120934638039E+00   -9.6549185530355270E+00
Pb    8.8368025563925539E+00   -9.2615762560088317E+00   -8.8756254370318093E+00
Pb   -3.2526825038834057E+00   -9.5005209746828463E+00   -8.6853875687903823E+00
Pb   -9.6914075112255684E+00    8.7058186475779671E+00   -9.4826197745591312E+00
Pb    3.0077734168136967E+00   -3.0511302468254553E+00   -9.4800777124570033E+00
Pb    2.8488545095868880E+00   -9.2574911668872613E+00   -9.0317870938430715E+00
Pb   -3.2715405507939672E+00    2.8356363073110145E+00   -9.2149045730388845E+00
Pb    3.0066703390668441E+00    9.3547907978942426E+00   -9.2594151695844822E+00
Pb    2.8116676937636051E+00    2.9891806490869053E+00   -9.2438552491863426E+00
Pb    9.0146612006474438E+00   -3.0416141576864337E+00   -3.3036734487362689E+00
Pb    9.2499775103268167E+00   -9.0023239410662192E+00   -2.8764765530353338E+00
Pb   -8.5780083540389569E+00   -3.1707514405030635E+00    8.8965373659721561E+00
Pb    8.8504078438046889E+00    8.7261698081965147E+00   -9.4500352158848688E+00
Pb   -9.3403362366594553E+00    2.4493739248601698E+00   -8.9091724444807312E+00
Pb   -3.2966299593236568E+00    9.0171912248576351E+00    8.7964720918036772E+00
Pb    8.8614163413792699E+00    8.9444461504159740E+00   -3.5318030052050662E+00
Pb    8.9496555724183136E+00    2.9676029851321073E+00   -3.0574119828137367E+00
Pb    9.1349827582548375E+00   -2.7022941669411282E+00    2.7098668747791494E+00
Pb    9.3353364739037037E+00   -8.9205126354761539E+00    3.0212435976621026E+00
Pb    8.9189545783531905E+00    2.7040819104739096E+00   -8.9098814859058297E+00
Pb   -2.9003301686872356E+00    3.3483387918722580E+00    9.2659142878385516E+00
Pb    9.0995365274018738E+00    9.2216022126967783E+00    2.7539548400675997E+00
Pb    8.9928752919621129E+00    3.1967682636531451E+00    2.9191500810079276E+00
Pb    9.2763967291456613E+00   -2.5218094618473601E+00    8.8329813629209610E+00
Pb    9.4018664225729918E+00   -8.2427082267798450E+00    9.1832506860970273E+00
Pb    9.0425556216186465E+00    9.7158826385388242E+00    8.7121843131062793E+00
Pb    9.4525864762481184E+00    3.4608640648123790E+00    8.8152846877395650E+00
Pb   -8.8699286936943977E+00    3.1568194295509291E+00    9.3092053210357619E+00
Pb   -2.8907433005943410E+00   -2.8922422722742067E+00    2.9518744486480264E+00
Pb   -9.1723940987770298E+00    8.6606112963957855E+00    2.8969937122700888E+00
Pb   -9.0911752556528871E+00    8.8671969688000054E+00   -3.1965054264251411E+00
Pb   -9.1498541078357647E+00   -9.6790936073911737E+00   -8.4108346457493415E+00
Pb   -3.0854014449965690E+00    8.7994583940172841E+00   -8.9464811850479897E+00
Pb   -9.0492039429837359E+00    2.8442679216669111E+00    2.9305451059072212E+00
Pb   -9.0402496789546518E+00    9.0775458078770992E+00    9.1509803898761906E+00
Pb   -3.0054281323788818E+00   -3.2952906621063307E+00   -3.0246186790731091E+00
Br   -5.0534865574812994E-02   -2.6411424302916018E+00   -3.6676914149778450E+00
Br    3.1119836289153637E+00   -2.8795997292982145E+00   -6.4070011695603792E+00
Br    3.2818068678058672E+00    3.2559458996131468E-02   -3.3052599944643792E+00
Br    3.4846129137481591E-01   -8.5802107972884194E+00   -2.9267756485270064E+00
Br    3.4335721954998992E+00   -8.8959732660020965E+00   -6.0961796209526407E+00
Br    3.3596741762193445E+00   -5.6451811535586671E+00   -3.5836301546294731E+00
Br   -2.9783685621817049E+00   -3.1333702333148108E+00   -6.0718027981267166E+00
Br   -9.2390814826345320E+00   -3.3042559399178026E+00    5.7732227696230964E+00
Br   -3.1724262221614814E+00   -3.3212119537354984E-01   -3.0084236801344861E+00
Br    2.5508564929534114E+00   -1.1908889841559454E+01   -2.7562097167089865E+00
Br    1.2026918339362423E+01   -1.9785697972521228E+00    3.2490692676727635E+00
Br   -5.6923342838140529E+00   -9.8603637570961613E+00   -2.1427888347759243E+00
Br   -1.1746326756060638E+01   -3.0436928054687478E+00    2.2485269938865531E+00
Br   -8.4582203018949098E+00   -3.4878182489425238E+00    1.5600457512658000E-01
Br    1.2232620168744639E+01   -9.7481286548089443E+00    2.5891080786319041E+00
Br   -1.4946562104351641E-01    8.7874411577909388E+00   -3.0953479168113023E+00
Br    2.9446441226455597E+00    9.0062000068302392E+00   -6.1972361938079992E+00
Br    2.6388506072465661E+00    1.2039584947679106E+01   -3.8584575054401609E+00
Br    2.2656881760448500E-01    2.8813236426064908E+00   -2.9702702671059011E+00
Br    3.4317903521209834E+00    2.6610909528348921E+00   -6.3912111543597057E+00
Br    2.8485404768412188E+00    6.1083981819687905E+00   -3.5082432784275732E+00
Br    1.4178053516211744E-01   -2.5597630492053107E+00    2.7231249694686572E+00
Br    2.8507480185076193E+00   -2.9412569845662140E+00   -5.1360700518329909E-02
Br    2.7905750908254467E+00    3.8427321430010131E-01    3.1204577003961758E+00
Br    3.4048689474169891E-01   -8.6599577969501986E+00    2.3321774972742917E+00
Br    3.3659572825721815E+00   -8.4056946952535618E+00   -1.2696034949088536E-01
Br    3.0193980123068185E+00   -5.6002313866279900E+00    3.1070476318218798E+00
Br   -6.0235923000545224E+00    8.3092262194808786E+00   -8.7631614043086703E+00
Br   -3.1109426023218059E+00    8.3162459663271662E+00   -1.1818689061311987E+01
Br    3.5614549463129701E+00   -1.1512386657480048E+01    2.5545351271821990E+00
Br   -3.2837195779542001E+00    1.1726428753163873E+01   -8.9282031727628937E+00
Br   -3.3505919619333779E+00    5.8540101007901102E+00   -8.4255302223320392E+00
Br   -8.7362466003293910E+00   -1.2861334789069787E-01    2.7977815349108508E+00
Br   -3.0776786613717104E+00   -9.4934434055929771E+00   -5.5239429702062264E+00
Br   -6.1857575848598332E+00    8.3038985648697636E+00    2.8498631521025430E+00
Br   -2.8520536979686297E+00    8.3554091615065325E+00    8.4750789800632984E-02
Br   -3.0933403515194509E+00    1.1737142286512340E+01    2.5561683073191195E+00
Br    1.7781515568630066E-01    8.2143174579343636E+00    2.9431553083375475E+00
Br    2.6615072959196602E+00    9.5440420288052081E+00   -4.5640909799259605E-01
Br    2.0860011300382264E+00    1.1819624203309695E+01    2.0867041410374743E+00
Br    1.4733695707656450E-01    3.1965689671070403E+00    3.2656527724683251E+00
Br    3.1245876025927575E+00    3.1433799895668613E+00   -2.0343121077527490E-01
Br    3.6783797161595286E+00    6.3141416615943733E+00    2.2077723305935733E+00
Br    4.7481299198533033E-01   -2.9670853278191247E+00    8.8667591624535866E+00
Br    3.0224558522885392E+00   -2.8893287819271429E+00    5.9278872129875708E+00
Br    3.4022980562427936E+00    3.0245809478845825E-01    8.3807945689361940E+00
Br    4.4562359697362264E-01   -8.3385445180983560E+00    9.6380472019346204E+00
Br    2.6118286343248691E+00   -8.8520989194399746E+00    6.3299811535983306E+00
Br    3.1799733199542617E+00   -5.7202457788729237E+00    8.9908225017998351E+00
Br   -1.1926161557283644E+01    2.4894634117389502E+00    3.0809216489664859E+00
Br   -9.1677355502585733E+00    2.7429406764938276E+00   -5.1883919601044090E-02
Br    4.7621977024920348E+00   -1.1306834735785952E+01    9.2462625042730426E+00
Br   -9.4529451937196534E+00    5.9027651217451398E+00    2.5689942225134574E+00
Br   -8.8192879931472934E+00    4.0653337025999652E-02    8.6895934921049403E+00
Br   -3.0101979721189163E+00   -6.0827714681142488E+00   -2.9493983588349533E+00
Br   -5.9476290812161148E+00    2.6997077267943164E+00    3.1260517719369179E+00
Br   -3.2443500514227712E+00    2.8424179523398143E+00   -3.3262889269616597E-02
Br   -3.0236109496437247E+00    5.7850984322776320E+00    2.9160181744878355E+00
Br   -1.1628980806072176E-01    8.5721244672283774E+00    8.6718898029080087E+00
Br    2.8922927203817399E+00    9.2431503311320391E+00    5.9728597004884740E+00
Br    2.7594713153346762E+00    1.2078486045387242E+01    8.1469670043139857E+00
Br    2.5826900790777074E-01    3.0357395116805836E+00    8.4424854936039448E+00
Br    3.2295973009112702E+00    4.0857417485101966E+00    5.8315103203858261E+00
Br    3.0441870697718403E+00    6.0538524701431120E+00    9.3299539157659748E+00
Br   -5.3832525857146560E+00   -3.2627760159920856E+00    8.7354097316605852E+00
Br    3.2761057218372738E+00   -2.7821472356963111E+00    1.1912162680563364E+01
Br   -2.5324664026582786E+00   -2.1099822869932336E+00    5.9849765902738135E+00
Br   -3.0986123738314180E+00    3.3740326637756102E-01    9.5721940089153215E+00
Br   -2.2341698467534155E+00   -1.2157215738672875E+01   -2.2234740219593228E+00
Br    4.2180728089611934E+00   -8.3829655693202660E+00    1.2228390728083671E+01
Br   -1.2019922231469380E+01    1.8208923343974104E+00   -2.9265739641046138E+00
Br   -2.6993648829335131E+00   -1.1551983745051546E+01    3.7113713456479878E+00
Br   -1.1685555801644618E+01   -3.1067808307064166E+00   -3.2288518925960816E+00
Br    2.5541982485882593E+00    9.4663557527095215E+00    1.1512925490606964E+01
Br   -8.5141196719159424E+00   -3.5834987906077949E+00   -6.0608945568995614E+00
Br   -8.8056644614546862E+00   -5.8210349923851179E-01   -2.9460238199340432E+00
Br    2.8769904043190295E+00    2.1801042649313764E+00    1.1342224724628254E+01
Br   -5.8608243780621487E+00    8.7315147353512792E+00   -3.3634920341982006E+00
Br   -2.5415528446883138E+00    8.6459671938314617E+00   -6.1440602232057868E+00
Br   -2.9982846346048961E+00    1.1693577400998846E+01   -2.9780730695884468E+00
Br   -5.9405682440377250E+00    3.1193803091869965E+00   -2.9170332767019738E+00
Br   -1.1775625878692727E+01   -8.9199354538825215E+00    3.8330798012006855E+00
Br   -2.4402852583020098E+00    2.5462701650377171E+00   -5.6429627171318630E+00
Br   -6.1002895143121298E+00   -2.8869780043743023E+00   -8.7679288344988784E+00
Br   -3.6945848568916895E+00   -3.8464897336356576E+00   -1.1948929461229204E+01
Br   -3.1261694967049514E+00   -4.2812585737407699E-01   -9.2535428718982793E+00
Br   -1.8590401772435641E+00    4.0087781758053378E+00    1.1741382332301626E+01
Br   -5.8032312825431625E+00   -8.5977655132907156E+00    9.0800442044865939E+00
Br   -2.6822604288401877E+00   -8.0455743054924671E+00    6.1354529778167333E+00
Br   -2.5909679140420701E+00   -5.6486638685892405E+00    9.0908117142644205E+00
Br   -9.5924687685582271E+00   -9.1750748540419291E+00    3.5612200070990568E-01
Br   -8.6050004874085388E+00   -5.8903302847606902E+00    3.2658628689869280E+00
Br   -8.9882408093905806E+00    9.4563226513689749E+00    1.1940269890293608E+01
Br    1.1925672769366869E+01    8.5661713343618828E+00    2.1927144765799875E+00
Br   -1.0366034504355651E+01   -8.4979741461405958E+00    1.2100591310172822E+01
Br    1.1713028809301925E+01    8.7403527770360423E+00   -3.2124029509534693E+00
Br    1.2011162023315453E+01    3.7720121477616901E+00    2.9722028796123174E+00
Br   -8.7479132494593230E+00    1.9869940579826793E+00    1.1973779425473392E+01
Br   -1.2199617289769245E+01   -3.7373294367646763E+00   -8.1584850914661917E+00
Br    1.2123224827550388E+01   -3.0519569054709419E+00    8.6840952250730314E+00
Br   -6.1107828782814515E+00   -8.7278438715756117E+00    3.1544799769740659E+00
Br    6.0583198678533670E+00   -3.0054112792933161E+00   -9.7308346960130994E+00
Br    9.8651559147693249E+00   -2.1371157833722085E+00   -1.2561034785088410E+01
Br    1.2100035382071393E+01   -7.2910260912932605E+00    9.0356075708572945E+00
Br    9.3695111262611714E+00   -8.5926917589891516E-02   -9.3276564930791022E+00
Br   -8.1337364061583646E+00   -1.1906299951260893E+01    1.0152467315897479E+01
Br   -3.0995421170846407E+00   -8.9544016251444543E+00    3.6802633831774417E-01
Br   -3.4012524956744268E+00   -5.8583389845026730E+00    2.8506693879284231E+00
Br    6.1048950146051535E+00   -8.8794240098368498E+00   -8.9844932801626118E+00
Br   -6.0528157519132773E+00   -8.7847406750420998E+00   -7.8359341787660544E+00
Br    8.8022161962556122E+00   -9.9415527211706181E+00   -1.1464392003706799E+01
Br    8.5866787745247048E+00   -6.1592870309681045E+00   -8.5026336451545319E+00
Br   -2.9444823399827511E+00   -1.1204709773339035E+01    8.3856408549156924E+00