 # Version information for this restart file 
 # current date 2021-06-17 12:36:01.890
 # current working dir /user/ub2042/exercises/2_fitting/MM_MD_workdir/md_settings.002
 # Program compiled at                              Thu Apr 22 21:44:59 EDT 2021
 # Program compiled on                cpn-k07-07-02.compute.cbls.ccr.buffalo.edu
 # Program compiled for                                                    local
 # Source code revision number                                       git:36754bb
 &GLOBAL
   PRINT_LEVEL  LOW
   PROJECT_NAME cp2k
   RUN_TYPE  MD
 &END GLOBAL
 &MOTION
   &MD
     ENSEMBLE  NVT
     STEPS  10000
     TIMESTEP     2.4999999999999996E+00
     STEP_START_VAL  3000
     TIME_START_VAL     7.4999999999997844E+03
     ECONS_START_VAL    -1.3948793637821183E+01
     TEMPERATURE     3.0000000000000000E+02
     &BAROSTAT
       PRESSURE     1.0100000000000000E+00
       TIMECON     9.9999999999999982E+03
     &END BAROSTAT
     &THERMOSTAT
       TYPE  CSVR
       &CSVR
         TIMECON     9.9999999999999982E+03
         &THERMOSTAT_ENERGY
              -1.1955426328011060E-01
         &END THERMOSTAT_ENERGY
         &RNG_INIT
Wiener process for Thermostat # 1        1 F T F  -5.1494578375668887E-01        2852707072.0        1655590670.0        2178748249.0        1152806409.0         513555522.0         278426018.0             12345.0             12345.0             12345.0             12345.0             12345.0             12345.0             12345.0             12345.0             12345.0             12345.0             12345.0             12345.0
         &END RNG_INIT
       &END CSVR
     &END THERMOSTAT
     &AVERAGES  T
       &RESTART_AVERAGES
         ITIMES_START  1
         AVECPU     1.7480435222309722E-02
         AVEHUGONIOT     0.0000000000000000E+00
         AVETEMP_BARO     0.0000000000000000E+00
         AVEPOT    -1.4322683114859871E+01
         AVEKIN     4.2819185893985057E-01
         AVETEMP     2.1720824657291266E+02
         AVEKIN_QM     0.0000000000000000E+00
         AVETEMP_QM     0.0000000000000000E+00
         AVEVOL     6.7483345830901479E+06
         AVECELL_A     1.8897261328855848E+02
         AVECELL_B     1.8897261328855848E+02
         AVECELL_C     1.8897261328855848E+02
         AVEALPHA     9.0000000000000000E+01
         AVEBETA     9.0000000000000000E+01
         AVEGAMMA     9.0000000000000000E+01
         AVE_ECONS    -2.8660700349381312E+00
         AVE_PRESS     0.0000000000000000E+00
         AVE_PXX     0.0000000000000000E+00
       &END RESTART_AVERAGES
     &END AVERAGES
     &PRINT
       &ENERGY  SILENT
         &EACH
           MD  10
         &END EACH
       &END ENERGY
     &END PRINT
   &END MD
   &PRINT
     &TRAJECTORY  SILENT
       &EACH
         MD  10
       &END EACH
     &END TRAJECTORY
     &CELL  SILENT
       &EACH
         MD  10
       &END EACH
     &END CELL
     &VELOCITIES  SILENT
       &EACH
         MD  10
       &END EACH
     &END VELOCITIES
     &FORCES  SILENT
       &EACH
         MD  10
       &END EACH
     &END FORCES
     &RESTART  SILENT
       &EACH
         MD  10
       &END EACH
     &END RESTART
   &END PRINT
 &END MOTION
 &FORCE_EVAL
   METHOD  FIST
   &MM
     &FORCEFIELD
       VDW_SCALE14     1.0000000000000000E+00
       EI_SCALE14     1.0000000000000000E+00
       SHIFT_CUTOFF  T
       DO_NONBONDED  T
       IGNORE_MISSING_CRITICAL_PARAMS  T
       &SPLINE
         R0_NB     2.5000000000000000E-01
       &END SPLINE
       &NONBONDED
         &LENNARD-JONES
           ATOMS Br Br
           EPSILON     1.2630795322675199E+02
           SIGMA     3.6900000000000004E+00
         &END LENNARD-JONES
         &LENNARD-JONES
           ATOMS Cs Pb
           EPSILON     8.6920055954630968E+01
           SIGMA     3.9452500000000001E+00
         &END LENNARD-JONES
         &LENNARD-JONES
           ATOMS Cs Cs
           EPSILON     2.2644852172126850E+01
           SIGMA     4.5300000000000002E+00
         &END LENNARD-JONES
         &LENNARD-JONES
           ATOMS Pb Pb
           EPSILON     3.3363415533600227E+02
           SIGMA     6.1000000000000005E+00
         &END LENNARD-JONES
         &LENNARD-JONES
           ATOMS Br Cs
           EPSILON     5.3481070753900497E+01
           SIGMA     3.6300000000000003E+00
         &END LENNARD-JONES
         &LENNARD-JONES
           ATOMS Br Pb
           EPSILON     2.0528187276773045E+02
           SIGMA     2.9800000000000000E+00
         &END LENNARD-JONES
       &END NONBONDED
       &CHARGE
         ATOM Cs
         CHARGE     4.1739999999999999E-01
       &END CHARGE
       &CHARGE
         ATOM Pb
         CHARGE     8.3479999999999999E-01
       &END CHARGE
       &CHARGE
         ATOM Br
         CHARGE    -4.1739999999999999E-01
       &END CHARGE
     &END FORCEFIELD
     &POISSON
       PERIODIC  XYZ
       &EWALD
         EWALD_TYPE  SPME
         GMAX  62 62 62
         O_SPLINE  4
       &END EWALD
     &END POISSON
     &PRINT
       &FF_INFO  LOW
         SPLINE_INFO  F
         SPLINE_DATA  F
       &END FF_INFO
     &END PRINT
   &END MM
   &SUBSYS
     &CELL
       A     1.0000000000000001E+02    0.0000000000000000E+00    0.0000000000000000E+00
       B     0.0000000000000000E+00    1.0000000000000001E+02    0.0000000000000000E+00
       C     0.0000000000000000E+00    0.0000000000000000E+00    1.0000000000000001E+02
       PERIODIC  XYZ
       MULTIPLE_UNIT_CELL  1 1 1
     &END CELL
     &COORD
Cs   -3.8504347889156819E-02   -1.5860763632837371E-01   -5.6522895814064258E+00
Cs    6.6687301823457990E-01   -6.4559938671543042E+00   -5.7447850559502207E+00
Cs    6.8134828789264978E-01   -1.1820700879610836E+01   -5.6575008537929694E+00
Cs   -6.0912026533251362E+00   -5.7259563260223265E+00   -4.9755994932453644E+00
Br   -8.6880981708341292E+00   -1.2039274523855823E+01   -7.9763600085367692E+00
Br    1.1805519381856342E+01   -3.1556701779733496E+00   -9.0256060499468926E+00
Br   -3.2399425312199570E+00    2.4977435345168999E+00   -1.1657593714068570E+01
Cs   -2.7938006238535917E-01    6.0878087206892264E+00   -6.0882182415476418E+00
Cs    1.3114152643768856E-01    3.9263306348179350E-01   -1.4120253672590832E-01
Cs    1.0034487244251191E+00   -5.7336242250101943E+00    7.8249272275608694E-01
Br   -6.0881539337606325E+00   -3.1988244903139957E+00    3.2568874721901984E+00
Cs   -1.0508438646182240E+01   -5.6908782183273550E+00    1.2596695539096396E+01
Cs    1.0598880423603743E+01   -1.1608848933394217E+01    4.0835683315892013E-01
Cs   -6.3359203556930055E+00    5.9387979318929043E+00   -4.9856883982595246E-01
Cs   -1.0543885466318850E+00    1.1478706879388286E+01   -1.5332198788681631E-01
Cs    1.0076123833261243E-01    5.6342979270163811E+00   -7.3690268130433889E-01
Cs    1.3117597006889281E+00    5.5951814521436516E-01    6.1215391328806854E+00
Cs    1.1342709967139092E-01   -5.4953138655312488E+00    6.4155524594594686E+00
Cs    2.8902764910876649E-01   -1.0614952993598532E+01    6.4135672863741453E+00
Cs   -6.8107645242520158E+00    6.7707768810032318E+00    1.0431720563517874E+01
Cs   -5.6239621780488100E+00   -1.2193702943085152E+00   -1.0744931527580237E+01
Cs   -6.7387329680744577E+00   -1.1791038198097214E+01   -4.9512689990143208E+00
Cs   -5.0525009505925675E+00    2.3629697166894373E-01    5.9802779817330141E+00
Br   -2.8622927013963571E+00   -3.3939131399932054E+00    6.9292185941588558E-01
Cs   -4.9857595126090420E-01    6.3989382473681768E+00    5.3418529120031204E+00
Br    1.2420196502396129E+01   -8.3045244150551927E+00   -1.0070088234897201E+01
Cs    1.8779609977804901E+00   -5.0543382507250847E+00    1.3495963136391282E+01
Br   -2.3802778336733694E+00    4.1097671618139913E-03    3.3940321419598694E+00
Br   -8.4474066554975131E+00   -3.1867318382157599E+00    1.2722682708041686E+01
Cs    1.0817950188461962E+01    1.1706980370071967E+01   -7.3225644052298602E+00
Cs   -1.1423140586422610E+01   -6.1307331547680413E+00    6.5766886622270713E+00
Cs   -5.5685089596373150E+00   -6.2428490583490186E+00    6.8316456139731070E+00
Cs   -6.2448789092976114E+00    1.0902388491330784E+01   -6.2947651478140179E+00
Br   -1.1507269956240824E+01   -9.3754837250396967E+00    1.0688953729074942E+01
Br   -9.1955384648620750E+00   -8.7896969083374508E+00    7.0273178032149985E+00
Cs   -1.1601209551869653E+01   -6.2250445885445203E+00   -5.9294465968360601E+00
Cs   -6.4425761831163966E+00    5.2580320283510886E+00   -6.8406074961402306E+00
Br   -8.2298788476525306E+00   -5.9836998497646432E+00    9.9593983775251633E+00
Cs    1.0899779560486856E+01    6.3302632999822404E+00    1.0596830809303851E+01
Br   -1.2263417436012551E+01    9.0622239512525784E+00    8.4148438577006726E+00
Br   -5.8443413701675508E+00   -2.9548733463653862E+00   -2.0822095817835247E+00
Cs    1.6034809477603307E-01    1.2938491148140676E+00    1.1616488491850625E+01
Cs    1.1983393295685186E+01    6.5274934320021121E+00   -1.4270206542460113E+00
Cs   -1.0068161543508099E+01   -6.2762784299638890E+00   -1.1570036850225407E+01
Cs    1.1966456825579332E+01    4.5161718648793581E-01    5.9366045993126795E+00
Cs   -1.0849005055775740E+01    1.2068646376025079E+01   -6.0902453757351500E+00
Cs    1.1612856470150435E+01   -1.0701568627579800E+01    6.3445861859246149E+00
Cs    6.6678337677844475E+00   -6.3659940308418044E+00   -1.1656553074477385E+01
Cs    6.5330111574282306E+00   -1.0334087875988629E+01    6.5504729547061231E+00
Cs   -5.4996623669049338E+00   -1.2334866174603174E+01    1.1070134765413764E+00
Cs    6.2762350316814448E+00   -1.1648887725624212E+01   -1.1389392430218434E+01
Cs    1.0885469936590841E+01    6.6559548394671291E+00   -6.9203464656493754E+00
Cs    1.1315256546862468E+01    1.2553713789440158E+01    6.0761002788330689E+00
Cs    1.0646870465353580E+01    6.1897976679035311E+00   -1.2434402726120970E+01
Cs   -1.3354027866909535E-01   -6.8218642127563154E+00   -1.1086201438871132E+01
Cs   -1.1199356690879558E+01    1.8720266807313677E-02   -5.5118148550989314E+00
Cs    7.1804987455020939E+00   -5.1675769990600076E+00    1.1410211233308086E+01
Cs    1.2256766949135567E+01   -5.3133981624575339E+00    5.7663030687450156E+00
Cs   -1.1123630098441314E+01   -1.2547102163643627E+01    1.2640907194397300E+01
Cs    2.1638202317114566E-01   -5.4754323101742164E-01   -1.1079442159871347E+01
Cs   -2.4450575816155956E-01    1.2514459464602055E+01    5.3494481831551113E+00
Cs   -8.9318450674061944E-01    4.7650495667473471E+00   -1.1838282582502849E+01
Cs    5.9651277315965334E+00    5.9207503043387366E-01   -6.0830799794789687E+00
Cs    7.1330467952190793E+00   -5.9335554656250311E+00   -5.7392196572083911E+00
Cs   -4.9694581209679365E+00   -1.1788625537595808E+01    6.7293203325254130E+00
Cs   -1.0742397911640982E+01   -5.4382166093082696E-01    6.6362050772918106E+00
Cs    5.6487620701588428E+00   -4.5774863468613985E-01   -1.0800733254627151E+01
Cs    5.3281459415451602E+00    1.1349754153887494E+01   -1.2239425774543392E+01
Cs   -8.3779327309108337E-02    6.3256680816320108E+00    1.0880082140526403E+01
Cs   -6.0538923351891567E+00    1.1458370592793932E+01    5.9011770518064672E+00
Cs    5.1899625541009513E+00    1.1255248406144723E+01   -6.4067286374648642E+00
Cs    5.5123836474129879E+00    6.1476577595761173E+00   -5.8527910838630808E+00
Cs    6.7400809566447633E+00    9.2269450088744687E-01   -3.6118692817445525E-01
Cs    6.6412788852119258E+00   -5.2018362679646275E+00    1.2404640978523043E+00
Cs    6.4870713432541010E+00   -1.0779178615908858E+01    1.1992212627869974E+00
Cs    3.5318476384618882E+00    4.9720492261815190E+00   -1.3048937565298820E+01
Cs   -5.9003259836235147E+00    5.7498947900819193E+00    4.9717268492559876E+00
Cs   -5.1325835278165064E+00   -7.2653593773744447E+00   -1.1296908826678402E+01
Cs    6.3296602985315236E+00    6.3004509110940301E+00    2.9262854194465876E-01
Cs    7.2175958482338851E+00    6.1712601937973366E-01    5.7294282426183942E+00
Cs    6.3009864095921397E+00   -6.0136273938886839E+00    6.9515711569675780E+00
Cs   -6.5094902817289304E+00    1.1042062492566080E+01   -3.4150030055677294E-01
Cs    1.2900560270620304E+01    2.0565164777173253E-01   -8.8948372957088206E-01
Cs   -6.3840033651610693E+00   -2.5692972747091097E-01   -4.3729682931421054E-01
Cs   -1.1752243265544996E+01    5.1451902982028859E+00    5.5288718002189974E+00
Cs   -5.3151087961999206E+00    7.9400329747778053E-01    1.2200064898801768E+01
Cs    5.4579372454405046E+00    1.2150654470033883E+01    4.9969653455951901E+00
Cs    5.8242169155239454E+00    6.8404533376850427E+00    5.2250764761865973E+00
Cs    6.7389901194342743E+00    4.4759619181475346E-01    1.0978964178810855E+01
Cs    5.4075001695099187E+00    1.1415859409300852E+01   -1.2261982025773228E+00
Cs    1.1272905988458707E+01    1.1756716390777980E-01   -6.5197924776983713E+00
Cs    1.2273037790048344E+01   -6.0218839762901695E+00   -7.1396317019087432E+00
Cs    5.6210109784753142E+00   -1.0714306936657007E+01    1.2304564996096545E+01
Cs    1.0616170133929918E+01    1.1812185158543903E+01   -1.0794328880207740E+00
Cs   -1.1583681972872487E+01    2.4253631277559326E-01    1.1794507445969380E+01
Cs   -6.5223439727981836E+00    5.5290102937599430E+00   -1.1530464780549305E+01
Cs   -1.2909044960703191E+01    9.8750224081310201E+00   -2.0010445304216434E-01
Cs   -4.8086128966122255E+00   -4.8320864467904121E+00    1.2265370978065729E+01
Cs   -5.1212071818280362E+00   -1.1462299277168835E+01    1.1257694894433545E+01
Cs    5.5979650546013655E+00    7.0855341683409634E+00    1.1076202718562351E+01
Cs    1.1710012041282113E+01   -6.1477318838139725E+00    1.3135879599115854E-01
Cs   -1.1910296868104925E+01   -3.7192942115611544E-01    1.1849781258415433E-01
Cs   -6.1307389484375614E+00    1.1013818386365896E+01   -1.3313851201260265E+01
Cs   -1.1508757364620845E+01    4.9421691691761342E+00   -8.9732540065978561E-01
Cs   -1.1441705466345892E+01   -1.2111389171067730E+01   -6.0088678519249630E+00
Cs   -1.2501205593842696E+01   -5.8379943417317683E+00   -3.7433824163785830E-02
Cs   -5.1673519996889015E+00   -5.7940797474926855E+00    8.6755576765344211E-01
Cs   -1.0824359744148849E+01   -1.2480164599664807E+01    6.1977010937324692E+00
Cs    1.2967298467833370E+01   -5.0413051276778003E+00    1.0521292993229112E+01
Cs    1.1269582137257618E+01    6.2258926270068802E+00    5.1531079534212472E+00
Cs   -1.1723496648919635E+01    6.1310372380744864E+00   -7.4020484165163012E+00
Cs   -5.8051550428858656E+00   -5.8499751101198549E-01   -5.3635257140833223E+00
Cs   -1.1611364708847862E+01   -1.1825815618034065E+01    1.0121177839826152E-01
Cs    1.1380627750917371E+01   -7.4214539341803460E+00   -1.3275145047708090E+01
Cs   -6.0147841777912507E+00   -1.2212716934555299E+01   -1.0503417505091960E+01
Cs   -4.6702451120058674E-01    1.0319784565862520E+01   -1.1954805013390818E+01
Cs    2.6492718368965235E-01   -1.1702764602400292E+01   -1.1136638127164113E+01
Cs   -1.5061360823591057E+00    1.1816361255300588E+01   -6.0565570395463206E+00
Cs   -1.1441499554672122E+01    6.0124067155020979E+00    1.1604243039476813E+01
Cs    1.2202922423794078E-01   -1.2149437670067307E+01    4.3038538710088170E-01
Cs   -1.1403425567529370E+01   -6.5557177577817238E-01   -1.0721722065943505E+01
Cs   -1.2076031238989307E+01    1.1199339516585169E+01    5.3179726983800224E+00
Cs    6.9279698314372267E+00   -1.1057552184854458E+01   -5.7832792039146490E+00
Cs    1.1430240955996140E+01   -7.8599861780233748E-01   -1.2303106285976270E+01
Cs   -2.9203063025010240E-01    1.3156878887648142E+01    1.0196651406984264E+01
Pb    3.0998066454008053E+00   -2.9400493076878478E+00   -2.7193197390590695E+00
Pb    3.1866695985111213E+00   -8.9656745243707672E+00   -2.4055735781230565E+00
Pb   -8.9368890775005081E+00   -3.5497800484852591E+00    3.6913308735715686E+00
Pb   -2.8593111843325700E+00   -9.5183124661584735E+00   -2.4251010084509455E+00
Pb    2.5258105409140348E+00    9.2854518612446491E+00   -3.7208642806205225E+00
Pb    3.3506100321652745E+00    2.9776273345228037E+00   -3.0959466588884386E+00
Pb    3.4072551829710367E+00   -3.0083637796407179E+00    3.3668131924655373E+00
Pb    3.5922894873563083E+00   -8.8602057012333830E+00    3.4198761722788391E+00
Pb   -3.5087734275102802E+00    9.0625353561375643E+00    2.6472877596374698E+00
Pb    2.3185448552775658E+00    8.9381323719707915E+00    2.3158009549979583E+00
Pb    3.5513553178234041E+00    2.9810186371020433E+00    3.0372202016296073E+00
Pb    3.6742891529507880E+00   -2.5132049701956918E+00    9.2469820011640582E+00
Pb    3.6412472922462285E+00   -8.5646958782311042E+00    9.2693305589019310E+00
Pb   -2.7522593652632725E+00    2.9313216702805169E+00    2.8793668834642583E+00
Pb    2.6111922610784482E+00    9.3288321985800451E+00    8.1283087847479010E+00
Pb    3.3156032748482573E+00    3.4444273534299858E+00    8.8242401680701459E+00
Pb   -2.3248911896771713E+00   -2.4921648549150306E+00    9.5668976048738461E+00
Pb   -8.6510372954112160E+00   -9.7495259093167359E+00    4.0734202111383278E+00
Pb   -8.8504121659841548E+00    2.5170120000345082E+00   -3.2059679540914563E+00
Pb   -2.9652644185094741E+00   -3.5824179351353722E+00   -8.5503121639606263E+00
Pb   -2.7618474180163628E+00   -8.7995561457828124E+00    3.4871530514087010E+00
Pb   -3.2710924901294560E+00    8.8937014770089373E+00   -3.3167022893850837E+00
Pb   -2.4077027937849684E+00   -8.5261647614122520E+00    9.5589025726085275E+00
Pb   -8.7609742000619892E+00   -3.5217794912304732E+00   -2.5413089402176627E+00
Pb   -9.1747274450948968E+00   -9.5073701335799576E+00   -2.4197808490906798E+00
Pb   -3.1296721126681422E+00    2.7211586203582581E+00   -3.1628729287580333E+00
Pb   -8.7460470880890586E+00   -8.7951439675189764E+00    9.9164303056217609E+00
Pb   -8.9023935007269976E+00   -3.3645209001167564E+00   -8.4060760510143613E+00
Pb    8.9292010512905247E+00   -2.8694289835991547E+00   -8.9341149621807041E+00
Pb    9.6016396381538325E+00   -9.1961711298784738E+00   -9.3105538648774289E+00
Pb   -2.8330581419547145E+00   -9.9347474171786558E+00   -8.3402241159246397E+00
Pb   -9.2724448626302109E+00    8.9548607111179397E+00   -9.7883987277461859E+00
Pb    3.0492285198980715E+00   -3.4953965201329029E+00   -8.7186674330347547E+00
Pb    3.3716705897558046E+00   -9.5384879525604962E+00   -8.4573525339960085E+00
Pb   -3.0727202495686066E+00    2.2518002932213443E+00   -8.9322327425286563E+00
Pb    2.6760663860200560E+00    8.3606246018789836E+00   -9.8722897263926956E+00
Pb    2.8357923949749697E+00    2.5884284395649808E+00   -8.8935797950887512E+00
Pb    9.1077365553483371E+00   -2.8899596970354580E+00   -2.9206392674967172E+00
Pb    9.0955141731942160E+00   -8.9402040282372557E+00   -2.6662103433148387E+00
Pb   -8.2446393106006077E+00   -2.6875662092276356E+00    9.5916554837220520E+00
Pb    8.4858550595372986E+00    9.4279558670756458E+00   -9.8689503999024080E+00
Pb   -9.2394748235094077E+00    2.5856950923518700E+00   -9.3066441697744242E+00
Pb   -3.3988969243908569E+00    9.6646795744312097E+00    8.9052832781562206E+00
Pb    8.4829990353918117E+00    9.0287007851721910E+00   -3.6856876181253870E+00
Pb    9.3304053270085703E+00    3.0121761454869174E+00   -3.7760337958490866E+00
Pb    9.6797654538605595E+00   -2.4079141084326747E+00    2.8548812427035197E+00
Pb    9.6819259818428201E+00   -8.2253129862708168E+00    3.2527595686250796E+00
Pb    8.6242874356051473E+00    3.1184385737946658E+00   -9.6985837244292092E+00
Pb   -2.9854228275990997E+00    3.3756819967046914E+00    8.8062866546148921E+00
Pb    8.8254728692654485E+00    9.8275271264020727E+00    2.4978777121209101E+00
Pb    9.4357949366017291E+00    3.6105745891775660E+00    2.5549526379140381E+00
Pb    9.9261078329783796E+00   -2.3575806941988469E+00    8.6159615835143040E+00
Pb    9.7845224015759413E+00   -8.3398233627665022E+00    9.7985219842790894E+00
Pb    8.5075206896432114E+00    9.7306866129670961E+00    8.4753798577985364E+00
Pb    9.0376839708487076E+00    3.5062808134913221E+00    8.4835265752563025E+00
Pb   -9.0966794556296335E+00    3.0331575579472152E+00    9.2642859870203953E+00
Pb   -2.7951997461588696E+00   -2.9291835620457549E+00    3.5652208143901967E+00
Pb   -9.8286785891137267E+00    8.4721485032914021E+00    2.5167652127792564E+00
Pb   -9.5731099676522096E+00    8.4654770956848200E+00   -3.3899002776920595E+00
Pb   -8.8060899277937992E+00   -9.1781065345093520E+00   -8.4973588534821580E+00
Pb   -3.3448135611489644E+00    8.3454353433603128E+00   -9.3507242259526944E+00
Pb   -9.0832395777235480E+00    2.4666482329325672E+00    3.3778001836548621E+00
Pb   -9.5904669489772836E+00    9.4315307611971324E+00    8.4807660099553885E+00
Pb   -2.8752498413199579E+00   -3.4034401003756320E+00   -2.4643990534044140E+00
Br    3.5080223943050250E-02   -2.9431166726375473E+00   -2.6730841788258979E+00
Br    2.6997441811169431E+00   -3.6758209275633109E+00   -5.7996610522843799E+00
Br    3.5518046219793993E+00   -1.1359186053735988E-01   -2.9627926683318808E+00
Br    1.4488881952915456E-01   -9.0829346899384493E+00   -2.4479870771171841E+00
Br    3.3089985154030579E+00   -8.8655985450486448E+00   -5.3129352360775188E+00
Br    3.0732407271849862E+00   -5.9938779365405956E+00   -2.2052225879895411E+00
Br   -2.5454984400233065E+00   -3.6528647794013756E+00   -5.3079647373512211E+00
Br   -8.4204346866917525E+00   -3.1739518229863561E+00    6.5635931519491288E+00
Br   -3.2086262069201550E+00   -5.0036721110918903E-01   -3.0028977063225115E+00
Br    2.8589206112773464E+00   -1.1648390535042754E+01   -2.2410714920898478E+00
Br    1.2353542371412695E+01   -1.8417329697029767E+00    2.6111702428889316E+00
Br   -6.0276114214175891E+00   -9.4875347002172088E+00   -2.4909650520048676E+00
Br   -1.1960961798039108E+01   -3.4246154873431291E+00    4.1209162603958447E+00
Br   -9.5568154855913825E+00   -2.8611405572031647E+00    2.2563179703037581E-01
Br    1.2586569490738198E+01   -8.3701403468144271E+00    3.4618285833417151E+00
Br   -3.3886413999136383E-01    9.4373160983317952E+00   -3.1529824661926789E+00
Br    2.6993480226684938E+00    9.0075717400054085E+00   -6.6188208819822476E+00
Br    2.7782989435557122E+00    1.2177071991935700E+01   -3.5642406453547202E+00
Br   -6.3826821756776994E-02    2.5024250733752962E+00   -2.8741022249119448E+00
Br    3.5005286501646773E+00    2.8269676371115238E+00   -6.1368281933082205E+00
Br    2.8560976706208856E+00    6.3364596665526607E+00   -3.4754762082157145E+00
Br    4.1730061486643455E-01   -3.4603008683007705E+00    3.7756677913930221E+00
Br    3.2496088732707937E+00   -2.5804929555614997E+00    3.8690322403491045E-01
Br    3.3134826743769348E+00    6.5437370749534107E-03    3.4449986805888559E+00
Br    6.6516485149206006E-01   -8.4655540002127836E+00    4.0210142507815885E+00
Br    3.4657397479197662E+00   -8.7283273972259590E+00    5.0089224259517540E-01
Br    3.7387883235059092E+00   -6.0333799094117646E+00    3.0992007180703496E+00
Br   -6.2594063554060364E+00    8.6316318129478731E+00   -9.3326726281440830E+00
Br   -3.3485944487053385E+00    7.9343882583273109E+00   -1.2140774091134174E+01
Br    3.8037780697123553E+00   -1.1790138468395883E+01    3.1904895468477030E+00
Br   -3.3711721761709161E+00    1.1130106960925488E+01   -9.9207726616251488E+00
Br   -3.1407855904515816E+00    5.4155862902850167E+00   -8.8620547845783371E+00
Br   -9.3651787948356482E+00   -7.2437657918978293E-01    3.4813930525293073E+00
Br   -3.2303398379398702E+00   -1.0235368061262017E+01   -5.4420359022269116E+00
Br   -6.3762063595425822E+00    9.1631952240095664E+00    2.9256852200654255E+00
Br   -3.3560258334560120E+00    8.4611546916449321E+00   -6.2461682868166002E-01
Br   -3.2004446542308158E+00    1.1713741133545501E+01    2.4973119991686232E+00
Br   -5.7698234756375899E-01    8.4427210138611617E+00    1.9641635885720419E+00
Br    2.6522939588679768E+00    9.1798557819111224E+00   -7.0006118340198253E-01
Br    2.3579727642249875E+00    1.1757246953905954E+01    3.0690706782419297E+00
Br    2.6269629149432239E-01    2.7265457164330993E+00    3.0737206056736825E+00
Br    3.2059283693580705E+00    3.1417770210443217E+00   -1.5473212530914110E-01
Br    3.3630487259127553E+00    6.2559351362852382E+00    1.8841882472944427E+00
Br    5.3815998695101652E-01   -2.9959328574612236E+00    8.9786438543640781E+00
Br    3.7107234642960023E+00   -3.4639654656079117E+00    6.1507814219522912E+00
Br    3.1975077258414673E+00    4.1574554798886304E-01    9.1338385988526660E+00
Br    3.8451613963834536E-01   -8.5600594180019289E+00    9.0383005518159454E+00
Br    3.5544403593306426E+00   -8.5336658804838059E+00    6.4706488121909640E+00
Br    4.0931970047031072E+00   -5.4439020986975946E+00    9.6977352237499019E+00
Br   -1.2002412839393909E+01    3.1406230262069474E+00    2.7406393580637283E+00
Br   -8.4849649674619680E+00    2.4743588905564575E+00   -6.6111578705617041E-02
Br    4.7123413139427006E+00   -1.1256464436826395E+01    8.9128262841397827E+00
Br   -8.8142669012437995E+00    5.7684427564645064E+00    2.6329255158602960E+00
Br   -9.1364802501866151E+00    1.0292792389232414E-01    9.7818597432577779E+00
Br   -3.6574714581280778E+00   -6.3285861664028111E+00   -2.7449116379289036E+00
Br   -6.1751773763203861E+00    2.4032787800049982E+00    3.6678076816967460E+00
Br   -2.8248144953429404E+00    2.7126479112694408E+00   -7.6917360804826307E-02
Br   -3.5354420200758661E+00    5.6087179589341094E+00    2.4511134461232760E+00
Br   -3.4848337188151446E-01    9.4535653258730559E+00    8.7673419460654696E+00
Br    2.2993980208654574E+00    8.9909855855796774E+00    5.1900711120974226E+00
Br    2.3197852181550274E+00    1.1886886017567152E+01    7.3304968594766695E+00
Br    4.1087541297846898E-02    3.4352020795409399E+00    9.1289812697974870E+00
Br    3.1596848766437451E+00    3.6979549349082848E+00    5.9116367648120942E+00
Br    2.9979981624078063E+00    6.2692017116039951E+00    8.4108855280222468E+00
Br   -5.4227537792296365E+00   -2.5871747061542960E+00    9.6725030845419742E+00
Br    3.3420002862000380E+00   -2.1620728272279917E+00    1.2121419137909253E+01
Br   -2.8570178877479666E+00   -2.7035718754409941E+00    6.2903798878249466E+00
Br   -2.0966189023884225E+00    4.7248714197496705E-01    9.0931469519612005E+00
Br   -2.3629889837154434E+00   -1.2176842872045993E+01   -1.4450075130581015E+00
Br    3.1792018970723226E+00   -8.3649145105244216E+00    1.2134851966929418E+01
Br   -1.1479373162016360E+01    1.8332979669461413E+00   -2.5304274464818368E+00
Br   -2.0266287348062528E+00   -1.1288931838615694E+01    3.7545489396163689E+00
Br   -1.1781030675668456E+01   -3.3952057121515935E+00   -2.7632432535864728E+00
Br    2.7473516462679077E+00    9.0287727052102102E+00    1.1236731314446144E+01
Br   -9.0347196625621944E+00   -3.6521879496865681E+00   -5.4998728395435199E+00
Br   -8.3538386563808888E+00   -6.5468218607152751E-01   -3.1575807198744945E+00
Br    2.8172374624280092E+00    3.3418340795485819E+00    1.1631024386254502E+01
Br   -6.2295569041747951E+00    8.5515028874322887E+00   -2.9509536828030480E+00
Br   -3.5820267553766576E+00    9.0097316672824448E+00   -6.2359816088281486E+00
Br   -3.4021048690054849E+00    1.1818363394714492E+01   -2.9257629478425282E+00
Br   -6.0361654607690287E+00    2.9637600941724394E+00   -3.3659853139069709E+00
Br   -1.1407079684827544E+01   -1.0590263323510033E+01    3.4953266582354563E+00
Br   -3.1293396243397544E+00    2.5913811862625686E+00   -6.0572949590017515E+00
Br   -5.7470533007062539E+00   -3.9875448029202842E+00   -8.0519545243910411E+00
Br   -3.0499365899880626E+00   -4.5332116736199568E+00   -1.1447538346038955E+01
Br   -3.1981058015466473E+00   -6.4539536195621205E-01   -8.5792198669528563E+00
Br   -2.9424060077562793E+00    2.9880917355917522E+00    1.1874510203268839E+01
Br   -5.9552873991945825E+00   -8.8719943123055032E+00    8.8008336471602373E+00
Br   -3.0229218326681937E+00   -8.3562497550748986E+00    6.6154428463563857E+00
Br   -2.6264918043349161E+00   -5.5351073799606620E+00    9.5471876267388875E+00
Br   -8.6662827795170703E+00   -1.0247971710625929E+01    8.0982052168696406E-01
Br   -8.9564270928073668E+00   -6.6238924295840036E+00    3.5202781929075617E+00
Br   -9.5623198073041067E+00    9.0160187865772272E+00    1.1429315105768131E+01
Br    1.1573720399167142E+01    1.0414633978689791E+01    1.8196561653308525E+00
Br   -7.9262382423139366E+00   -9.3325116880479602E+00    1.2699033271649657E+01
Br    1.1599899051534948E+01    9.1986054354389175E+00   -3.8078559393219495E+00
Br    1.1948952240046731E+01    4.4366975870439367E+00    1.9620394737604463E+00
Br   -8.2172002851263883E+00    3.4088522227349287E+00    1.1894712001395479E+01
Br   -1.1669415485776755E+01   -3.6119652375630138E+00   -9.5548351872295019E+00
Br    1.2848479032383816E+01   -2.6062386726879101E+00    7.6604090817189521E+00
Br   -5.7426337894107666E+00   -9.2132159649461780E+00    3.3452471771340333E+00
Br    5.9553440691206614E+00   -3.0818773421980166E+00   -8.5520047856407917E+00
Br    8.6387669032522396E+00   -3.1449291705512441E+00   -1.1948406736263756E+01
Br    1.2545254361732081E+01   -8.0049363366638246E+00    8.6241237981664920E+00
Br    8.8040094124984662E+00   -8.8074246892460628E-02   -9.3048022232461243E+00
Br   -8.6231282404231671E+00   -1.1596476157140858E+01    9.7322731933160878E+00
Br   -2.8647327100562028E+00   -8.7541797695924028E+00    3.9322111703571860E-01
Br   -2.9399996996613678E+00   -5.9229182543490406E+00    3.5959330745688018E+00
Br    6.4640668121838711E+00   -8.8488860058922700E+00   -8.2937072502228819E+00
Br   -5.8379532476658236E+00   -9.3409330479452226E+00   -8.2992705252722523E+00
Br    8.6704396312243155E+00   -9.1287706246774665E+00   -1.2249476112732912E+01
Br    9.1821311681287767E+00   -6.1628176575004705E+00   -9.0382159219004254E+00
Br   -2.1971582267965433E+00   -1.1320643859099935E+01    8.7931307156955967E+00