 # Version information for this restart file 
 # current date 2021-06-17 12:35:18.095
 # current working dir /user/ub2042/exercises/2_fitting/MM_MD_workdir/md_settings.002
 # Program compiled at                              Thu Apr 22 21:44:59 EDT 2021
 # Program compiled on                cpn-k07-07-02.compute.cbls.ccr.buffalo.edu
 # Program compiled for                                                    local
 # Source code revision number                                       git:36754bb
 &GLOBAL
   PRINT_LEVEL  LOW
   PROJECT_NAME cp2k
   RUN_TYPE  MD
 &END GLOBAL
 &MOTION
   &MD
     ENSEMBLE  NVT
     STEPS  10000
     TIMESTEP     2.4999999999999996E+00
     STEP_START_VAL  500
     TIME_START_VAL     1.2500000000000068E+03
     ECONS_START_VAL    -1.3948793637821183E+01
     TEMPERATURE     3.0000000000000000E+02
     &BAROSTAT
       PRESSURE     1.0100000000000000E+00
       TIMECON     9.9999999999999982E+03
     &END BAROSTAT
     &THERMOSTAT
       TYPE  CSVR
       &CSVR
         TIMECON     9.9999999999999982E+03
         &THERMOSTAT_ENERGY
              -1.6806977991866645E-02
         &END THERMOSTAT_ENERGY
         &RNG_INIT
Wiener process for Thermostat # 1        1 F T F  -1.6641838422452651E-01        2082254386.0        4002166886.0         820843889.0        3085297725.0        3956791434.0        2489169757.0             12345.0             12345.0             12345.0             12345.0             12345.0             12345.0             12345.0             12345.0             12345.0             12345.0             12345.0             12345.0
         &END RNG_INIT
       &END CSVR
     &END THERMOSTAT
     &AVERAGES  T
       &RESTART_AVERAGES
         ITIMES_START  1
         AVECPU     1.7410028135869685E-02
         AVEHUGONIOT     0.0000000000000000E+00
         AVETEMP_BARO     0.0000000000000000E+00
         AVEPOT    -1.4349875230263036E+01
         AVEKIN     4.0987057056263920E-01
         AVETEMP     2.0791443390392934E+02
         AVEKIN_QM     0.0000000000000000E+00
         AVETEMP_QM     0.0000000000000000E+00
         AVEVOL     6.7483345830899505E+06
         AVECELL_A     1.8897261328856513E+02
         AVECELL_B     1.8897261328856513E+02
         AVECELL_C     1.8897261328856513E+02
         AVEALPHA     9.0000000000000000E+01
         AVEBETA     9.0000000000000000E+01
         AVEGAMMA     9.0000000000000000E+01
         AVE_ECONS    -2.0429973148913554E+00
         AVE_PRESS     0.0000000000000000E+00
         AVE_PXX     0.0000000000000000E+00
       &END RESTART_AVERAGES
     &END AVERAGES
     &PRINT
       &ENERGY  SILENT
         &EACH
           MD  10
         &END EACH
       &END ENERGY
     &END PRINT
   &END MD
   &PRINT
     &TRAJECTORY  SILENT
       &EACH
         MD  10
       &END EACH
     &END TRAJECTORY
     &CELL  SILENT
       &EACH
         MD  10
       &END EACH
     &END CELL
     &VELOCITIES  SILENT
       &EACH
         MD  10
       &END EACH
     &END VELOCITIES
     &FORCES  SILENT
       &EACH
         MD  10
       &END EACH
     &END FORCES
     &RESTART  SILENT
       &EACH
         MD  10
       &END EACH
     &END RESTART
   &END PRINT
 &END MOTION
 &FORCE_EVAL
   METHOD  FIST
   &MM
     &FORCEFIELD
       VDW_SCALE14     1.0000000000000000E+00
       EI_SCALE14     1.0000000000000000E+00
       SHIFT_CUTOFF  T
       DO_NONBONDED  T
       IGNORE_MISSING_CRITICAL_PARAMS  T
       &SPLINE
         R0_NB     2.5000000000000000E-01
       &END SPLINE
       &NONBONDED
         &LENNARD-JONES
           ATOMS Br Br
           EPSILON     1.2630795322675199E+02
           SIGMA     3.6900000000000004E+00
         &END LENNARD-JONES
         &LENNARD-JONES
           ATOMS Cs Pb
           EPSILON     8.6920055954630968E+01
           SIGMA     3.9452500000000001E+00
         &END LENNARD-JONES
         &LENNARD-JONES
           ATOMS Cs Cs
           EPSILON     2.2644852172126850E+01
           SIGMA     4.5300000000000002E+00
         &END LENNARD-JONES
         &LENNARD-JONES
           ATOMS Pb Pb
           EPSILON     3.3363415533600227E+02
           SIGMA     6.1000000000000005E+00
         &END LENNARD-JONES
         &LENNARD-JONES
           ATOMS Br Cs
           EPSILON     5.3481070753900497E+01
           SIGMA     3.6300000000000003E+00
         &END LENNARD-JONES
         &LENNARD-JONES
           ATOMS Br Pb
           EPSILON     2.0528187276773045E+02
           SIGMA     2.9800000000000000E+00
         &END LENNARD-JONES
       &END NONBONDED
       &CHARGE
         ATOM Cs
         CHARGE     4.1739999999999999E-01
       &END CHARGE
       &CHARGE
         ATOM Pb
         CHARGE     8.3479999999999999E-01
       &END CHARGE
       &CHARGE
         ATOM Br
         CHARGE    -4.1739999999999999E-01
       &END CHARGE
     &END FORCEFIELD
     &POISSON
       PERIODIC  XYZ
       &EWALD
         EWALD_TYPE  SPME
         GMAX  62 62 62
         O_SPLINE  4
       &END EWALD
     &END POISSON
     &PRINT
       &FF_INFO  LOW
         SPLINE_INFO  F
         SPLINE_DATA  F
       &END FF_INFO
     &END PRINT
   &END MM
   &SUBSYS
     &CELL
       A     1.0000000000000001E+02    0.0000000000000000E+00    0.0000000000000000E+00
       B     0.0000000000000000E+00    1.0000000000000001E+02    0.0000000000000000E+00
       C     0.0000000000000000E+00    0.0000000000000000E+00    1.0000000000000001E+02
       PERIODIC  XYZ
       MULTIPLE_UNIT_CELL  1 1 1
     &END CELL
     &COORD
Cs    1.8039641040315535E-01   -4.1534882844494392E-01   -5.8251048993973287E+00
Cs   -2.9524922527285241E-01   -6.9140145636322599E+00   -6.2587678722571765E+00
Cs   -6.7026157346000237E-01   -1.2188912623227667E+01   -5.4846374955370791E+00
Cs   -5.6715616800126076E+00   -6.5144388237263371E+00   -6.2513811951941856E+00
Br   -9.0738227835722185E+00   -1.2408357595282546E+01   -8.4932383686028281E+00
Br    1.1918489801603609E+01   -3.3852280533784436E+00   -8.2578306925746272E+00
Br   -2.0892497015436939E+00    3.0221267213569800E+00   -1.1420535322172100E+01
Cs    1.3797157763710458E-01    5.7425969224806188E+00   -6.2091433418844382E+00
Cs    2.0804183218963546E-01   -4.3703213183149908E-01    8.3922302079722372E-02
Cs    3.9744007166667433E-01   -6.5012565703880432E+00   -2.2702662020167405E-01
Br   -5.9600436399671324E+00   -2.9228999870672050E+00    3.5224973824493309E+00
Cs   -1.0447814294861269E+01   -6.2637086368441048E+00    1.2214097789678609E+01
Cs    1.1328106676640981E+01   -1.1511810020664493E+01   -1.7158709954358703E-01
Cs   -5.5842279979808449E+00    5.9461634676135233E+00    5.5688508564784001E-01
Cs   -3.6572899131996728E-01    1.1402077010080941E+01    4.8505649479525736E-01
Cs   -1.3643959221414520E-01    5.9591848652109345E+00    3.8917021562949827E-01
Cs    3.0479639588631424E-01    6.9682703210301034E-01    6.1247093276808808E+00
Cs    5.4517242126964904E-01   -5.3760447220923497E+00    6.5009162049846028E+00
Cs    6.3634385624549583E-01   -1.0547043590248199E+01    5.8505340401023886E+00
Cs   -8.1793273281443621E+00    6.2586731711433243E+00    1.2396083052319247E+01
Cs   -5.8826532234325883E+00   -2.2565238084401937E-01   -1.1934680351728186E+01
Cs   -5.4087926891711611E+00   -1.1707295312361710E+01   -6.5857370374920645E+00
Cs   -6.2681751058663515E+00   -3.8982819242891528E-02    5.6854566191278098E+00
Br   -3.6357898122170438E+00   -2.7994403095884870E+00    4.3913338741834890E-01
Cs    3.3463280254688157E-02    5.7788571935886619E+00    6.5289838529611366E+00
Br    1.2220300964972436E+01   -8.9117326936551571E+00   -8.8132012268821747E+00
Cs    9.0873751258409530E-01   -5.8666286649920734E+00    1.1493268656782174E+01
Br   -2.7111923644889386E+00    5.9441470004930512E-03    2.5863919161416367E+00
Br   -8.6039479106296124E+00   -3.1100171630818618E+00    1.2085434072785628E+01
Cs    1.1187723489544586E+01    1.1457788016904599E+01   -6.1687430894792064E+00
Cs   -1.1386697806095734E+01   -5.7206730539162427E+00    6.0633607429817120E+00
Cs   -5.4964585425744348E+00   -5.5058467082947598E+00    6.0249031231980537E+00
Cs   -6.8650605546985819E+00    1.1361036024765149E+01   -6.4754903116787279E+00
Br   -1.1750005218740569E+01   -8.2553542560652442E+00    9.0329290314368436E+00
Br   -9.2773063404661027E+00   -9.3630721203890310E+00    5.9187122970176906E+00
Cs   -1.1148049877033834E+01   -6.5956974713346437E+00   -5.9970142662228900E+00
Cs   -5.5175613979435649E+00    6.4809385857931501E+00   -5.3950104016622706E+00
Br   -8.7745552943818037E+00   -5.8001885185027646E+00    9.3064443043715066E+00
Cs    1.2158418106138413E+01    6.5020721932622845E+00    1.0495906236096946E+01
Br   -1.2043604067154114E+01    8.5384448316367898E+00    8.5167383454990730E+00
Br   -5.9806181361212047E+00   -3.0643226596647719E+00   -2.7627551837181699E+00
Cs   -5.1643670986835200E-02    7.7494216987053954E-01    1.1804344281592670E+01
Cs    1.1572189234292978E+01    5.7913035025746451E+00   -3.2031411706703644E-01
Cs   -1.1159720858784988E+01   -5.3838244455076243E+00   -1.1426547959740061E+01
Cs    1.1964639018408201E+01    8.0711610180831797E-02    5.8966903750458615E+00
Cs   -1.1643776342984747E+01    1.1337001890197378E+01   -6.2020542860613181E+00
Cs    1.2045269204914547E+01   -1.2144218080815385E+01    5.3718209556239191E+00
Cs    5.9799141689466646E+00   -6.2871717856373248E+00   -1.1534071560053716E+01
Cs    5.7032351290536374E+00   -1.1325351594486866E+01    6.1230295214307819E+00
Cs   -5.8548807117581498E+00   -1.1756807597949448E+01    7.6686317134395510E-01
Cs    7.0308711982474410E+00   -1.2281783754662516E+01   -1.1204054903665188E+01
Cs    1.1448166904589439E+01    6.1565517564949115E+00   -6.1930861305619862E+00
Cs    1.1523146433567591E+01    1.2019712687617290E+01    5.9314250490804188E+00
Cs    1.0070590098614582E+01    5.9163544104478456E+00   -1.2296566921626891E+01
Cs    6.8623167812563624E-01   -6.2746525865515590E+00   -1.1768374946955309E+01
Cs   -1.1346710070076965E+01   -3.5542600013969772E-01   -5.7432586116629114E+00
Cs    6.3887205051828850E+00   -4.9222129306588327E+00    1.2402765536401763E+01
Cs    1.2372325767011501E+01   -5.5085655148767039E+00    6.9371377851025562E+00
Cs   -1.1173597393136866E+01   -1.1846308066062999E+01    1.2072588097489023E+01
Cs    1.2601925042242557E-01   -3.9519652193564903E-01   -1.1635323886877810E+01
Cs    3.2916871778529067E-01    1.1183590599723924E+01    6.2603453303698187E+00
Cs   -2.0444234823255919E-01    5.5553405619476379E+00   -1.1160930288313955E+01
Cs    5.6342408507720734E+00   -3.3653159018077505E-01   -5.3434846795024171E+00
Cs    5.8053947812892464E+00   -5.7173725639224013E+00   -6.1847658506570742E+00
Cs   -5.2174273325331857E+00   -1.1710710329828093E+01    5.8396825638062522E+00
Cs   -1.1915779668070821E+01    6.4911315525676949E-01    5.7265912694678160E+00
Cs    5.7792129221592043E+00   -5.3361798528357485E-01   -1.1883415945137120E+01
Cs    7.1851760602390868E+00    1.2509521649342210E+01   -1.1546156998000621E+01
Cs    3.9071180859113132E-02    6.0440142020585670E+00    1.2067066447983258E+01
Cs   -5.3757777025414351E+00    1.2096614201468876E+01    6.7051432057348066E+00
Cs    4.9056883120791008E+00    1.1231459379821317E+01   -6.5393718683050848E+00
Cs    5.6583491236787040E+00    5.7207331105358357E+00   -5.4284015294702197E+00
Cs    5.4507211607394384E+00    3.0570324160744067E-01    7.9518771341611338E-01
Cs    6.0357689890890249E+00   -7.0276214909552772E+00   -6.9079373775895769E-01
Cs    5.6467243685105570E+00   -1.1503810623082805E+01    6.8362079082618366E-01
Cs    5.3893978221178118E+00    6.4539799610297077E+00   -1.1314259547708701E+01
Cs   -6.0999874377972798E+00    6.6979382636852591E+00    5.7917510053622543E+00
Cs   -6.5411040830973599E+00   -6.1634913531269078E+00   -1.0977302221891900E+01
Cs    6.1023291065700240E+00    5.8568868189831038E+00    5.1564781270714977E-01
Cs    6.0683396381169175E+00   -1.9809379494704638E-01    6.1086001290249765E+00
Cs    7.0355585048672697E+00   -5.4536462456105301E+00    5.4125258345768170E+00
Cs   -5.7471970636455074E+00    1.1781840855552899E+01    1.6602129208942865E-01
Cs    1.1846935597263162E+01    2.4147823294522483E-01   -4.5378174403666166E-01
Cs   -4.9822663101797637E+00    2.7295620978970664E-01   -4.2861039616427543E-01
Cs   -1.0654265818932926E+01    6.0011273964728744E+00    5.8212184595560368E+00
Cs   -5.2972750164748534E+00    7.8118253748856481E-01    1.1422394035357151E+01
Cs    6.6094929002921639E+00    1.1030854283677412E+01    5.6830549334922260E+00
Cs    5.9191687668129278E+00    6.1886819075640966E+00    5.9519632692464457E+00
Cs    6.3696851009148157E+00    5.4985646587689574E-01    1.1682533991558323E+01
Cs    5.7694110668259322E+00    1.1079805065351396E+01   -2.1760478931601546E-01
Cs    1.1468895118612194E+01   -4.4074181348780511E-01   -5.4079177173873845E+00
Cs    1.1344392730793460E+01   -5.7774307145641615E+00   -5.9115661088756655E+00
Cs    6.3310455999067488E+00   -1.1036287346137758E+01    1.1336964936431237E+01
Cs    1.1195382413359956E+01    1.1567491014245370E+01   -3.7407324100948508E-01
Cs   -1.1038835434678342E+01    7.2308471677576835E-01    1.1395931591118346E+01
Cs   -6.0807441922782237E+00    5.8452249245728600E+00   -1.0673204395862198E+01
Cs   -1.2150100004022647E+01    1.1018788051631329E+01   -9.9214619598460702E-03
Cs   -4.8187924101126454E+00   -5.3806631551594526E+00    1.1914113341350852E+01
Cs   -5.1220654880588503E+00   -1.1082728812434251E+01    1.1552554540805517E+01
Cs    6.8939907880335003E+00    6.5410238257515960E+00    1.0792750860364441E+01
Cs    1.1701493613125184E+01   -5.9822664147812077E+00    1.9119773115659536E-01
Cs   -1.1491823297504586E+01   -6.2431126851231677E-01   -8.5227736821215053E-02
Cs   -6.5072891891797653E+00    1.1497869783019715E+01   -1.1372929980723164E+01
Cs   -1.1151555278067343E+01    5.6399434750434656E+00   -4.8246765511575140E-01
Cs   -1.1636139719856441E+01   -1.2252492660879172E+01   -6.4809146157146884E+00
Cs   -1.1340972345739925E+01   -6.4367106370973524E+00   -5.7938671729158182E-02
Cs   -5.9016113591778003E+00   -5.0675452031543209E+00    2.8257814824548283E-01
Cs   -1.3032846473085225E+01   -9.7270789133312263E+00    5.3903627455650067E+00
Cs    1.0933509862312880E+01   -6.2400225814997405E+00    1.1866254977546939E+01
Cs    1.1803759215494406E+01    6.1281218717680561E+00    5.1020829639522312E+00
Cs   -1.1489650184444075E+01    4.7737089611576984E+00   -6.4853287754661428E+00
Cs   -6.1457704071541075E+00   -1.1490047371153131E+00   -5.6690344468824501E+00
Cs   -1.2262099557193810E+01   -1.0753065803061720E+01   -6.1025950869629886E-01
Cs    1.2754515655032582E+01   -1.1898003964896160E+01   -1.0131796594983923E+01
Cs   -1.2765937410236598E+01   -9.9942132633810594E+00   -1.2515215603474937E+01
Cs   -2.3168724292853757E-01    1.0987920697978502E+01   -1.0976175193754470E+01
Cs    4.3408434328943341E-01   -1.0977873276126278E+01   -1.2286110576176112E+01
Cs    3.2250618834215794E-01    1.1096371326551930E+01   -5.8350867355878382E+00
Cs   -1.2101850439276701E+01    1.0886541511446332E+01    1.0926460200206908E+01
Cs   -1.4386667027334088E-01   -1.1204087505796107E+01    3.0807897466480338E-01
Cs   -1.1384786791828159E+01   -2.9301687771929780E-01   -1.1675967267670565E+01
Cs   -1.1807965699701164E+01    1.0639954687817248E+01    5.7343309437209058E+00
Cs    6.5290543615409291E+00   -1.1583965690051821E+01   -5.6668581962465616E+00
Cs    1.0631849296146914E+01    2.8970335767343319E-01   -1.1927290829518702E+01
Cs   -4.8239079683116382E-01    1.1167556409652923E+01    1.1646709907022455E+01
Pb    2.8742399696620367E+00   -3.1400484883554056E+00   -2.4790328420729386E+00
Pb    2.9197491604647867E+00   -9.7856224927728057E+00   -3.5132400712811074E+00
Pb   -9.1247170620267291E+00   -3.1179983944104257E+00    3.3463256840135309E+00
Pb   -3.1647456411823813E+00   -9.3760169341725206E+00   -3.2936805897798056E+00
Pb    2.8458309678522817E+00    8.9627446801672868E+00   -2.7153422700950558E+00
Pb    2.9981434498476633E+00    2.8423590267677001E+00   -2.9830740391839821E+00
Pb    3.1202553489585987E+00   -2.7406035638214425E+00    3.4415758315901539E+00
Pb    3.1307801024172908E+00   -8.5651334133135464E+00    2.8978205786980933E+00
Pb   -3.1096456382371347E+00    9.3130888540949712E+00    3.2042477274878740E+00
Pb    2.9909933563697115E+00    9.3412616252863998E+00    3.2887798561536714E+00
Pb    3.3591422255082142E+00    3.1872644478367080E+00    3.1656249466236428E+00
Pb    3.4644344663012516E+00   -2.7696287725738844E+00    9.4762711631597458E+00
Pb    3.3555303511108336E+00   -8.7146174772271081E+00    8.9985065145850882E+00
Pb   -2.9440680099349570E+00    3.0685453885445160E+00    3.1464048398364439E+00
Pb    3.2322321469518784E+00    9.4475013310214173E+00    9.4159295390500866E+00
Pb    3.2774600561727616E+00    3.2934337001748939E+00    9.3996610729160608E+00
Pb   -2.5902647404181076E+00   -3.0057067031817177E+00    9.1608730335106578E+00
Pb   -8.8060527777547346E+00   -9.3137581245774062E+00    3.0467869964271230E+00
Pb   -9.1078575077981103E+00    2.9369158593397762E+00   -3.4524882649491340E+00
Pb   -3.0664946638317478E+00   -3.1097133533393380E+00   -9.2503170404939823E+00
Pb   -2.8078853041312142E+00   -9.0103957601128339E+00    2.8659930537203162E+00
Pb   -2.9674809833850126E+00    9.3016276255099264E+00   -2.9646971492916254E+00
Pb   -2.8745309603473661E+00   -8.9143126513489275E+00    8.9092431696224921E+00
Pb   -9.0005490495838725E+00   -3.2617284485839679E+00   -2.8418373680287243E+00
Pb   -9.4245844242576311E+00   -9.5041693086693186E+00   -3.3819411285573446E+00
Pb   -2.7509733890263157E+00    3.2170485985339812E+00   -2.9106361648744765E+00
Pb   -8.9694793519849583E+00   -8.8087593920929308E+00    8.9751091349160781E+00
Pb   -8.8201085665526460E+00   -3.5839447590164499E+00   -8.6450552476805100E+00
Pb    8.9793524787281349E+00   -3.0325141472367712E+00   -8.9687022168750072E+00
Pb    9.4053113110869155E+00   -8.9714140521542554E+00   -9.1479936462742604E+00
Pb   -3.0835498772406491E+00   -9.4289737389224602E+00   -9.6100612315397722E+00
Pb   -9.4503255942330977E+00    8.3049753741326082E+00   -9.5003442951643642E+00
Pb    3.0010496238974387E+00   -3.2762966331151584E+00   -9.1279254625645176E+00
Pb    3.2533905005468817E+00   -9.4516583018537261E+00   -9.6579220736335856E+00
Pb   -2.7683153122132356E+00    2.7440418921437297E+00   -8.8440826762775533E+00
Pb    2.9586493024795675E+00    8.7700941534685732E+00   -8.8029202876242820E+00
Pb    3.3249390618295500E+00    2.7768114249437219E+00   -8.8668028503405392E+00
Pb    9.0849959284469310E+00   -3.0470313851823216E+00   -2.8581719518699780E+00
Pb    9.1672120933331520E+00   -8.8737625472331043E+00   -3.2416711077404718E+00
Pb   -8.6152802022559900E+00   -2.8356714703607708E+00    9.2671854871163450E+00
Pb    9.0517803693145762E+00    9.4080915389060369E+00   -9.4885791942207653E+00
Pb   -8.7971538794420763E+00    2.3300439402846429E+00   -9.1505824528403075E+00
Pb   -3.0621458751907111E+00    9.2609746861306306E+00    9.0519583250257831E+00
Pb    8.8486287494251457E+00    8.8974434129883910E+00   -3.3690784275022954E+00
Pb    9.0147731261706703E+00    3.0982143181602368E+00   -2.7800878134462228E+00
Pb    9.5015585231970210E+00   -2.7032152029400596E+00    3.0434007650570716E+00
Pb    9.3010615286776481E+00   -9.0185505646562998E+00    3.0317062259537422E+00
Pb    9.2171313080690727E+00    3.0912627780794164E+00   -9.1429348817881824E+00
Pb   -2.8031177898371209E+00    3.3571166538210009E+00    8.7877253065749894E+00
Pb    9.3286754119089927E+00    9.2515805740335608E+00    2.6930420531116801E+00
Pb    9.4855573086454434E+00    3.1398004918838454E+00    3.1645779288132689E+00
Pb    9.2318334517682406E+00   -2.7026998422499657E+00    9.1489742442569639E+00
Pb    9.4232533544662953E+00   -8.8484121668163631E+00    8.8472949536704988E+00
Pb    9.7544829271178344E+00    9.2398328156982110E+00    8.8412280378736128E+00
Pb    9.5246643200738781E+00    3.3293332395367803E+00    8.9207307740553698E+00
Pb   -8.5210680080241588E+00    3.1763026654105793E+00    8.8535204965278158E+00
Pb   -2.7630018088330468E+00   -2.8360312772414109E+00    3.0662034119639965E+00
Pb   -8.8458303861237617E+00    9.0266126067946768E+00    2.6346399831037401E+00
Pb   -9.0586444201285339E+00    9.2255617991015821E+00   -3.3023091587593494E+00
Pb   -9.4046937098072902E+00   -9.8655238351313734E+00   -9.6097471684515234E+00
Pb   -3.1217852445636605E+00    8.7578126705045420E+00   -8.9509751500675101E+00
Pb   -8.9649594472041638E+00    3.0033330129496840E+00    2.7190237137961843E+00
Pb   -9.0258876893461704E+00    9.1394394656995637E+00    8.7203226379578975E+00
Pb   -3.1779280215706205E+00   -3.2959866443373471E+00   -2.9999625839388391E+00
Br   -2.8415492595891872E-01   -3.3584467882921487E+00   -2.1657956694813159E+00
Br    2.6460498815531674E+00   -3.5048027296032807E+00   -5.9013977751611186E+00
Br    2.5027915507838299E+00   -2.1140644821111312E-01   -3.2063475731565760E+00
Br    2.8757876826444227E-04   -9.6412383394710126E+00   -3.5814702900750315E+00
Br    3.2699731587431744E+00   -9.4452712145055564E+00   -6.5088413597408206E+00
Br    2.6810882410452495E+00   -6.0996392313287737E+00   -2.4800378281425779E+00
Br   -3.2378151923044860E+00   -3.2916333772991235E+00   -5.7776463970725107E+00
Br   -8.5235954290497578E+00   -3.1149544405381673E+00    6.2668193589099683E+00
Br   -2.8012495872752319E+00   -4.7604978584192625E-01   -3.1555066214218424E+00
Br    2.9322667233809976E+00   -1.2634805083219250E+01   -3.4136168368015056E+00
Br    1.2345079902175337E+01   -2.5483869647846995E+00    2.9156886192794085E+00
Br   -6.3525964005112323E+00   -9.5335233851326340E+00   -3.7967517672228013E+00
Br   -1.1918511209035042E+01   -3.6583860735770193E+00    3.3779417495347634E+00
Br   -8.7604214929868522E+00   -2.6955174064168155E+00    9.9287240358788151E-02
Br    1.2059101037316690E+01   -9.2982780360974200E+00    2.6891137377246950E+00
Br    5.7137470559170081E-02    9.3250386600957551E+00   -2.9598812827032521E+00
Br    2.7253216446890676E+00    8.6711207270914397E+00   -5.8717059295919070E+00
Br    2.8989727136658026E+00    1.1742510761723322E+01   -2.9564505160204453E+00
Br   -2.7367612800755697E-02    2.6211767744415022E+00   -2.8346610987709306E+00
Br    3.2066625875814245E+00    3.4318427269721234E+00   -5.8973067960234857E+00
Br    3.3333494819749077E+00    5.9955198068261790E+00   -2.8795235728156321E+00
Br    2.5587564271983032E-01   -2.5979966194994435E+00    3.4313337469251133E+00
Br    2.7504103028351956E+00   -2.3059142397162220E+00    5.5876033936465996E-01
Br    3.3002750327659878E+00    2.4347168804410579E-01    3.8564190266246259E+00
Br    1.9145477282236012E-01   -8.5617757870999966E+00    2.3708954231490340E+00
Br    2.8746211903723289E+00   -9.6157953572327823E+00   -3.3744577838092493E-01
Br    3.6239940704417797E+00   -5.8678161520704775E+00    2.4837621045234637E+00
Br   -6.3865523673363045E+00    8.7278492707439312E+00   -8.6901759557116911E+00
Br   -2.9561355491787817E+00    8.4404158758309986E+00   -1.1699216237620448E+01
Br    2.9088622675916200E+00   -1.1340262074489535E+01    3.0455366189290944E+00
Br   -3.6145304513483540E+00    1.1670319339744152E+01   -9.5127373940106033E+00
Br   -2.8846766682011009E+00    5.6902549155634841E+00   -8.7050242532245541E+00
Br   -9.3382986238192629E+00   -2.4174461426920774E-01    3.0547482276801765E+00
Br   -3.2241605052308944E+00   -8.6606837781487620E+00   -6.3832925772476203E+00
Br   -6.0836866972094228E+00    9.3294503571846636E+00    2.5841953850635866E+00
Br   -2.2563176698306107E+00    8.7577853616095886E+00    4.6293003422458323E-01
Br   -3.4403766877773587E+00    1.2140492797447235E+01    2.4744080886422135E+00
Br   -1.3992343977609444E-02    9.4183547101741816E+00    3.5461814041940207E+00
Br    2.8419786508454314E+00    9.5940028943855342E+00    2.0649343006141266E-01
Br    3.0593063315098390E+00    1.2184050483201158E+01    3.8039420500091463E+00
Br    3.0171576363291319E-01    2.8920972943722920E+00    3.4939774456386932E+00
Br    3.3264589635561395E+00    2.9103373014533074E+00    4.8647297651129795E-01
Br    2.7687652419232416E+00    6.0382078512961197E+00    2.7196315070982418E+00
Br    2.4887246906937147E-01   -2.8164321814893514E+00    9.1310147492353249E+00
Br    2.9723811258273591E+00   -3.0489317586042075E+00    6.4577102209195285E+00
Br    3.6386384368727058E+00    3.3830939871213606E-01    9.0742613722721011E+00
Br    1.9698109733344552E-01   -8.5500417486063682E+00    8.8428384568587592E+00
Br    3.0455832195722210E+00   -8.3027389867110166E+00    5.9137630924537508E+00
Br    3.4884139234106355E+00   -5.6534484607735500E+00    9.3287592990119297E+00
Br   -1.1874291293081985E+01    3.9101955399632793E+00    2.6812777443567191E+00
Br   -8.8982127376900824E+00    2.5669009814843013E+00   -1.6887146135683531E-01
Br    3.0007770932489670E+00   -1.1390886320529678E+01    8.4343299686865159E+00
Br   -8.1177722984066367E+00    5.8050017594242016E+00    3.0374377180440200E+00
Br   -8.3250711616217608E+00    3.3995010851682467E-01    8.9624783210581285E+00
Br   -3.6992149424621528E+00   -6.3890562365984040E+00   -3.0254086835917779E+00
Br   -5.9778290969643821E+00    2.6302728234870063E+00    2.4465722471130076E+00
Br   -2.6138941828927869E+00    3.5608318451366343E+00    1.0472867268030603E-01
Br   -3.1143051389942893E+00    6.3498034225338316E+00    3.2495573338059294E+00
Br   -1.9603104384180867E-01    8.5874294755860792E+00    8.7042584599553674E+00
Br    3.2662981174018499E+00    9.4911973895246096E+00    6.3477141812615008E+00
Br    1.8183745555171114E+00    1.1853245166738843E+01    9.2570710041098199E+00
Br    1.9036343661176078E-01    3.6077198525635743E+00    8.9994758487324944E+00
Br    3.2312998451209034E+00    3.1836559079286881E+00    6.2994941174838379E+00
Br    3.1821810122743304E+00    6.4087002755081821E+00    8.7554971396262413E+00
Br   -5.6328415170817978E+00   -2.7927903698481318E+00    9.6479479112701867E+00
Br    3.8105147132433959E+00   -2.5551706724949947E+00    1.2287312271343705E+01
Br   -2.9276583112370913E+00   -3.1541915183177220E+00    6.1159146778198981E+00
Br   -2.6589773492738584E+00    2.6762091263259719E-01    8.9555422929868733E+00
Br   -3.1501943290025873E+00   -1.2153159606565369E+01   -3.4362867497635059E+00
Br    3.4077984487694484E+00   -8.7016149396173077E+00    1.1803986789042158E+01
Br   -1.1773427057807876E+01    2.6184225978636855E+00   -3.2732069932540866E+00
Br   -2.8874334101670511E+00   -1.1931064914184974E+01    2.5917188322473366E+00
Br   -1.1639001014259746E+01   -2.8247021297510977E+00   -2.2983914654668935E+00
Br    2.7496401682305751E+00    8.9696610766795821E+00    1.2181408120019666E+01
Br   -9.0526642774530988E+00   -3.2205257541364496E+00   -5.7931117612054512E+00
Br   -8.9509654124776503E+00   -3.1687246530337443E-01   -3.3645096647642729E+00
Br    2.6212354969250122E+00    2.8088583328304071E+00    1.2076051641272564E+01
Br   -6.0824796121709870E+00    9.1544577131823353E+00   -3.5696716151246792E+00
Br   -2.8892801534656467E+00    9.1331887516783663E+00   -5.9703365552168899E+00
Br   -3.0947707796216535E+00    1.1951799637408836E+01   -1.8838754748839304E+00
Br   -5.7180868421052038E+00    3.6605591936225585E+00   -2.6070846538067607E+00
Br   -1.2783222208726313E+01   -8.9953073402670967E+00    2.2529868929434964E+00
Br   -2.8670870882418806E+00    2.9464576482708114E+00   -5.9508527823161854E+00
Br   -5.8419576651288363E+00   -3.6321906126672259E+00   -9.0425816817937505E+00
Br   -3.4947438543922389E+00   -2.6941342616592672E+00   -1.2047631715382426E+01
Br   -2.7829502947086593E+00   -2.1614229813706412E-01   -9.3630370343992713E+00
Br   -2.6833024368407865E+00    3.0689029483943258E+00    1.1809267212165548E+01
Br   -5.9635968816013003E+00   -9.1782844889569279E+00    8.4936446929931204E+00
Br   -2.7339206104600411E+00   -8.8731104204290769E+00    5.7188921807524196E+00
Br   -2.8041266128555620E+00   -5.9750425654352872E+00    8.3733839334929012E+00
Br   -8.7582403656886463E+00   -9.3604865841109444E+00   -7.4299013453678273E-02
Br   -9.3754170220662516E+00   -6.2456501893545537E+00    2.5562442598135067E+00
Br   -9.2680885522401102E+00    9.3014327579214306E+00    1.1467727339096943E+01
Br    1.2485109947603080E+01    9.1001817640922305E+00    2.1381583934029722E+00
Br   -8.4733796112837183E+00   -9.3502439172286067E+00    1.1939878572048878E+01
Br    1.1554104748758263E+01    8.7066826504691317E+00   -2.4502767070154250E+00
Br    1.2245950846919245E+01    3.1052023883760973E+00    2.7458291042839438E+00
Br   -8.4465444368301892E+00    2.9432332209010390E+00    1.1752389207225312E+01
Br   -1.1804056679540338E+01   -3.3356890061335465E+00   -8.8741832602441253E+00
Br    1.1890620560624596E+01   -2.4408987741637165E+00    8.1942005091262065E+00
Br   -5.9313535141782010E+00   -8.7897446928877478E+00    2.8964228875888427E+00
Br    6.0440328361890119E+00   -3.0144240991072255E+00   -9.2863558771494645E+00
Br    8.2767369872834813E+00   -3.0417755369417505E+00   -1.1886204685176926E+01
Br    1.2299582793661827E+01   -7.9439333848097444E+00    9.2950774192793268E+00
Br    8.4866452590287356E+00   -4.4445531553001467E-02   -9.2696291065691288E+00
Br   -9.7630507751879652E+00   -1.1884224201065253E+01    8.9594207983683027E+00
Br   -3.0411963855201596E+00   -9.2615908983824742E+00   -2.0469514196270922E-01
Br   -2.2932296978784694E+00   -6.0548862035723516E+00    2.5872489225669599E+00
Br    6.2308167298473522E+00   -9.4214700199983668E+00   -9.7225606258708801E+00
Br   -6.1577803276785854E+00   -9.6203568390738194E+00   -9.5619678268090151E+00
Br    9.8962588512857401E+00   -9.4216697515670962E+00   -1.1864068599883195E+01
Br    8.7510838774343842E+00   -6.1533629868155488E+00   -9.2148058320540667E+00
Br   -2.9729105314518134E+00   -1.1743936583745121E+01    8.4922648853168408E+00