 # Version information for this restart file 
 # current date 2021-06-17 12:35:52.935
 # current working dir /user/ub2042/exercises/2_fitting/MM_MD_workdir/md_settings.002
 # Program compiled at                              Thu Apr 22 21:44:59 EDT 2021
 # Program compiled on                cpn-k07-07-02.compute.cbls.ccr.buffalo.edu
 # Program compiled for                                                    local
 # Source code revision number                                       git:36754bb
 &GLOBAL
   PRINT_LEVEL  LOW
   PROJECT_NAME cp2k
   RUN_TYPE  MD
 &END GLOBAL
 &MOTION
   &MD
     ENSEMBLE  NVT
     STEPS  10000
     TIMESTEP     2.4999999999999996E+00
     STEP_START_VAL  2500
     TIME_START_VAL     6.2499999999996226E+03
     ECONS_START_VAL    -1.3948793637821183E+01
     TEMPERATURE     3.0000000000000000E+02
     &BAROSTAT
       PRESSURE     1.0100000000000000E+00
       TIMECON     9.9999999999999982E+03
     &END BAROSTAT
     &THERMOSTAT
       TYPE  CSVR
       &CSVR
         TIMECON     9.9999999999999982E+03
         &THERMOSTAT_ENERGY
              -8.9870279717998158E-02
         &END THERMOSTAT_ENERGY
         &RNG_INIT
Wiener process for Thermostat # 1        1 F T F   4.5885045939525038E-01        3336078289.0         441660928.0        2931313935.0        1048540172.0        1557258966.0        2798850846.0             12345.0             12345.0             12345.0             12345.0             12345.0             12345.0             12345.0             12345.0             12345.0             12345.0             12345.0             12345.0
         &END RNG_INIT
       &END CSVR
     &END THERMOSTAT
     &AVERAGES  T
       &RESTART_AVERAGES
         ITIMES_START  1
         AVECPU     1.7418117563147113E-02
         AVEHUGONIOT     0.0000000000000000E+00
         AVETEMP_BARO     0.0000000000000000E+00
         AVEPOT    -1.4327434599598046E+01
         AVEKIN     4.2338086985529105E-01
         AVETEMP     2.1476778330505496E+02
         AVEKIN_QM     0.0000000000000000E+00
         AVETEMP_QM     0.0000000000000000E+00
         AVEVOL     6.7483345830898639E+06
         AVECELL_A     1.8897261328855873E+02
         AVECELL_B     1.8897261328855873E+02
         AVECELL_C     1.8897261328855873E+02
         AVEALPHA     9.0000000000000000E+01
         AVEBETA     9.0000000000000000E+01
         AVEGAMMA     9.0000000000000000E+01
         AVE_ECONS    -2.7295597733764461E+00
         AVE_PRESS     0.0000000000000000E+00
         AVE_PXX     0.0000000000000000E+00
       &END RESTART_AVERAGES
     &END AVERAGES
     &PRINT
       &ENERGY  SILENT
         &EACH
           MD  10
         &END EACH
       &END ENERGY
     &END PRINT
   &END MD
   &PRINT
     &TRAJECTORY  SILENT
       &EACH
         MD  10
       &END EACH
     &END TRAJECTORY
     &CELL  SILENT
       &EACH
         MD  10
       &END EACH
     &END CELL
     &VELOCITIES  SILENT
       &EACH
         MD  10
       &END EACH
     &END VELOCITIES
     &FORCES  SILENT
       &EACH
         MD  10
       &END EACH
     &END FORCES
     &RESTART  SILENT
       &EACH
         MD  10
       &END EACH
     &END RESTART
   &END PRINT
 &END MOTION
 &FORCE_EVAL
   METHOD  FIST
   &MM
     &FORCEFIELD
       VDW_SCALE14     1.0000000000000000E+00
       EI_SCALE14     1.0000000000000000E+00
       SHIFT_CUTOFF  T
       DO_NONBONDED  T
       IGNORE_MISSING_CRITICAL_PARAMS  T
       &SPLINE
         R0_NB     2.5000000000000000E-01
       &END SPLINE
       &NONBONDED
         &LENNARD-JONES
           ATOMS Br Br
           EPSILON     1.2630795322675199E+02
           SIGMA     3.6900000000000004E+00
         &END LENNARD-JONES
         &LENNARD-JONES
           ATOMS Cs Pb
           EPSILON     8.6920055954630968E+01
           SIGMA     3.9452500000000001E+00
         &END LENNARD-JONES
         &LENNARD-JONES
           ATOMS Cs Cs
           EPSILON     2.2644852172126850E+01
           SIGMA     4.5300000000000002E+00
         &END LENNARD-JONES
         &LENNARD-JONES
           ATOMS Pb Pb
           EPSILON     3.3363415533600227E+02
           SIGMA     6.1000000000000005E+00
         &END LENNARD-JONES
         &LENNARD-JONES
           ATOMS Br Cs
           EPSILON     5.3481070753900497E+01
           SIGMA     3.6300000000000003E+00
         &END LENNARD-JONES
         &LENNARD-JONES
           ATOMS Br Pb
           EPSILON     2.0528187276773045E+02
           SIGMA     2.9800000000000000E+00
         &END LENNARD-JONES
       &END NONBONDED
       &CHARGE
         ATOM Cs
         CHARGE     4.1739999999999999E-01
       &END CHARGE
       &CHARGE
         ATOM Pb
         CHARGE     8.3479999999999999E-01
       &END CHARGE
       &CHARGE
         ATOM Br
         CHARGE    -4.1739999999999999E-01
       &END CHARGE
     &END FORCEFIELD
     &POISSON
       PERIODIC  XYZ
       &EWALD
         EWALD_TYPE  SPME
         GMAX  62 62 62
         O_SPLINE  4
       &END EWALD
     &END POISSON
     &PRINT
       &FF_INFO  LOW
         SPLINE_INFO  F
         SPLINE_DATA  F
       &END FF_INFO
     &END PRINT
   &END MM
   &SUBSYS
     &CELL
       A     1.0000000000000001E+02    0.0000000000000000E+00    0.0000000000000000E+00
       B     0.0000000000000000E+00    1.0000000000000001E+02    0.0000000000000000E+00
       C     0.0000000000000000E+00    0.0000000000000000E+00    1.0000000000000001E+02
       PERIODIC  XYZ
       MULTIPLE_UNIT_CELL  1 1 1
     &END CELL
     &COORD
Cs    4.4557231181250767E-01    2.2868000614966413E-01   -6.2245401666856308E+00
Cs   -6.3046170428728524E-02   -5.9527871024575782E+00   -6.1230898103138243E+00
Cs    7.1045942575707344E-01   -1.1703684390670558E+01   -4.7539992227399148E+00
Cs   -5.9334201144111418E+00   -6.8424531590803497E+00   -5.1925626579685185E+00
Br   -7.5414272496244559E+00   -1.2302381617612046E+01   -7.9692184278014162E+00
Br    1.2015090874760313E+01   -2.9444262768016021E+00   -9.5429089404851961E+00
Br   -3.4221478752090211E+00    2.1312613052534575E+00   -1.1910772105362335E+01
Cs    6.2824177582610385E-01    5.7805939174585115E+00   -5.7127446143927072E+00
Cs    5.7699594993632897E-01    2.2849433316376869E-01   -3.1866393743469579E-01
Cs   -4.3484481817627325E-02   -6.2075146786015472E+00    1.7639361068116188E-01
Br   -5.7154318133180562E+00   -3.9997303926345360E+00    3.2560196301582933E+00
Cs   -9.8023775121115317E+00   -5.8261995936456223E+00    1.3160979388656100E+01
Cs    1.2668569576244430E+01   -1.1829779682135705E+01   -6.9027314464753176E-01
Cs   -6.5755474454446547E+00    5.5244505208233310E+00    4.8802702313487029E-01
Cs    3.9219785551436549E-02    1.2390209342353836E+01    6.1341297263990635E-01
Cs    1.3718622254193905E-01    6.2081683664232648E+00   -9.6886086980355848E-02
Cs   -3.4571676805997353E-01   -8.3159854238545383E-02    5.9682407939772650E+00
Cs    5.4604197648144814E-01   -5.8711427535755911E+00    6.3992163551702959E+00
Cs    6.1772473901071301E-01   -1.1411762308803842E+01    7.9231225554786961E+00
Cs   -5.1885693161169177E+00    6.1772146204176073E+00    1.2672601023632057E+01
Cs   -5.3178988321843619E+00   -1.0672561267313696E+00   -1.1695333852531986E+01
Cs   -4.7983088296828278E+00   -1.2150312239551724E+01   -5.9277199559025737E+00
Cs   -6.4978469918366839E+00   -1.0022083842013642E-01    5.4598087480543818E+00
Br   -2.8828955318983120E+00   -3.0534835864924097E+00    6.4090609343788185E-01
Cs   -6.2246327724015305E-01    5.6023880989910131E+00    5.9432828641260613E+00
Br    1.2400733731919740E+01   -8.7965827744696945E+00   -8.4846627752438621E+00
Cs    2.1839611252738140E+00   -5.3013470389853676E+00    1.2787677622521059E+01
Br   -3.1117929777876654E+00    1.8371974388418585E-01    2.8619556863131961E+00
Br   -8.0396121405924728E+00   -3.2366709165092344E+00    1.2504514337072559E+01
Cs    1.1605301878978004E+01    1.1673485073244043E+01   -6.9880448270402500E+00
Cs   -1.1296934691257352E+01   -5.9786512292291185E+00    6.3601613198377720E+00
Cs   -5.1650202100071452E+00   -6.0861651405243862E+00    6.9417559983287553E+00
Cs   -6.6384729437825172E+00    1.1306660846537262E+01   -6.5396632429865331E+00
Br   -1.1333685682264125E+01   -1.0628267389108199E+01    8.9469082754025138E+00
Br   -8.4251655454291612E+00   -9.7738708284425186E+00    6.3040998696071444E+00
Cs   -1.1403328804088845E+01   -6.2327472263821653E+00   -4.6223611269754423E+00
Cs   -5.4986166792291424E+00    5.5540906369058494E+00   -5.5620942317256761E+00
Br   -9.2471529191685153E+00   -6.3305951840673798E+00    9.5484486806991882E+00
Cs    1.1184240586700083E+01    7.2603658722687436E+00    1.1216116473017960E+01
Br   -1.1667124900801722E+01    9.1086934028988296E+00    8.2993706321066245E+00
Br   -5.7225790036273025E+00   -3.3212249483875147E+00   -3.0586089512533459E+00
Cs    1.0335205619587447E-01    8.3797465194558918E-01    1.1494629536917630E+01
Cs    1.1799920802058084E+01    6.0113630616232241E+00   -1.2434832818106683E-02
Cs   -1.1056882314790709E+01   -6.8098005401397472E+00   -1.1239147525934484E+01
Cs    1.1264281115382866E+01    7.7666332613055522E-01    5.0546399346102397E+00
Cs   -1.2244545215759020E+01    1.0967905934287799E+01   -6.5623286514025274E+00
Cs    1.1657943035433572E+01   -1.0702120312371690E+01    5.9258447656038733E+00
Cs    5.8465168677201005E+00   -6.6980673907669290E+00   -1.1413277735037267E+01
Cs    5.9750233378820328E+00   -1.0978380822135392E+01    6.5943339845909961E+00
Cs   -6.1346721564620843E+00   -1.1704433047597870E+01    4.0497022121624626E-01
Cs    6.3951536768575545E+00   -1.2195946786164001E+01   -1.1091668417766442E+01
Cs    1.0927290255605461E+01    5.5326710644746004E+00   -6.7604810046552419E+00
Cs    1.1325767942441253E+01    1.2049568578245557E+01    4.8990926955976057E+00
Cs    1.0764413074080405E+01    5.5206514128829607E+00   -1.2428514766178637E+01
Cs    1.9033147883781432E-01   -6.2962005603327116E+00   -1.1407919894132970E+01
Cs   -1.2272522831073156E+01   -1.5558185034287628E-01   -6.6278678352841851E+00
Cs    6.8482412343192385E+00   -5.7300810472466992E+00    1.1862505498087298E+01
Cs    1.2174698150953803E+01   -4.4899055151707676E+00    5.6628615111981464E+00
Cs   -9.8979286682612901E+00   -1.2553631995354108E+01    1.2962826163792181E+01
Cs   -3.5765319266983664E-01   -6.6088433133743207E-01   -1.1336246594488838E+01
Cs   -1.5284036170026380E-01    1.1193425890295675E+01    5.4863747125651212E+00
Cs   -4.1468150308560642E-01    5.6539018113268149E+00   -1.1803523682411411E+01
Cs    6.1243597900746574E+00   -9.3767527116722837E-01   -6.3757674512215647E+00
Cs    6.4398512886685415E+00   -6.6018870935460257E+00   -6.1848598517817601E+00
Cs   -5.2797272592007767E+00   -1.1749547062557282E+01    5.9314241553897222E+00
Cs   -1.1786355674686236E+01   -4.7592083812420705E-01    7.1989495081701751E+00
Cs    4.9555361877271835E+00   -9.8301775138513048E-01   -1.2349763984674675E+01
Cs    6.8683264344643442E+00    1.1783668170427086E+01   -1.2646747145380852E+01
Cs    5.5490091691932553E-01    6.2533603908385098E+00    1.1473205713594204E+01
Cs   -5.5405693336184694E+00    1.1707276695984943E+01    5.5113633379909830E+00
Cs    5.6696814535025535E+00    1.0654681177378816E+01   -6.5504021683910372E+00
Cs    5.7855304126317453E+00    5.6302760227909472E+00   -7.4247330742066104E+00
Cs    5.2152189519252818E+00    4.5133083186451667E-01   -6.8205653913251252E-01
Cs    6.3910201177877983E+00   -6.0937817395503320E+00   -8.1268734676128263E-01
Cs    6.7925440425409693E+00   -1.1033041117021952E+01   -2.9554926139598375E-01
Cs    5.8564438533476570E+00    4.9410442987335630E+00   -1.1726316111237555E+01
Cs   -6.5857618446193582E+00    6.7370892644081426E+00    5.7806099529810844E+00
Cs   -6.0167028869114878E+00   -5.7845935199392446E+00   -1.0700207190438428E+01
Cs    5.5198331075570986E+00    6.2603644524197044E+00   -6.0512570277341227E-01
Cs    5.0998058668297430E+00    6.2669464213342474E-01    6.2132460638311340E+00
Cs    6.6204315378722347E+00   -5.2287155716392224E+00    6.0171638521962976E+00
Cs   -5.3951639690378910E+00    1.1094070661210353E+01   -9.6857077672858827E-01
Cs    1.0744018464026690E+01    7.3451374000151970E-01   -1.8276827152311259E-01
Cs   -5.0475013112863190E+00   -3.7026898295971622E-01    1.9804416410272857E-01
Cs   -1.1100119039532563E+01    5.6028436026170256E+00    5.3363246698538269E+00
Cs   -5.4288669926918143E+00    1.1355449612543578E-01    1.1586622422663897E+01
Cs    5.5701613422219154E+00    1.2242769338531668E+01    6.2215048448179937E+00
Cs    5.1606918331876530E+00    5.7606890045550561E+00    5.5136937050854797E+00
Cs    6.0837363793011079E+00    1.0292163081597652E+00    1.1409384971282238E+01
Cs    5.2792001859088682E+00    1.2621901007352330E+01   -5.6213540218994336E-02
Cs    1.1536056005873611E+01   -2.6069199465257788E-02   -6.1985890456109773E+00
Cs    1.1679737237812560E+01   -4.7635999687438488E+00   -6.4408919254992911E+00
Cs    6.7571121484910499E+00   -1.1267516050748949E+01    1.0971741881617644E+01
Cs    1.0450961451226991E+01    1.1601860839478256E+01   -4.1696929404257455E-01
Cs   -1.0086512554973107E+01   -4.2181778395049226E-02    1.2245638685227966E+01
Cs   -6.5218748354058294E+00    6.1323349655587185E+00   -1.1512394691465735E+01
Cs   -1.1329040181630539E+01    1.1691638949972422E+01   -5.7041458726588745E-01
Cs   -4.9765620503457297E+00   -4.3077753090248159E+00    1.2708710117869847E+01
Cs   -5.9073913382081047E+00   -9.7643327257144019E+00    1.4247226352714135E+01
Cs    6.4550227517156245E+00    6.7699038534651930E+00    1.1179105857302934E+01
Cs    1.1320212733984130E+01   -5.3354508691158165E+00   -9.0870145370784070E-02
Cs   -1.1276538253066724E+01   -2.4822144002155036E-01    1.2719666432684405E-02
Cs   -6.5519370865906348E+00    1.2412928025517818E+01   -1.1153125758709400E+01
Cs   -1.1065340345455317E+01    5.3975321519000579E+00   -8.5070298089356644E-01
Cs   -1.1185120049685013E+01   -1.2019686152873932E+01   -5.7658738908566427E+00
Cs   -1.0333479740621502E+01   -6.2283691024773811E+00    6.2624199053254537E-01
Cs   -5.8013496435986456E+00   -6.1265642957289597E+00   -2.0673983973028529E-01
Cs   -1.1192059055936530E+01   -1.2064387232857506E+01    5.5425890493644925E+00
Cs    1.1459686114058639E+01   -5.2834589246799126E+00    1.1861682240273597E+01
Cs    1.1243175765569170E+01    6.7306468913612125E+00    6.2078789463416593E+00
Cs   -1.1915412593246575E+01    5.5649446500609576E+00   -7.3392345652219815E+00
Cs   -6.0206539854243486E+00   -7.2993770561327928E-02   -5.9998535273107754E+00
Cs   -1.2180210271380474E+01   -1.0945672070270044E+01    8.2576868852649155E-01
Cs    1.2215451212559163E+01   -9.7971739548733829E+00   -1.1536565183124099E+01
Cs   -6.7767357855039698E+00   -1.1814720239625643E+01   -1.1271733154562282E+01
Cs    1.0982574688352216E-01    1.0843481503863389E+01   -1.2000467150026155E+01
Cs    1.1905651422580396E-01   -1.2032236610339439E+01   -1.0507253115060422E+01
Cs   -2.9914970717642086E-01    1.0794821618036083E+01   -5.8734931441925511E+00
Cs   -1.1637615796947422E+01    8.7538071943778633E+00    1.3139537961129145E+01
Cs    5.7993754268866315E-01   -1.0956042461834450E+01    9.5482919995551041E-01
Cs   -1.1030316122569905E+01   -3.1916041648329690E-01   -1.1862467132657720E+01
Cs   -1.1618457118952522E+01    1.1547016977019187E+01    5.7226244312959187E+00
Cs    7.3154077811123406E+00   -1.1994261844439695E+01   -5.0350565572262642E+00
Cs    1.1869682356671005E+01    4.0483354192760973E-02   -1.1703335215669100E+01
Cs   -2.1907953749221615E-01    1.1554724826942786E+01    1.0602191677626278E+01
Pb    3.1804965762183399E+00   -3.1823921240412560E+00   -2.9294279454697381E+00
Pb    3.5145960224377655E+00   -9.0626321169704802E+00   -2.9362722663106120E+00
Pb   -8.8255969467467690E+00   -3.2214358744315130E+00    3.6514205154867403E+00
Pb   -2.6721285872395217E+00   -8.9809430169950701E+00   -2.7939849738624529E+00
Pb    2.6793876489233526E+00    9.3295038045498107E+00   -3.2503789817094191E+00
Pb    3.0851520268610555E+00    3.2572501980322923E+00   -3.3728325586721262E+00
Pb    2.9619504996191535E+00   -2.8606450328070085E+00    3.0853294601888708E+00
Pb    3.4507895997350726E+00   -8.9654317024059296E+00    3.0747557265666314E+00
Pb   -3.2317912036748484E+00    9.0227062347680800E+00    2.4470686339215777E+00
Pb    2.7989005480653644E+00    9.2381750972422143E+00    2.7547727868402521E+00
Pb    2.6531198895050743E+00    3.2748486517533322E+00    2.8531122563151023E+00
Pb    3.3474423830879534E+00   -2.4973156353411312E+00    9.1922144403518775E+00
Pb    3.4235781478987346E+00   -8.4686176046117954E+00    9.2926228896109304E+00
Pb   -3.1862712427171274E+00    3.0916684852205814E+00    2.8753912302218994E+00
Pb    2.7579485837252222E+00    9.4585480882365385E+00    8.7511984155274014E+00
Pb    2.9179823288024700E+00    3.4086258766334638E+00    8.8211497987327192E+00
Pb   -2.6895114706522230E+00   -2.8672796400537850E+00    9.4811403444082742E+00
Pb   -8.6371071445852525E+00   -9.3163774731237972E+00    3.5964225653357782E+00
Pb   -8.9951580407399767E+00    2.5680030079304643E+00   -3.1506903934939490E+00
Pb   -3.0193063021004050E+00   -3.2208176148612804E+00   -8.2880030627939210E+00
Pb   -2.7103679134964977E+00   -8.8498196368113842E+00    3.5048791667841077E+00
Pb   -3.1296054259422026E+00    8.7061960826061409E+00   -3.4868496555946971E+00
Pb   -2.6530257948079328E+00   -8.7099919135051866E+00    9.9887712381452669E+00
Pb   -8.7308869922388261E+00   -3.2858104264404000E+00   -2.6774506978811603E+00
Pb   -8.6436722278816962E+00   -9.4489990382893918E+00   -2.3495557953433788E+00
Pb   -2.7714393475142982E+00    2.7990692822045680E+00   -3.1397881782250736E+00
Pb   -8.7553534755394473E+00   -9.4504310989198288E+00    9.6965423240244650E+00
Pb   -9.2679886507301710E+00   -3.2730969713990183E+00   -8.5309761891979328E+00
Pb    9.0812227878396907E+00   -3.4812484009939308E+00   -9.3934601544592589E+00
Pb    9.1721012947641309E+00   -9.1235833426933617E+00   -8.8336918098879593E+00
Pb   -2.5817880046799186E+00   -9.4237055101021703E+00   -8.8635790318878254E+00
Pb   -9.5193320342834546E+00    8.6584701363526211E+00   -9.9233569561193598E+00
Pb    2.7958697388648965E+00   -3.4874650970786485E+00   -9.0495623677553709E+00
Pb    3.3426003493367222E+00   -9.5802513741361803E+00   -9.0178349588969393E+00
Pb   -3.3415145946184253E+00    2.5174263152673064E+00   -9.0837521587260710E+00
Pb    2.6957225524827484E+00    8.5487174338767549E+00   -9.4983248369590516E+00
Pb    2.5716329858928915E+00    2.3933019083577816E+00   -9.3914238607792591E+00
Pb    9.0563483590548408E+00   -2.8166478468156022E+00   -3.3664122452296601E+00
Pb    1.0036116966905267E+01   -8.7262028200531105E+00   -2.7570678936809085E+00
Pb   -8.6219959041239971E+00   -3.4031893139146927E+00    9.5428627088785873E+00
Pb    8.7526603951542921E+00    9.0118201599446035E+00   -9.6559308694018533E+00
Pb   -9.2064727536228386E+00    2.6599754713322330E+00   -9.3214260436283389E+00
Pb   -3.1278151898955029E+00    8.5689085729350474E+00    8.5324436830431303E+00
Pb    9.0518022218779635E+00    8.9940788868212760E+00   -3.7425908612970082E+00
Pb    8.8783248473706582E+00    3.0254285614505401E+00   -3.4708442562345603E+00
Pb    8.8727666430245726E+00   -2.4091328717789704E+00    2.6420297716970178E+00
Pb    9.3546672533264772E+00   -8.6023127617693778E+00    2.9641045863395523E+00
Pb    8.8077960138374429E+00    2.5596908383077235E+00   -9.3397444101323899E+00
Pb   -3.2167813322392154E+00    2.9280208688133356E+00    8.8425723545246147E+00
Pb    8.5402170616432880E+00    9.6254914921533334E+00    2.4136686274058636E+00
Pb    8.5217350439767792E+00    3.5923833083693224E+00    2.7217016827890923E+00
Pb    9.5367051902611255E+00   -2.3410901437119973E+00    8.6096364248025399E+00
Pb    9.4106342449591178E+00   -8.5574966439776183E+00    8.9266140260529045E+00
Pb    8.7895795525203848E+00    1.0426774286451019E+01    8.7716448759314183E+00
Pb    9.0817431058027793E+00    3.9615895412361830E+00    8.7995229346708346E+00
Pb   -9.0846947345836195E+00    2.7352086087304923E+00    9.1220278307207696E+00
Pb   -2.9929628607620655E+00   -2.8976528359353573E+00    3.5757577255794111E+00
Pb   -9.5251403770201897E+00    8.9875608335643751E+00    2.5159259736267883E+00
Pb   -9.1028501716692833E+00    8.5346668276375368E+00   -3.6339988529383951E+00
Pb   -8.6093906659808539E+00   -9.3968197713965118E+00   -8.3144792176092235E+00
Pb   -3.5382795401336304E+00    8.5525077539164496E+00   -9.3677648468406058E+00
Pb   -9.0868765981559054E+00    2.8416710542195718E+00    3.1227951435256887E+00
Pb   -8.9271125859312317E+00    8.9846639564073989E+00    8.5158245171286726E+00
Pb   -2.7702195527658948E+00   -2.9786871190329798E+00   -2.4068303557167736E+00
Br    1.7646161985807848E-01   -3.0830114047829640E+00   -2.1012834699059599E+00
Br    2.7533426853312641E+00   -2.8056920419673288E+00   -5.9445448938253307E+00
Br    2.8946094929804089E+00   -3.2904959603935477E-03   -3.0739959050459071E+00
Br    5.2468592902352829E-01   -8.8738612462735578E+00   -2.5063723358902075E+00
Br    3.1593507634741749E+00   -9.2371259747234475E+00   -5.8251018817231044E+00
Br    3.0694208049448828E+00   -5.9397058329567836E+00   -3.9324065568382607E+00
Br   -2.6934114367212749E+00   -3.1807254677429331E+00   -5.4297476090272143E+00
Br   -9.0296692852234735E+00   -3.1145531881484807E+00    6.7275148882967635E+00
Br   -2.4696575693856793E+00   -2.1134442416482349E-01   -2.1952514758850548E+00
Br    3.6807394416489845E+00   -1.1803408480080718E+01   -2.1487544818805566E+00
Br    1.1666267057170016E+01   -2.5023171714843890E+00    2.8653518625147569E+00
Br   -5.7335687145188725E+00   -9.2911957456546457E+00   -2.3663875667838346E+00
Br   -1.1796579654076110E+01   -3.5093996089232928E+00    3.8290726777695623E+00
Br   -8.2362072667789530E+00   -3.4148841427723968E+00    2.9189000363651862E-01
Br    1.1770846438191322E+01   -7.0416881994613298E+00    3.3135142277929970E+00
Br   -3.4917930265522468E-01    8.6026183057980674E+00   -3.4536410536377899E+00
Br    2.6908009382495823E+00    8.6876299905497660E+00   -6.4917381173931759E+00
Br    2.1144574685878710E+00    1.2070548027733656E+01   -4.0067184459655936E+00
Br    5.4163059693091598E-02    2.8336079314487161E+00   -3.3533338636937038E+00
Br    2.9192920665592417E+00    2.7751102475158778E+00   -6.5747921343204494E+00
Br    2.4637922678097270E+00    6.1732377968891070E+00   -3.0784129404846179E+00
Br    1.2275850582199034E-01   -2.7068741183926526E+00    3.5510470017656424E+00
Br    3.4568121863157586E+00   -2.9374713335171609E+00    6.8611789836667311E-02
Br    2.9459735819473565E+00    2.4819755521111361E-01    2.8932393801586733E+00
Br    2.5232597028604797E-01   -8.8961925983726680E+00    3.4696775688811883E+00
Br    2.9802497638264436E+00   -8.4412111627508892E+00    2.7083922755047424E-01
Br    3.3278367609907811E+00   -5.7047860125453553E+00    3.0887759309642822E+00
Br   -6.4188114474506808E+00    8.6827785191062397E+00   -8.6566115478562935E+00
Br   -3.7543163743476362E+00    8.8585528614671176E+00   -1.2033730158545206E+01
Br    3.2501302533072196E+00   -1.1805821606986560E+01    3.6025947320148952E+00
Br   -3.8868315393127557E+00    1.1254403261881720E+01   -8.7359527514039481E+00
Br   -3.4418744029731192E+00    5.5515632010291682E+00   -9.4277570744661041E+00
Br   -9.0720203581547594E+00   -4.9271818704961134E-01    2.5748813419088581E+00
Br   -2.2008463580729050E+00   -8.7258613208905746E+00   -5.9551222260734065E+00
Br   -6.0140046765889874E+00    8.8977687642040024E+00    3.1948625998995674E+00
Br   -3.3178234212776316E+00    8.7723735565125391E+00   -3.8218227251068820E-01
Br   -3.1505092807689263E+00    1.1947611228102160E+01    1.6343196979341772E+00
Br   -2.0271345549630462E-01    9.5659001467944744E+00    2.5783280001967452E+00
Br    2.9454506885389846E+00    9.8095695742659501E+00   -3.3867552993196481E-01
Br    2.4408980461763323E+00    1.2213112564307204E+01    3.0639420959948618E+00
Br   -1.6146306652220088E-01    2.9138361750593886E+00    2.5303523046172436E+00
Br    2.5342995387887441E+00    3.5053595255315715E+00   -3.1027441313364379E-01
Br    2.6475471212142705E+00    6.4025453421110523E+00    2.4303976493678454E+00
Br    4.3851031775865712E-01   -2.8938953383949841E+00    9.5036227543929197E+00
Br    3.0165393917369498E+00   -2.5410771093072029E+00    6.1952500422868697E+00
Br    3.3134658410809767E+00    5.2039484669999025E-01    8.9047747998891040E+00
Br    2.1240853268008056E-01   -8.6537123855770552E+00    9.6942181704562742E+00
Br    3.1625406701435130E+00   -8.3975275895805712E+00    6.3320093630035306E+00
Br    3.3957312343839767E+00   -5.3727294760756754E+00    9.4109396888831327E+00
Br   -1.2042274261092473E+01    2.7138266955060808E+00    3.0738536004994343E+00
Br   -9.0835445261723144E+00    2.6091577062138609E+00    1.7331030932847560E-01
Br    3.7518395790478536E+00   -1.1163848298868681E+01    9.0329299372372329E+00
Br   -9.0281200599142402E+00    5.8921298832129221E+00    2.8417156330125439E+00
Br   -8.2599975598816435E+00   -6.0437190636073967E-01    9.3973084244749217E+00
Br   -2.9850950721650773E+00   -6.1337957134263492E+00   -2.8134360017079834E+00
Br   -6.1937414970350329E+00    3.3756542965221437E+00    3.3875445440080467E+00
Br   -3.0125469627130745E+00    3.1227011203261332E+00   -2.1437098280722472E-01
Br   -3.1203682730936375E+00    5.8266020154235063E+00    2.1688175673326850E+00
Br   -1.3069396414441994E-01    8.8501225993051253E+00    8.0850870127028855E+00
Br    2.8550474523630718E+00    8.9968662075610695E+00    5.5942253411191851E+00
Br    2.2591126638638706E+00    1.2185423205756216E+01    8.3283752966789653E+00
Br    3.6230919365946225E-02    3.1862545314999862E+00    8.8794011613185155E+00
Br    2.4203542185479208E+00    3.9362442321396149E+00    5.9467498555335530E+00
Br    3.0097974929131239E+00    6.3437365258427336E+00    8.8377814535667856E+00
Br   -5.7148863272076120E+00   -3.8605284886805054E+00    9.4665393047724891E+00
Br    4.1855398766917888E+00   -2.2855321992679967E+00    1.1895039243098591E+01
Br   -2.6008145277165182E+00   -2.6291146425009280E+00    6.4795796332726292E+00
Br   -2.4060278619614048E+00    7.5633206850837312E-02    9.5931159913382995E+00
Br   -2.9218405056439911E+00   -1.1725190387510430E+01   -3.1852865879836316E+00
Br    4.4679135653172297E+00   -8.2584770986545166E+00    1.2024554804781289E+01
Br   -1.1959967796887339E+01    2.5210308756428281E+00   -2.6456662822761619E+00
Br   -3.4897840802431097E+00   -1.1575403070734479E+01    3.0587749849195935E+00
Br   -1.1385094826813663E+01   -3.8962090239782032E+00   -1.8927637494151048E+00
Br    2.0643817074412478E+00    9.2226072630463065E+00    1.1723500177360480E+01
Br   -9.0380825484476173E+00   -3.5964985187290046E+00   -5.6966042195161926E+00
Br   -9.3035457787184814E+00   -4.0211358532669733E-01   -2.8577864874729593E+00
Br    2.8863385912914907E+00    3.3502183164485504E+00    1.1838445412825003E+01
Br   -6.0739823834671247E+00    8.9078381255407457E+00   -3.8676147805574259E+00
Br   -2.9542735981198471E+00    8.0842766213139985E+00   -6.2929827086128576E+00
Br   -3.3839976347299316E+00    1.1718410385069141E+01   -3.7777607915699702E+00
Br   -5.9359881837789077E+00    2.3486250381384401E+00   -3.1227440795786316E+00
Br   -1.1290563659663247E+01   -9.3697155739325169E+00    3.4549220748831764E+00
Br   -2.9402492287123652E+00    3.0526648920339436E+00   -6.1565353322136431E+00
Br   -6.1657170348136079E+00   -2.9967094560369265E+00   -8.8537711681069489E+00
Br   -2.7514719062873558E+00   -2.9081182819269364E+00   -1.1223199064144357E+01
Br   -2.5949368595209279E+00   -3.6557545607181891E-01   -8.1767721286631829E+00
Br   -2.3488364894584506E+00    3.6436376411804612E+00    1.1452273072335771E+01
Br   -6.2046337642196141E+00   -8.3946144450453808E+00    9.5135902858855825E+00
Br   -2.7344456359569898E+00   -8.9664711053535893E+00    6.5365962102378150E+00
Br   -2.6505610612434825E+00   -5.7564638392215981E+00    9.2639330252531256E+00
Br   -8.9650435554591255E+00   -9.2598155912171549E+00    4.4698833912818053E-01
Br   -8.8276821843414854E+00   -6.2221550255493501E+00    4.0584275050557492E+00
Br   -9.1034371903212925E+00    7.9220140504866583E+00    1.1107227516925260E+01
Br    1.1382075103134619E+01    9.6881105237624467E+00    2.2799458305847411E+00
Br   -9.0418371299775604E+00   -9.2164799365248040E+00    1.2706874862359905E+01
Br    1.1811068577065592E+01    9.6455333913313108E+00   -2.7458198354043950E+00
Br    1.1233287671720884E+01    3.8362537959087666E+00    2.5278173952998397E+00
Br   -8.2747638095527467E+00    2.8398680925089295E+00    1.2103711944528570E+01
Br   -1.2048311218173142E+01   -3.4055694006535888E+00   -9.2615665633674311E+00
Br    1.2548284862883037E+01   -2.6749460248849641E+00    8.6856458027294892E+00
Br   -5.8478752276098511E+00   -8.9991702257761421E+00    3.5748336973199866E+00
Br    5.9196897407821094E+00   -3.6760634454903136E+00   -8.7798684433049647E+00
Br    7.4023603533482847E+00   -3.4685368652171760E+00   -1.2062057763649735E+01
Br    1.2269536990363655E+01   -8.6873465785737292E+00    8.7630105589384435E+00
Br    8.7902767753997999E+00   -4.0401308171515327E-01   -9.7075500689418543E+00
Br   -7.5790643873388630E+00   -1.1794010795076828E+01    1.0786701103006891E+01
Br   -2.4920292854547110E+00   -8.7248331997666746E+00    5.1460902660919849E-02
Br   -2.7509535941777261E+00   -5.9288812659911967E+00    4.2723255543951817E+00
Br    6.4132481816237688E+00   -9.0081024137063928E+00   -8.7219334758509408E+00
Br   -5.7139563925628618E+00   -9.0154120596954339E+00   -8.0541416065505373E+00
Br    8.9987647166305376E+00   -8.9872553843806653E+00   -1.1756890848524831E+01
Br    9.0051122628934408E+00   -6.2846571474840669E+00   -8.7932332074230750E+00
Br   -2.5058514449156699E+00   -1.1683276201107601E+01    9.4516206890868091E+00