 # Version information for this restart file 
 # current date 2021-06-17 12:37:46.917
 # current working dir /user/ub2042/exercises/2_fitting/MM_MD_workdir/md_settings.002
 # Program compiled at                              Thu Apr 22 21:44:59 EDT 2021
 # Program compiled on                cpn-k07-07-02.compute.cbls.ccr.buffalo.edu
 # Program compiled for                                                    local
 # Source code revision number                                       git:36754bb
 &GLOBAL
   PRINT_LEVEL  LOW
   PROJECT_NAME cp2k
   RUN_TYPE  MD
 &END GLOBAL
 &MOTION
   &MD
     ENSEMBLE  NVT
     STEPS  10000
     TIMESTEP     2.4999999999999996E+00
     STEP_START_VAL  9000
     TIME_START_VAL     2.2499999999996515E+04
     ECONS_START_VAL    -1.3948793637821183E+01
     TEMPERATURE     3.0000000000000000E+02
     &BAROSTAT
       PRESSURE     1.0100000000000000E+00
       TIMECON     9.9999999999999982E+03
     &END BAROSTAT
     &THERMOSTAT
       TYPE  CSVR
       &CSVR
         TIMECON     9.9999999999999982E+03
         &THERMOSTAT_ENERGY
              -2.9133695456586572E-01
         &END THERMOSTAT_ENERGY
         &RNG_INIT
Wiener process for Thermostat # 1        1 F T F   1.8360017598728720E-01        2587283350.0         742073417.0         736784705.0        2193663472.0        2811323491.0        3638979434.0             12345.0             12345.0             12345.0             12345.0             12345.0             12345.0             12345.0             12345.0             12345.0             12345.0             12345.0             12345.0
         &END RNG_INIT
       &END CSVR
     &END THERMOSTAT
     &AVERAGES  T
       &RESTART_AVERAGES
         ITIMES_START  1
         AVECPU     1.7496451173003549E-02
         AVEHUGONIOT     0.0000000000000000E+00
         AVETEMP_BARO     0.0000000000000000E+00
         AVEPOT    -1.4269815091345643E+01
         AVEKIN     4.7762412685279126E-01
         AVETEMP     2.4228367949701629E+02
         AVEKIN_QM     0.0000000000000000E+00
         AVETEMP_QM     0.0000000000000000E+00
         AVEVOL     6.7483345830912245E+06
         AVECELL_A     1.8897261328855686E+02
         AVECELL_B     1.8897261328855686E+02
         AVECELL_C     1.8897261328855686E+02
         AVEALPHA     9.0000000000000000E+01
         AVEBETA     9.0000000000000000E+01
         AVEGAMMA     9.0000000000000000E+01
         AVE_ECONS    -4.0245823040451221E+00
         AVE_PRESS     0.0000000000000000E+00
         AVE_PXX     0.0000000000000000E+00
       &END RESTART_AVERAGES
     &END AVERAGES
     &PRINT
       &ENERGY  SILENT
         &EACH
           MD  10
         &END EACH
       &END ENERGY
     &END PRINT
   &END MD
   &PRINT
     &TRAJECTORY  SILENT
       &EACH
         MD  10
       &END EACH
     &END TRAJECTORY
     &CELL  SILENT
       &EACH
         MD  10
       &END EACH
     &END CELL
     &VELOCITIES  SILENT
       &EACH
         MD  10
       &END EACH
     &END VELOCITIES
     &FORCES  SILENT
       &EACH
         MD  10
       &END EACH
     &END FORCES
     &RESTART  SILENT
       &EACH
         MD  10
       &END EACH
     &END RESTART
   &END PRINT
 &END MOTION
 &FORCE_EVAL
   METHOD  FIST
   &MM
     &FORCEFIELD
       VDW_SCALE14     1.0000000000000000E+00
       EI_SCALE14     1.0000000000000000E+00
       SHIFT_CUTOFF  T
       DO_NONBONDED  T
       IGNORE_MISSING_CRITICAL_PARAMS  T
       &SPLINE
         R0_NB     2.5000000000000000E-01
       &END SPLINE
       &NONBONDED
         &LENNARD-JONES
           ATOMS Br Br
           EPSILON     1.2630795322675199E+02
           SIGMA     3.6900000000000004E+00
         &END LENNARD-JONES
         &LENNARD-JONES
           ATOMS Cs Pb
           EPSILON     8.6920055954630968E+01
           SIGMA     3.9452500000000001E+00
         &END LENNARD-JONES
         &LENNARD-JONES
           ATOMS Cs Cs
           EPSILON     2.2644852172126850E+01
           SIGMA     4.5300000000000002E+00
         &END LENNARD-JONES
         &LENNARD-JONES
           ATOMS Pb Pb
           EPSILON     3.3363415533600227E+02
           SIGMA     6.1000000000000005E+00
         &END LENNARD-JONES
         &LENNARD-JONES
           ATOMS Br Cs
           EPSILON     5.3481070753900497E+01
           SIGMA     3.6300000000000003E+00
         &END LENNARD-JONES
         &LENNARD-JONES
           ATOMS Br Pb
           EPSILON     2.0528187276773045E+02
           SIGMA     2.9800000000000000E+00
         &END LENNARD-JONES
       &END NONBONDED
       &CHARGE
         ATOM Cs
         CHARGE     4.1739999999999999E-01
       &END CHARGE
       &CHARGE
         ATOM Pb
         CHARGE     8.3479999999999999E-01
       &END CHARGE
       &CHARGE
         ATOM Br
         CHARGE    -4.1739999999999999E-01
       &END CHARGE
     &END FORCEFIELD
     &POISSON
       PERIODIC  XYZ
       &EWALD
         EWALD_TYPE  SPME
         GMAX  62 62 62
         O_SPLINE  4
       &END EWALD
     &END POISSON
     &PRINT
       &FF_INFO  LOW
         SPLINE_INFO  F
         SPLINE_DATA  F
       &END FF_INFO
     &END PRINT
   &END MM
   &SUBSYS
     &CELL
       A     1.0000000000000001E+02    0.0000000000000000E+00    0.0000000000000000E+00
       B     0.0000000000000000E+00    1.0000000000000001E+02    0.0000000000000000E+00
       C     0.0000000000000000E+00    0.0000000000000000E+00    1.0000000000000001E+02
       PERIODIC  XYZ
       MULTIPLE_UNIT_CELL  1 1 1
     &END CELL
     &COORD
Cs    1.4300858874425357E-01   -8.4898462184090484E-01   -5.8208086939837953E+00
Cs    1.2439852559890214E+00   -7.6977214818989106E+00   -4.7408168989242947E+00
Cs    1.1449637271995456E+00   -1.2251924041509874E+01   -4.0538962482702985E+00
Cs   -5.0081950635636829E+00   -7.5565358869739567E+00   -4.4928084975526579E+00
Br   -6.8122104234853751E+00   -1.4428103678474956E+01   -6.3726740161236952E+00
Br    1.1556566703538449E+01   -3.7010021924376946E+00   -9.5207164429141997E+00
Br   -4.2151984159324662E+00    1.2653748849497075E+00   -1.2284924807656914E+01
Cs   -1.5353623000383825E+00    4.9871434090485627E+00   -6.6291693009731629E+00
Cs   -6.8228181230194285E-01   -4.9460453666432580E-01    2.2976006634416188E-01
Cs    7.9636464213276659E-01   -6.8688602732320261E+00    1.6648056177543142E+00
Br   -4.6140169330130041E+00   -4.0996674915402602E+00    4.4244157662158505E+00
Cs   -9.1851560839802193E+00   -5.1224045327627303E+00    1.3140452644138222E+01
Cs    1.3841419686552259E+01   -9.6931960958354431E+00    1.3094845030683679E+00
Cs   -6.5841088489142310E+00    4.5892917889693416E+00   -7.0559885686345636E-01
Cs   -1.9514484118157422E+00    1.1511678184818601E+01   -2.1345233295733381E+00
Cs   -1.3405839457288997E+00    6.1639088567034888E+00   -7.7703361442360530E-01
Cs    5.0550906389859851E-01    9.6527584527411137E-01    6.2409621176133223E+00
Cs    1.4199891897409487E+00   -5.1953820365100141E+00    6.9785908000551293E+00
Cs    2.4595023763149637E+00   -1.0165172077021154E+01    8.4056115612200433E+00
Cs   -5.5904455234630879E+00    7.1712626625881102E+00    1.1188137964870480E+01
Cs   -7.1031168355173628E+00   -3.0531154051781595E+00   -1.1340482199264752E+01
Cs   -3.8054665109184578E+00   -1.2732560296326570E+01   -4.1038806957625482E+00
Cs   -5.5253433179315650E+00    6.8934840277679310E-01    6.6806405090832195E+00
Br   -1.9776366541123380E+00   -3.8212604628429725E+00    5.9718309634937417E-01
Cs   -9.2627811013713557E-01    6.6785039858780300E+00    4.4656398014825545E+00
Br    1.2572732207352047E+01   -1.0520031074963686E+01   -9.1130873543612214E+00
Cs    2.5403462882340513E+00   -2.7125763432802463E+00    1.2109557298200441E+01
Br   -3.4657574847438015E+00   -8.2267099102722685E-01    2.3770281088693173E+00
Br   -7.6986316737705476E+00   -1.7021049510362922E+00    1.2776884387867771E+01
Cs    1.1149785117877256E+01    1.1699009873722954E+01   -8.1704874859712504E+00
Cs   -1.0843820674622863E+01   -6.1812950201542511E+00    8.0423737504258863E+00
Cs   -4.2096607889763877E+00   -6.5125781036429435E+00    7.0760880499274181E+00
Cs   -7.5899147537444227E+00    9.6618908391843856E+00   -7.3788872018492668E+00
Br   -9.8952511542566537E+00   -8.4304280787446615E+00    1.0593476801747050E+01
Br   -7.1543236283922242E+00   -8.9553146678725852E+00    8.0055336868790086E+00
Cs   -1.0971691744590592E+01   -7.3436222335353349E+00   -3.7124834916992429E+00
Cs   -7.1333437354012643E+00    4.4654191805886905E+00   -6.6163717176592423E+00
Br   -6.9350397315223873E+00   -5.6721765234401493E+00    1.0009948897648515E+01
Cs    1.1489110581578089E+01    1.0509423703796996E+01    7.9017230867739894E+00
Br   -1.2182639558096653E+01    7.7527840816753653E+00    8.5057652947705265E+00
Br   -5.3025685587747429E+00   -4.8561724560018300E+00   -1.6934602659924975E+00
Cs    5.0637283889723717E-01    2.2928497171542030E+00    1.1648953607041761E+01
Cs    1.0129655590347586E+01    7.6846674473746317E+00   -1.8574143697203720E+00
Cs   -1.0990289146879073E+01   -9.0392610370769084E+00   -9.3407926152402148E+00
Cs    1.2251273892295105E+01    3.6657709140829962E+00    5.6141877454525977E+00
Cs   -1.2931345628941338E+01    9.5805015785701038E+00   -6.6407632984774825E+00
Cs    1.4285244705195845E+01   -7.8495303221806090E+00    6.5564440216301598E+00
Cs    5.9059230080376635E+00   -7.8545976434964198E+00   -9.9015528096990888E+00
Cs    8.9037170955890197E+00   -8.7115280031767757E+00    8.2021096128746489E+00
Cs   -4.7012431449809826E+00   -1.1997753801767617E+01    2.3825570907780604E+00
Cs    6.7686501407325039E+00   -1.2444067516517514E+01   -9.5509242069740079E+00
Cs    1.0395939339581410E+01    6.4602840117357196E+00   -7.8541143897050940E+00
Cs    8.0469751256728372E+00    1.6044352249323964E+01    3.2130370632210763E+00
Cs    1.0884020947236833E+01    3.9866821573506894E+00   -1.3044655872350646E+01
Cs   -7.2588662540075594E-02   -7.8713395995677624E+00   -1.1163579166181878E+01
Cs   -1.1343222988226840E+01   -3.2567633257036186E+00   -5.3247763470897942E+00
Cs    8.6398114939545536E+00   -2.3669160754418654E+00    1.1927354217850750E+01
Cs    1.2245852863704549E+01   -3.0609353176515222E+00    5.6656633639261331E+00
Cs   -9.6696268408431134E+00   -1.1266322638108427E+01    8.9022242195880317E+00
Cs   -1.7083846373965612E+00   -2.0136295814690488E+00   -1.0936276272035990E+01
Cs   -2.0765431178852385E+00    1.1880056944958380E+01    3.6786898890910500E+00
Cs   -1.8712345650892321E+00    4.2252910701638626E+00   -1.1916585317247295E+01
Cs    5.3789146307543731E+00   -7.2735232914006942E-01   -6.8433749596205500E+00
Cs    6.9349284755280394E+00   -6.5712114960560966E+00   -5.0987588775806216E+00
Cs    6.8976740446502642E+00   -1.2702778107709097E+01    8.5771147150339608E+00
Cs   -1.1203246397962825E+01   -9.3684879723885239E-01    5.9985031467785719E+00
Cs    4.7801219912242159E+00   -1.9453016656560531E+00   -1.1843850774250951E+01
Cs    4.0472705739301640E+00    9.9302916989190830E+00   -1.3358518823637109E+01
Cs   -1.4361436111545106E-01    7.7966793078062349E+00    9.9934633143907199E+00
Cs   -7.2798038499492641E+00    1.1711561038766726E+01    4.6267982094643019E+00
Cs    2.9200143988745455E+00    1.0864243305301045E+01   -8.2793157748488166E+00
Cs    4.1326743307230469E+00    6.0867665189877993E+00   -6.8959771085378287E+00
Cs    5.8296404312071477E+00    6.2461327557671831E-01   -4.6688940680412749E-01
Cs    6.6416266127110166E+00   -4.9563446603483294E+00   -9.0198448398960712E-02
Cs    8.2149774366761665E+00   -1.0730613499195714E+01    1.9797223280053138E+00
Cs    4.4120639742479364E+00    4.4115266481329076E+00   -1.2450299893017259E+01
Cs   -5.8877551108587811E+00    5.9228850112581242E+00    5.1552373910685576E+00
Cs   -5.6857520098453547E+00   -8.6693610469159559E+00   -9.4041987116962886E+00
Cs    4.6899498715165846E+00    5.6579072646508006E+00   -1.7936111214585861E+00
Cs    6.3846223232051695E+00    2.0584171827174749E+00    4.8421558673265404E+00
Cs    7.0350753970024718E+00   -3.2034478808246494E+00    6.1032823701059522E+00
Cs   -8.5613965987638974E+00    1.0105849430615097E+01   -1.5333573346525031E+00
Cs    1.1381214374102811E+01    2.3047865716617606E+00   -1.4907403470194192E+00
Cs   -6.1167547203720165E+00   -5.1002567051267145E-01    4.8712382722671610E-01
Cs   -1.1586048742591881E+01    5.4742928795161347E+00    6.0997017619153393E+00
Cs   -5.0119614768080423E+00    1.1456484344257911E+00    1.1994141670391562E+01
Cs    4.2608019827422607E+00    1.5077690389275313E+01    8.3910270803258840E+00
Cs    4.6735886217600191E+00    6.6657363998696058E+00    4.3726602857149208E+00
Cs    7.2637777990192562E+00    3.7789598442154646E+00    1.0006475813373477E+01
Cs    3.5252750255468768E+00    1.2013454463990113E+01   -2.5687910362096953E+00
Cs    1.1239095878382420E+01   -2.2739291404603088E-01   -7.5245841353681024E+00
Cs    1.2599082727999185E+01   -4.3837493702487436E+00   -6.4149508322834752E+00
Cs    9.4828474089940133E+00   -7.4205114463934478E+00    1.3213449498682822E+01
Cs    9.6782011608015441E+00    1.2794723675797414E+01   -3.3652148840271865E+00
Cs   -1.0992513733434407E+01   -4.3241203366909411E-02    1.1121320926188869E+01
Cs   -7.9365624777078168E+00    4.0159681872616417E+00   -1.1252255172390669E+01
Cs   -1.3854378727145214E+01    9.0335230247760769E+00   -1.3368079675418960E+00
Cs   -2.8381288785221597E+00   -4.2861956479432495E+00    1.3769227877112723E+01
Cs   -4.1028575151688713E+00   -1.0195554426847959E+01    1.3709553409669024E+01
Cs    5.8483590382383808E+00    9.9678431040355751E+00    9.8605135713898715E+00
Cs    1.2357149238443929E+01   -4.1353004347507030E+00    7.0390262804466919E-01
Cs   -1.1430660409002865E+01   -1.2090847323838292E+00    1.0723109712027774E+00
Cs   -9.7358046041118200E+00    9.3700025619571257E+00   -1.2521639903194760E+01
Cs   -1.2893358893042311E+01    3.6908092267024997E+00    7.3089369137761495E-01
Cs   -8.9193114868301944E+00   -1.4188311960363697E+01   -3.5609543825894368E+00
Cs   -1.1172540963609112E+01   -7.0190642753316466E+00    1.3778775733212347E+00
Cs   -4.9924282999870018E+00   -5.6145891582866643E+00    1.3083749495572607E+00
Cs   -3.8989751801942312E+00   -1.0895139130453524E+01    8.6430608203151227E+00
Cs    1.3564761645939324E+01   -1.4489774579310488E+00    1.0388157331457750E+01
Cs    1.0980708294429011E+01    8.7747525183620514E+00    3.7985536255402867E+00
Cs   -1.2564630963882792E+01    4.0430878657017715E+00   -6.7521597579101016E+00
Cs   -6.3685568851064556E+00   -7.4846726913688788E-01   -6.5836566240055197E+00
Cs   -1.0076763753950585E+01   -1.3203618445508308E+01    3.5265316156034694E+00
Cs    1.1658195369696298E+01   -8.7255932554862206E+00   -1.1613931773007193E+01
Cs   -5.7608450231514317E+00   -1.4283513467861781E+01   -9.4657394405665887E+00
Cs   -1.1056636200828580E+00    1.0294584609366693E+01   -1.3395149199010193E+01
Cs    1.4714449730185513E+00   -1.3838639208995739E+01   -9.9347973486747225E+00
Cs   -1.6491633841721831E+00    1.0387326903977778E+01   -7.7403415216796096E+00
Cs   -1.2445935201253327E+01    5.7921229184765339E+00    1.1942327635581966E+01
Cs    8.3990019047815689E-01   -1.1480394180791452E+01    2.0276185698044005E+00
Cs   -1.1968915218654905E+01    2.7596986342240273E+00   -1.3882611035548228E+01
Cs   -1.2967996886975518E+01    1.0303326391232281E+01    5.8812481397196050E+00
Cs    8.9727891824976336E+00   -1.2308067781611925E+01   -3.6065510855391216E+00
Cs    1.0101186008343042E+01   -2.6716573861360380E+00   -1.2748377546450529E+01
Cs   -1.0063202909831794E+00    1.3420325737309435E+01    9.1094945019335807E+00
Pb    3.4076080467094410E+00   -3.0711935382156970E+00   -2.9182757073023873E+00
Pb    4.2719613456243231E+00   -8.9171132037285492E+00   -1.2408593207932521E+00
Pb   -8.2681952275398611E+00   -3.7083347513501530E+00    4.2825037299867050E+00
Pb   -1.9149034914644516E+00   -9.6887019722027627E+00   -1.3184950367877664E+00
Pb    1.1204532418746769E+00    8.4911444691526707E+00   -4.3662529889872301E+00
Pb    2.1884080044424761E+00    2.5444041575013507E+00   -3.8896797401226841E+00
Pb    3.6291810693200444E+00   -2.0842035605403919E+00    3.0886138774905825E+00
Pb    4.3469024884842771E+00   -7.9136600457947051E+00    4.7363248664899018E+00
Pb   -4.2298559226674435E+00    8.7904356696833936E+00    1.7074881159849651E+00
Pb    1.7841339800036369E+00    9.9242407969167221E+00    1.3382820956475814E+00
Pb    2.6618785598275658E+00    3.7200663272386332E+00    1.9754067801251902E+00
Pb    4.2647293762816441E+00   -9.0970692638200923E-01    9.0204767823061580E+00
Pb    5.5193325256135042E+00   -6.8439672349754632E+00    1.0533621730855559E+01
Pb   -3.2442379398291830E+00    2.9809623570996338E+00    2.5295668449467863E+00
Pb    1.7649884326374554E+00    1.0747977733510043E+01    7.4047142916230007E+00
Pb    2.7325084997635449E+00    4.8619949466901522E+00    7.9405801427386882E+00
Pb   -1.5612342613845880E+00   -1.8397589174854747E+00    9.6316446259822843E+00
Pb   -7.4604105621592698E+00   -9.7694291896860737E+00    5.0509935926084042E+00
Pb   -9.5412966033682540E+00    1.0137247805085303E+00   -2.6195153137518958E+00
Pb   -2.9947353820075850E+00   -4.8685794412456396E+00   -8.5843707028838452E+00
Pb   -1.4324808835400971E+00   -9.1108761384601582E+00    4.8969754114637443E+00
Pb   -4.7687951999099614E+00    7.5534189122518560E+00   -4.0808962024829842E+00
Pb   -5.9310074397360579E-01   -7.7148137598269466E+00    1.0472651493374146E+01
Pb   -8.0846983843408218E+00   -4.5276420785928568E+00   -1.6064068287010180E+00
Pb   -8.2374524764195947E+00   -1.0648974782062012E+01   -7.5416545482714414E-01
Pb   -3.5954322352804340E+00    1.8039330279444288E+00   -3.5262698184864876E+00
Pb   -7.1136980715442126E+00   -8.4220164223109233E+00    1.1298145646881832E+01
Pb   -8.7430231122158659E+00   -5.7594901385472044E+00   -7.4582710044468499E+00
Pb    8.6001394975051966E+00   -3.7472542326750502E+00   -9.1889914923256182E+00
Pb    9.9894935796991629E+00   -9.8967613440242967E+00   -8.3266444991841340E+00
Pb   -2.1988796731354388E+00   -1.0710595088781574E+01   -7.7428677451319992E+00
Pb   -1.1133105071267197E+01    6.5036858524392365E+00   -9.8237301806854038E+00
Pb    3.0079509424471533E+00   -4.6761231392818852E+00   -8.8773619443922005E+00
Pb    3.8275444422630733E+00   -1.0580225675979383E+01   -7.0938137005423769E+00
Pb   -4.0631290971296190E+00    9.5144222692276537E-01   -9.5440278503028591E+00
Pb    1.1513845748229854E+00    7.2659489085693290E+00   -1.0264862815907549E+01
Pb    1.8920228363812450E+00    1.5117363068848853E+00   -9.8927631873837623E+00
Pb    9.2500427106673513E+00   -2.4622451597474773E+00   -3.1329890068589208E+00
Pb    1.0719072075833438E+01   -8.3491452694197719E+00   -2.5344146911749093E+00
Pb   -7.5609102618613031E+00   -2.5754160670855493E+00    9.9264335799822749E+00
Pb    6.8444741846696209E+00    8.1013040043027154E+00   -1.1038428019486316E+01
Pb   -1.0199038458878700E+01    2.2563291113378428E-01   -8.8797667356151972E+00
Pb   -3.9180617276118386E+00    9.9326207853946773E+00    7.5027022606923870E+00
Pb    7.3380980095611781E+00    9.9663755115703356E+00   -5.3688307719357811E+00
Pb    7.9491137332771409E+00    3.7917428864160718E+00   -4.4490940482653940E+00
Pb    9.4673390962650998E+00   -7.1013492927386734E-01    2.5035426956789766E+00
Pb    1.0459168010037580E+01   -6.9748396381187723E+00    3.9142164376783075E+00
Pb    7.8761019870553044E+00    2.1749617778268697E+00   -1.0454512599835486E+01
Pb   -2.9118770966806120E+00    3.8375787972725117E+00    8.7442683760388729E+00
Pb    8.1988055245112470E+00    1.1249977041484481E+01    3.0102921959423851E-01
Pb    8.5611279137268319E+00    5.1698333367229932E+00    1.5037579723702410E+00
Pb    1.0138592058384800E+01    3.2623228922305902E-01    8.2479187724135237E+00
Pb    1.1398262497198109E+01   -5.7527795111262350E+00    9.9290515728464577E+00
Pb    7.7726234698792798E+00    1.2107749868735235E+01    6.3556979061495493E+00
Pb    8.9638276685793947E+00    6.3680126531696661E+00    7.4914585795147852E+00
Pb   -8.8090926207292970E+00    3.4124062661806231E+00    9.1371982301211645E+00
Pb   -1.9336632314827213E+00   -3.4694929416825859E+00    3.5001567932038053E+00
Pb   -1.0385949186487309E+01    8.1860131059123766E+00    2.2667793048825065E+00
Pb   -1.0725246586702994E+01    6.8879005253650050E+00   -3.4988196147558930E+00
Pb   -8.1731305211394716E+00   -1.1529399704135075E+01   -6.6539162080870282E+00
Pb   -5.0393300544556876E+00    6.8135139128414686E+00   -9.8857296516903848E+00
Pb   -9.2774696941700245E+00    2.2119652435498525E+00    3.1451048952319240E+00
Pb   -9.7983922419794993E+00    9.3931484155676213E+00    8.3795279939877538E+00
Pb   -2.3905363457345299E+00   -3.8537736539406291E+00   -2.5472145360539762E+00
Br    4.5953421975713710E-01   -3.1949564152522667E+00   -2.8092557688622626E+00
Br    3.2333044481194126E+00   -3.9221575096106562E+00   -5.7798465192882746E+00
Br    3.0361520410740011E+00   -3.6491258406736915E-01   -4.1503953997267216E+00
Br    1.0075679087523599E+00   -9.7674031278314093E+00   -7.5371880136906622E-01
Br    3.8688955753716949E+00   -1.0056561631360442E+01   -4.0078970300752879E+00
Br    3.5973097657663029E+00   -6.2283672103954020E+00   -2.3481297492442663E+00
Br   -1.8518696055628172E+00   -4.1511560965638070E+00   -5.6357530030643916E+00
Br   -7.9916716649503874E+00   -2.8338588426837390E+00    7.1009368811932649E+00
Br   -3.5010043349353070E+00   -1.1733325740005467E+00   -3.3758851557590459E+00
Br    5.7378464252710550E+00   -1.1190960247141668E+01   -3.5420760484287293E-02
Br    1.2303878108889545E+01   -6.8285828826519523E-01    2.6905111223039930E+00
Br   -4.7334087217719860E+00   -9.9372850528866579E+00   -1.0311655701781928E+00
Br   -1.1154067875398761E+01   -3.9961055421023923E+00    4.3257582048899614E+00
Br   -8.0620450597258380E+00   -4.3307195958531945E+00    1.4733351805434856E+00
Br    1.3493354978512949E+01   -7.3656093481555853E+00    3.7077110470797057E+00
Br   -1.8212008325070910E+00    8.0182697266272758E+00   -3.8033555922980162E+00
Br    9.2763399532298063E-01    7.3302415005998567E+00   -7.2431131973787748E+00
Br    1.0175297591387342E+00    1.1275116573449932E+01   -5.5455590528547329E+00
Br   -4.0871099424381524E-01    1.4923572016779736E+00   -3.6066669639276863E+00
Br    2.0564930489677313E+00    2.0511828243455579E+00   -6.8317695563440850E+00
Br    1.4806722478304573E+00    5.5203019675519229E+00   -3.6741531414071336E+00
Br    5.3068482711008924E-01   -2.0737950243558574E+00    3.1999276414788920E+00
Br    3.9574862571485725E+00   -2.1936783780134581E+00    2.4641125755791515E-01
Br    3.3747756740749746E+00    1.0771330604579883E+00    2.6570320403101793E+00
Br    1.2537860009072292E+00   -8.4661476671375446E+00    4.6519443799616642E+00
Br    4.5797508974380952E+00   -8.1461238192250285E+00    1.8081001640824372E+00
Br    4.1654364559881003E+00   -4.9536516743179240E+00    3.4994324468507414E+00
Br   -8.2031686486620838E+00    6.5905301225215114E+00   -9.5279868020118190E+00
Br   -5.6354770791892470E+00    6.0343572185244208E+00   -1.2572732611650464E+01
Br    4.5483058220388006E+00   -1.0604136224849404E+01    5.8948581606770967E+00
Br   -4.7034414668741071E+00    9.8962355949419187E+00   -9.5571920975664710E+00
Br   -4.7439196536962172E+00    3.7614988289390383E+00   -9.4135442409169432E+00
Br   -8.7583791118421548E+00   -4.8255214479034608E-01    3.6488886046254581E+00
Br   -1.7736678258159544E+00   -9.9525400380812936E+00   -4.3904383983376869E+00
Br   -7.4358660783188828E+00    7.9339743556023388E+00    1.7698047168256141E+00
Br   -4.6168566596910470E+00    8.4322988865121928E+00   -1.3658259135586097E+00
Br   -4.6387848630326012E+00    1.1477034450087924E+01    1.5529429649172324E+00
Br   -1.1799294741940820E+00    9.2384563688681247E+00    1.3693367868307837E+00
Br    1.7892054900396197E+00    8.8764834647771025E+00   -1.6730631618888179E+00
Br    1.2044858089272479E+00    1.2209592208676044E+01   -3.2773216777277220E-01
Br   -2.9261266202785507E-01    3.1927162080015461E+00    2.3889500475313552E+00
Br    2.8741730330871555E+00    3.0232908833921073E+00   -8.1375063865807029E-01
Br    1.5968303722793529E+00    6.2017928435732212E+00    9.2891353673096966E-01
Br    1.3498819077809814E+00   -9.5726950082454720E-01    9.4879906882174101E+00
Br    3.6579614978497923E+00   -1.9382298219427287E+00    6.3652858544129769E+00
Br    3.4213413222789866E+00    2.1194843768120206E+00    8.5290111574337697E+00
Br    2.1583748409007133E+00   -7.4020111788212448E+00    1.0810148609089390E+01
Br    4.4837340069450384E+00   -7.2818712288344845E+00    7.4866772343224044E+00
Br    4.5079309109307637E+00   -4.0824350916014147E+00    9.8197268783916378E+00
Br   -1.2028459084300625E+01    1.4475557368035821E+00    3.1907207359997987E+00
Br   -9.1486717568739095E+00    1.3874917924801238E+00    3.7298300948094554E-01
Br    6.8443340209071613E+00   -9.6770239633498836E+00    1.0670381485373358E+01
Br   -1.0480716756965219E+01    4.8744752927176496E+00    2.9613968379900975E+00
Br   -7.6793658711065609E+00    8.7268872702410349E-01    9.9492432404843907E+00
Br   -1.6678755680676145E+00   -6.8229798399894044E+00   -2.3574347421965416E+00
Br   -6.0316032946020766E+00    2.5718103460928918E+00    3.0226361042063972E+00
Br   -3.3036705378909335E+00    2.4575245466671176E+00   -3.5732858353606445E-01
Br   -3.7364669342662231E+00    5.7372948444829364E+00    1.9618961741627439E+00
Br   -1.0657102589257261E+00    1.0365538378906345E+01    6.9334204440595197E+00
Br    1.2081417979017477E+00    9.7757834513400166E+00    4.1881488380100285E+00
Br    1.6176048483538483E+00    1.3481692879572181E+01    7.0323743980925775E+00
Br    5.6386602026277911E-02    4.5001362883957645E+00    8.7018894451564055E+00
Br    2.6771191958522231E+00    4.1671875651796286E+00    5.0164663149148776E+00
Br    2.0798437836388493E+00    7.8580358492437217E+00    7.6575051825395599E+00
Br   -4.5053317381366167E+00   -2.1102252898351450E+00    1.0344410425281318E+01
Br    5.0978778053580944E+00   -1.0542903406941664E+00    1.1668451025657909E+01
Br   -1.3367525969994589E+00   -2.9220554209694289E+00    6.4614059819629217E+00
Br   -2.3015184798769703E+00    1.1561609098269134E+00    9.2097365368435220E+00
Br   -1.7769020048947537E+00   -1.2582601735869686E+01   -1.1144555146606669E+00
Br    6.5507184957902442E+00   -6.2518053033356056E+00    1.3224523996587404E+01
Br   -1.2529762880246484E+01    1.0211895022942687E+00   -1.5786025616751831E+00
Br   -3.4141893279219265E-01   -1.2135152262712184E+01    5.0734128677991430E+00
Br   -1.1141112156074863E+01   -4.6382975219012632E+00   -1.7203526560381230E+00
Br    1.9947479578310390E+00    1.0415142090119268E+01    1.0350435705840285E+01
Br   -7.9681398166319433E+00   -5.0894965422413412E+00   -4.3686250179026516E+00
Br   -8.7897646539293479E+00   -1.9786065004616227E+00   -2.3898598582234767E+00
Br    3.9693417952076420E+00    5.7544833468385921E+00    1.0521691060000256E+01
Br   -7.6295586332588003E+00    6.9060939132095021E+00   -3.5825636503203189E+00
Br   -5.1545915392026611E+00    7.0622582134737524E+00   -7.0396920912168337E+00
Br   -5.2492380631130962E+00    1.0348004703257930E+01   -4.9897679737611860E+00
Br   -6.6631478482476636E+00    1.5568905421152752E+00   -2.3155710035254509E+00
Br   -9.9937055529288408E+00   -1.0695092085647584E+01    5.9113549851788214E+00
Br   -3.6412535799284775E+00    1.5843016151381151E+00   -6.4705997444145806E+00
Br   -5.9112498189947118E+00   -5.6353003773466295E+00   -8.1676052394577212E+00
Br   -3.2621830879639888E+00   -4.7791044014797466E+00   -1.1484668267615383E+01
Br   -3.7252778192570712E+00   -1.9671652762121561E+00   -8.5784101921511517E+00
Br   -2.9582249509840008E+00    4.5099534387049296E+00    1.1568908896057115E+01
Br   -4.1239465069033896E+00   -8.2503057688018249E+00    1.0679773505450081E+01
Br   -1.3426052586003416E+00   -8.0304660120588736E+00    7.6111709345997243E+00
Br   -1.1154559301349674E+00   -4.7729647775605661E+00    1.0329246577880760E+01
Br   -7.5874810711767946E+00   -1.0172127929202096E+01    2.1096389708835153E+00
Br   -8.6058080863095920E+00   -6.4225914426621431E+00    5.4051753391066404E+00
Br   -9.5335789852347705E+00    1.0077457752803836E+01    1.1234022482678228E+01
Br    1.1217604845479162E+01    1.1445327523923018E+01   -8.5427066864241596E-01
Br   -6.6382165645216276E+00   -7.3714125081214501E+00    1.3897339453391922E+01
Br    1.0276668438771955E+01    9.3343321293224868E+00   -5.8386324049379992E+00
Br    1.1385877396776872E+01    5.5749112802879646E+00    1.5905801684095877E+00
Br   -9.9729180307605585E+00    3.1550228816345647E+00    1.2190896717083657E+01
Br   -1.1769817320639156E+01   -6.1042157349537813E+00   -7.0705211620120387E+00
Br    1.2872533054215213E+01    5.4000591445952895E-01    7.6522476807611985E+00
Br   -4.7302564159544502E+00   -9.1925203617911997E+00    4.9673704421851879E+00
Br    5.9050589503354791E+00   -4.5626449905973718E+00   -8.7546129125075538E+00
Br    7.7839333055623054E+00   -4.8627467273909044E+00   -1.1766845104715342E+01
Br    1.4270123698752311E+01   -4.9069666843960720E+00    8.3307594154095135E+00
Br    9.0065071983099170E+00   -8.8611072723558548E-01   -1.0212107674292772E+01
Br   -6.5302706125482031E+00   -1.1163048685565862E+01    1.1801221085797424E+01
Br   -1.7989289246032749E+00   -9.4749349337014355E+00    1.6659588866674544E+00
Br   -1.7699033808584101E+00   -6.4575614658988387E+00    3.8788818326918779E+00
Br    6.7060698080223560E+00   -1.0041593484966644E+01   -7.0827342402351299E+00
Br   -5.0430455037305251E+00   -1.0761329598856271E+01   -6.8903854022267179E+00
Br    8.9432145153957059E+00   -1.0171458656002605E+01   -1.1257574269625096E+01
Br    8.9797546908875034E+00   -7.1132139850988567E+00   -9.0491002455457910E+00
Br   -4.2990524772581679E-01   -1.0929129200243755E+01    1.0095646970514039E+01