 # Version information for this restart file 
 # current date 2021-06-17 12:36:54.623
 # current working dir /user/ub2042/exercises/2_fitting/MM_MD_workdir/md_settings.002
 # Program compiled at                              Thu Apr 22 21:44:59 EDT 2021
 # Program compiled on                cpn-k07-07-02.compute.cbls.ccr.buffalo.edu
 # Program compiled for                                                    local
 # Source code revision number                                       git:36754bb
 &GLOBAL
   PRINT_LEVEL  LOW
   PROJECT_NAME cp2k
   RUN_TYPE  MD
 &END GLOBAL
 &MOTION
   &MD
     ENSEMBLE  NVT
     STEPS  10000
     TIMESTEP     2.4999999999999996E+00
     STEP_START_VAL  6000
     TIME_START_VAL     1.4999999999999609E+04
     ECONS_START_VAL    -1.3948793637821183E+01
     TEMPERATURE     3.0000000000000000E+02
     &BAROSTAT
       PRESSURE     1.0100000000000000E+00
       TIMECON     9.9999999999999982E+03
     &END BAROSTAT
     &THERMOSTAT
       TYPE  CSVR
       &CSVR
         TIMECON     9.9999999999999982E+03
         &THERMOSTAT_ENERGY
              -2.2341366651083339E-01
         &END THERMOSTAT_ENERGY
         &RNG_INIT
Wiener process for Thermostat # 1        1 F T F  -1.0069755728574066E+00        3529487211.0         892566978.0         113824115.0        3681411532.0        3123167529.0        1101700212.0             12345.0             12345.0             12345.0             12345.0             12345.0             12345.0             12345.0             12345.0             12345.0             12345.0             12345.0             12345.0
         &END RNG_INIT
       &END CSVR
     &END THERMOSTAT
     &AVERAGES  T
       &RESTART_AVERAGES
         ITIMES_START  1
         AVECPU     1.7538919143339840E-02
         AVEHUGONIOT     0.0000000000000000E+00
         AVETEMP_BARO     0.0000000000000000E+00
         AVEPOT    -1.4293291695150554E+01
         AVEKIN     4.5511574193119009E-01
         AVETEMP     2.3086588459985381E+02
         AVEKIN_QM     0.0000000000000000E+00
         AVETEMP_QM     0.0000000000000000E+00
         AVEVOL     6.7483345830909275E+06
         AVECELL_A     1.8897261328855745E+02
         AVECELL_B     1.8897261328855745E+02
         AVECELL_C     1.8897261328855745E+02
         AVEALPHA     9.0000000000000000E+01
         AVEBETA     9.0000000000000000E+01
         AVEGAMMA     9.0000000000000000E+01
         AVE_ECONS    -3.8045700063611596E+00
         AVE_PRESS     0.0000000000000000E+00
         AVE_PXX     0.0000000000000000E+00
       &END RESTART_AVERAGES
     &END AVERAGES
     &PRINT
       &ENERGY  SILENT
         &EACH
           MD  10
         &END EACH
       &END ENERGY
     &END PRINT
   &END MD
   &PRINT
     &TRAJECTORY  SILENT
       &EACH
         MD  10
       &END EACH
     &END TRAJECTORY
     &CELL  SILENT
       &EACH
         MD  10
       &END EACH
     &END CELL
     &VELOCITIES  SILENT
       &EACH
         MD  10
       &END EACH
     &END VELOCITIES
     &FORCES  SILENT
       &EACH
         MD  10
       &END EACH
     &END FORCES
     &RESTART  SILENT
       &EACH
         MD  10
       &END EACH
     &END RESTART
   &END PRINT
 &END MOTION
 &FORCE_EVAL
   METHOD  FIST
   &MM
     &FORCEFIELD
       VDW_SCALE14     1.0000000000000000E+00
       EI_SCALE14     1.0000000000000000E+00
       SHIFT_CUTOFF  T
       DO_NONBONDED  T
       IGNORE_MISSING_CRITICAL_PARAMS  T
       &SPLINE
         R0_NB     2.5000000000000000E-01
       &END SPLINE
       &NONBONDED
         &LENNARD-JONES
           ATOMS Br Br
           EPSILON     1.2630795322675199E+02
           SIGMA     3.6900000000000004E+00
         &END LENNARD-JONES
         &LENNARD-JONES
           ATOMS Cs Pb
           EPSILON     8.6920055954630968E+01
           SIGMA     3.9452500000000001E+00
         &END LENNARD-JONES
         &LENNARD-JONES
           ATOMS Cs Cs
           EPSILON     2.2644852172126850E+01
           SIGMA     4.5300000000000002E+00
         &END LENNARD-JONES
         &LENNARD-JONES
           ATOMS Pb Pb
           EPSILON     3.3363415533600227E+02
           SIGMA     6.1000000000000005E+00
         &END LENNARD-JONES
         &LENNARD-JONES
           ATOMS Br Cs
           EPSILON     5.3481070753900497E+01
           SIGMA     3.6300000000000003E+00
         &END LENNARD-JONES
         &LENNARD-JONES
           ATOMS Br Pb
           EPSILON     2.0528187276773045E+02
           SIGMA     2.9800000000000000E+00
         &END LENNARD-JONES
       &END NONBONDED
       &CHARGE
         ATOM Cs
         CHARGE     4.1739999999999999E-01
       &END CHARGE
       &CHARGE
         ATOM Pb
         CHARGE     8.3479999999999999E-01
       &END CHARGE
       &CHARGE
         ATOM Br
         CHARGE    -4.1739999999999999E-01
       &END CHARGE
     &END FORCEFIELD
     &POISSON
       PERIODIC  XYZ
       &EWALD
         EWALD_TYPE  SPME
         GMAX  62 62 62
         O_SPLINE  4
       &END EWALD
     &END POISSON
     &PRINT
       &FF_INFO  LOW
         SPLINE_INFO  F
         SPLINE_DATA  F
       &END FF_INFO
     &END PRINT
   &END MM
   &SUBSYS
     &CELL
       A     1.0000000000000001E+02    0.0000000000000000E+00    0.0000000000000000E+00
       B     0.0000000000000000E+00    1.0000000000000001E+02    0.0000000000000000E+00
       C     0.0000000000000000E+00    0.0000000000000000E+00    1.0000000000000001E+02
       PERIODIC  XYZ
       MULTIPLE_UNIT_CELL  1 1 1
     &END CELL
     &COORD
Cs    6.5168240637211927E-01   -7.8998103128520114E-01   -6.7184830470301140E+00
Cs    1.2124812488667178E+00   -7.1391151006236573E+00   -5.4985532448461099E+00
Cs    1.1852703665709681E+00   -1.1213693692004078E+01   -5.1863389327054126E+00
Cs   -5.0746058700144285E+00   -7.4500436375071937E+00   -4.9893853456992829E+00
Br   -8.7120492923231474E+00   -1.3445083265277569E+01   -7.2643798606603083E+00
Br    1.1905505726025858E+01   -2.0686991011479301E+00   -9.5689258361235616E+00
Br   -3.3828265883509889E+00    9.6091586744926993E-01   -1.1803301258220060E+01
Cs   -6.8760464332130988E-01    5.2906191126368682E+00   -5.6610222256834009E+00
Cs    9.8492380029120155E-02    6.5926416587892139E-02    1.6982214617632838E-01
Cs    1.0737956158758979E+00   -5.5408172058073548E+00   -2.9782587140687233E-01
Br   -5.6738390117170807E+00   -3.7216342106468305E+00    3.3539078864310103E+00
Cs   -1.0387435643136975E+01   -4.5675446928465711E+00    1.2533465291866291E+01
Cs    1.2695915547624306E+01   -1.0311952570430941E+01    8.9066303873862984E-01
Cs   -5.6033380985845618E+00    5.0104835498605214E+00   -2.1605743713654532E-01
Cs   -1.0447639523169576E+00    1.1111398540039712E+01   -7.1635689594018581E-01
Cs   -6.4631730755293637E-01    5.3321589513005625E+00    2.4101492161432783E-01
Cs    6.2720360512566709E-01    7.2081701796978304E-01    6.2461063150089329E+00
Cs    1.6624574957804306E-01   -5.5225499242869516E+00    6.7558329574344294E+00
Cs    2.7203523390523582E-01   -1.1027235306843069E+01    7.6156667370165563E+00
Cs   -5.4318173220631172E+00    6.9988451958466262E+00    1.1124291292931600E+01
Cs   -6.2118078909004559E+00   -1.7032370917645088E+00   -1.0714611917463703E+01
Cs   -5.1579238135733547E+00   -1.1892585043128271E+01   -3.9344571306851637E+00
Cs   -6.0366704202413572E+00    7.2789874217620332E-01    6.2345843509557062E+00
Br   -2.8270522630955757E+00   -2.8159771237471372E+00   -7.6596833433112740E-03
Cs   -4.1043430267714703E-02    6.9918089104850223E+00    5.6070442835950152E+00
Br    1.3306260192644540E+01   -7.3892412085552985E+00   -7.8980657750609780E+00
Cs    7.1037396478649040E-01   -4.6604035549706913E+00    1.2347764939419047E+01
Br   -3.1443411127922252E+00   -1.9641536640928839E-01    3.2791648141431131E+00
Br   -8.0158079593563407E+00   -1.8981894735089264E+00    1.2282320684541352E+01
Cs    9.4694054738593021E+00    1.2777758060366294E+01   -8.7530904907291021E+00
Cs   -1.1203577871165448E+01   -7.5568965619746891E+00    7.2836350902343288E+00
Cs   -5.4884356670114798E+00   -4.7740076735972350E+00    6.8753683304152435E+00
Cs   -7.2796803508400147E+00    9.8679480827509067E+00   -6.6792169560434971E+00
Br   -1.1201423949599949E+01   -7.2461929127731448E+00    1.0976934422580550E+01
Br   -8.8386569611158237E+00   -9.7608677120230460E+00    8.6676445326481080E+00
Cs   -1.1342667751176752E+01   -7.6530118446024966E+00   -3.7851923414719124E+00
Cs   -6.5087594363141656E+00    4.4921868506582756E+00   -5.7667560578917403E+00
Br   -7.6704405425037940E+00   -5.5188325226025698E+00    9.4101216080207184E+00
Cs    1.1581080324288600E+01    7.8765883772089662E+00    9.9252361765915786E+00
Br   -1.2302856094546540E+01    8.8884223485668876E+00    8.8170528571061340E+00
Br   -5.8075078729993042E+00   -3.4632742185047976E+00   -2.6764691233534568E+00
Cs    1.5716109933473443E+00    6.8805004965681393E-01    1.2797604633473057E+01
Cs    1.0299752820093399E+01    6.8590087135213809E+00   -1.2735198051921679E+00
Cs   -1.1299482787627159E+01   -8.1289475198662124E+00   -9.7063126329788290E+00
Cs    1.2509112330294441E+01    9.7991467100454011E-01    5.8232728155460363E+00
Cs   -1.2897433866835375E+01    9.7118830611254161E+00   -7.4863582166992479E+00
Cs    1.1577332612065796E+01   -1.0779005454109488E+01    6.6951278311149780E+00
Cs    6.3091731067013566E+00   -5.9661329372186582E+00   -1.1132798365795908E+01
Cs    6.1171181550760574E+00   -1.0277642080474129E+01    7.3502105959374617E+00
Cs   -4.9066434339676439E+00   -1.1961599941408636E+01    1.7651150136615934E+00
Cs    6.4733284403189506E+00   -1.2545766437247124E+01   -1.0293370799485087E+01
Cs    1.1076621796877234E+01    6.3035618768609245E+00   -7.0700266014889266E+00
Cs    9.5327912112538797E+00    1.3954925095052172E+01    3.7248506765566560E+00
Cs    1.0622276249396743E+01    6.3839086138654535E+00   -1.2674424681727015E+01
Cs    9.0758680352346743E-01   -7.6360083619384360E+00   -1.0844387430605314E+01
Cs   -1.1148102212243410E+01   -1.9287470351418599E+00   -6.4505284935208627E+00
Cs    6.4753640188397981E+00   -4.3544494427780434E+00    1.1545205729549098E+01
Cs    1.1649313531169645E+01   -4.9710115469096072E+00    5.6058410141530466E+00
Cs   -1.1483753058410889E+01   -1.0620643797355102E+01    1.1971457443668989E+01
Cs   -5.2667372349482700E-01   -1.3389545973820423E+00   -1.1880610935272795E+01
Cs   -6.7957449496451128E-01    1.1604640753741688E+01    4.3956366828825431E+00
Cs   -1.6186195449954501E+00    4.3267399821475880E+00   -1.2035221779372602E+01
Cs    5.2184610286813378E+00   -3.3835136996549520E-01   -5.4139789008917507E+00
Cs    6.5938251220677708E+00   -5.7910050727996190E+00   -5.8283424978240932E+00
Cs   -4.0769805633037910E+00   -1.3219120460267039E+01    6.5061943597147724E+00
Cs   -1.1420058998573566E+01   -1.5063288885737376E+00    5.4965076637247190E+00
Cs    5.5380885555886366E+00   -1.2064426272175361E+00   -1.1945216534962729E+01
Cs    3.3840035623671283E+00    1.1882944783187014E+01   -1.2336698720422634E+01
Cs    4.8541208431899757E-01    7.3426265724940585E+00    1.0567202724654862E+01
Cs   -5.5774313267990170E+00    1.2636100135921563E+01    5.8568892569789979E+00
Cs    4.6163059832491946E+00    1.0972848865783400E+01   -7.6033365759783775E+00
Cs    4.7241797019807938E+00    5.4656413555167926E+00   -6.9033268049310506E+00
Cs    5.3119047600548885E+00    3.3724998063148892E-01   -4.7878851673621636E-01
Cs    6.2714053501767903E+00   -5.0039740696636272E+00   -3.9004378757963094E-02
Cs    7.1080331484996870E+00   -1.0636104934903777E+01    5.6102783758481456E-01
Cs    5.6645279344489623E+00    5.5906772085412673E+00   -1.2008425007756237E+01
Cs   -6.2858144260958566E+00    6.3805061094016491E+00    5.3803653671971645E+00
Cs   -5.7611930084030991E+00   -8.4085741458088172E+00   -1.0675458547832843E+01
Cs    4.9327517189396906E+00    5.9717062947592234E+00   -1.3572232463084681E+00
Cs    6.4661064631265219E+00   -6.4990223820010726E-02    5.9245061971589035E+00
Cs    7.0703809115014131E+00   -4.6030240760998540E+00    5.9472235182886894E+00
Cs   -7.3225959503785303E+00    1.1214566543735323E+01   -4.8074319045946134E-01
Cs    1.1193201574256424E+01    9.6041530876158154E-01   -4.8730547577879868E-01
Cs   -5.9344144326637682E+00   -4.0895351594029178E-01    6.8490671318682239E-01
Cs   -1.1739841576762579E+01    5.9854082522732615E+00    6.2201266288115322E+00
Cs   -5.1519466271189378E+00    9.6006867251262640E-01    1.1095139993674367E+01
Cs    4.0956356510573979E+00    1.2339187388682500E+01    4.5096994033849152E+00
Cs    6.4483870901722025E+00    7.2298589186692181E+00    4.7267787873924547E+00
Cs    7.1596386866694228E+00    2.1703086235266156E+00    1.0641806533648632E+01
Cs    4.6368853837165966E+00    1.1719872511221896E+01   -1.5741630719441562E+00
Cs    1.0801612670585303E+01    5.0422651552462439E-01   -6.7185769417567700E+00
Cs    1.3063583125058795E+01   -4.4126580386855521E+00   -6.7319671419332847E+00
Cs    6.8267306811327195E+00   -8.9272596790143695E+00    1.3052043406800196E+01
Cs    1.2062104400057706E+01    1.1639209800527849E+01   -1.8813707717584998E+00
Cs   -1.0094476865498221E+01    8.9518663780005314E-01    1.2231502894480858E+01
Cs   -7.1582723517679652E+00    3.8588791810041312E+00   -1.2170988735872427E+01
Cs   -1.2314929380350833E+01    1.0456820550683899E+01   -8.5717185793513317E-01
Cs   -4.9836330267373157E+00   -4.8844763259069852E+00    1.1771633154513868E+01
Cs   -4.6179584896473607E+00   -1.0278989479351495E+01    1.3352318867609585E+01
Cs    6.4284770676822331E+00    6.9149448218297920E+00    1.0239263642516795E+01
Cs    1.1475698419284793E+01   -5.4404431548566468E+00    7.8864541412928799E-02
Cs   -1.1814916509234017E+01   -8.3922231492257893E-01    7.0709945198337121E-01
Cs   -7.8398649557812696E+00    9.1194726560139880E+00   -1.1773051191046317E+01
Cs   -1.1593924400420047E+01    5.1249643497339452E+00    6.1356756497301136E-02
Cs   -1.1152342041203127E+01   -1.1953105676156360E+01   -4.7981845205330860E+00
Cs   -1.0519629503308463E+01   -7.2624177582721936E+00    1.6192136498025711E+00
Cs   -5.5811068151379173E+00   -5.4056790347365569E+00    3.8890862758767170E-01
Cs   -6.2275449018355298E+00   -1.1797402483064898E+01    9.8273145400249646E+00
Cs    1.2581599862593691E+01   -3.2200121119521139E+00    1.1377773866309811E+01
Cs    1.1909375528022291E+01    8.3594490362991518E+00    4.1552016742760696E+00
Cs   -1.2195321550128154E+01    3.7845004927257140E+00   -5.9527150697260724E+00
Cs   -6.6420651650171090E+00   -6.3859263633634999E-01   -5.6349631982100199E+00
Cs   -9.9689160628265974E+00   -1.3146526879429013E+01    1.1481753514439710E+00
Cs    1.3385435542221860E+01   -5.8167536819426857E+00   -1.1115013627287423E+01
Cs   -5.4907092326560418E+00   -1.4182554964849137E+01   -1.0093586041133436E+01
Cs   -1.6822958501488299E+00    1.0590507204751953E+01   -1.1875224742942128E+01
Cs    1.3790188918845518E+00   -1.3046872250795703E+01   -9.6249381616674334E+00
Cs   -1.1314056450630214E+00    1.0733555917140194E+01   -7.0143827590822996E+00
Cs   -1.1384822921520424E+01    6.3470784993519374E+00    1.0757300427918025E+01
Cs    6.4891913174379134E-01   -1.1995465926559325E+01    1.5813960132571487E+00
Cs   -1.0690147635758894E+01   -1.7113913714815976E+00   -1.3292740998420030E+01
Cs   -1.2790366396978149E+01    1.1872785748192340E+01    5.2789880779133203E+00
Cs    7.7388759133956144E+00   -1.0545550857400444E+01   -5.2658220990329667E+00
Cs    1.1721447225285658E+01    7.2073813841324719E-01   -1.2070643540776063E+01
Cs    7.2754000291843191E-01    1.3017770436382181E+01    1.0701039187683650E+01
Pb    2.8879806301293547E+00   -3.2827518777928200E+00   -2.8302809509827935E+00
Pb    4.0453282806498585E+00   -9.2535780335241835E+00   -2.3169739248373884E+00
Pb   -8.6032458860140864E+00   -3.5986398926939920E+00    3.6734819412133630E+00
Pb   -1.9204178410154014E+00   -9.5041107943176257E+00   -2.2484122741396262E+00
Pb    1.9570157386651772E+00    8.6372141312255746E+00   -4.1834438384124839E+00
Pb    2.1682162891856338E+00    2.5953739451751994E+00   -3.5687658245749536E+00
Pb    3.3881815081339939E+00   -2.6715344872287594E+00    2.9758278205124884E+00
Pb    3.5581928907059370E+00   -8.4974597217585082E+00    3.7845410895020741E+00
Pb   -3.6335965708160067E+00    8.9891589170654260E+00    2.1602035042014549E+00
Pb    2.1934613204842779E+00    8.9877483059641481E+00    1.9231932151960562E+00
Pb    2.8653974065900210E+00    3.0803330940026017E+00    2.4512376042243558E+00
Pb    3.7628710139206940E+00   -1.7991412533032751E+00    9.4929170314356845E+00
Pb    3.5619771129291067E+00   -7.7532937812946221E+00    1.0023455040122629E+01
Pb   -3.1013366282419477E+00    2.8503876470658640E+00    3.1014449376703213E+00
Pb    2.8109240341716273E+00    1.0025234745694311E+01    8.0804954814165022E+00
Pb    3.5416991256196848E+00    4.0158291223306319E+00    8.4037111516121872E+00
Pb   -2.3234940265916695E+00   -2.3043897640895779E+00    9.4088495910548069E+00
Pb   -8.1361687473995516E+00   -1.0093405966344603E+01    4.6979064971465139E+00
Pb   -9.2639842089067592E+00    1.9897866730710376E+00   -2.7093201761634687E+00
Pb   -2.8505897466982439E+00   -4.5135241367643033E+00   -8.9817270416364163E+00
Pb   -2.3717833135235038E+00   -8.7605840858555428E+00    3.7682584129855257E+00
Pb   -4.0458888660586565E+00    8.1464104283131693E+00   -3.6980005490739960E+00
Pb   -2.5658182878157265E+00   -8.0273655491333535E+00    9.4701555081958571E+00
Pb   -8.7687764610562660E+00   -3.9325246952492798E+00   -2.3410693888132927E+00
Pb   -8.0106823482729315E+00   -1.0071658461203933E+01   -1.5697002597340519E+00
Pb   -3.3249647974318282E+00    2.3267750884680622E+00   -2.9568205987391676E+00
Pb   -8.5108222213324947E+00   -8.0268736657077362E+00    1.1060923279570984E+01
Pb   -8.7106915566098166E+00   -5.0578574128097262E+00   -8.5039561570349509E+00
Pb    8.8721689125576066E+00   -3.0751593757195823E+00   -9.3308438585042950E+00
Pb    1.0900243199360114E+01   -8.5918854763572678E+00   -9.1147958848688226E+00
Pb   -2.3054335846097436E+00   -1.0365257955614188E+01   -8.2549701048855297E+00
Pb   -1.0240879688767965E+01    6.7176744237082167E+00   -9.3678076435932649E+00
Pb    3.0254764769531235E+00   -3.2509003481584613E+00   -9.1522981585541121E+00
Pb    3.6977532399836228E+00   -9.3465910117057529E+00   -8.3575320623043883E+00
Pb   -3.7291134704961815E+00    1.4838736034655413E+00   -9.1474070146687634E+00
Pb    1.7218221881490086E+00    8.4542954262949852E+00   -1.0380904146231245E+01
Pb    2.4577308334832622E+00    2.4955268570893367E+00   -9.9435275434722872E+00
Pb    9.0522721194003228E+00   -2.5653326995649453E+00   -3.3912039176169788E+00
Pb    1.0125924168770259E+01   -8.3966733727527227E+00   -2.3897430504726427E+00
Pb   -8.0733519719921460E+00   -1.9716186942640332E+00    9.3513799455637194E+00
Pb    7.5142543156004491E+00    9.4398821444564813E+00   -1.1079039979502660E+01
Pb   -9.5949062478611946E+00    9.2531361372202214E-01   -8.7302698399003535E+00
Pb   -3.0581127751751693E+00    1.0044387126032152E+01    8.8059141870638467E+00
Pb    8.2030734323138468E+00    9.2410232254968587E+00   -4.5190593264497636E+00
Pb    8.5393015244416137E+00    3.4105665592764471E+00   -4.1159114905133904E+00
Pb    9.4186086855078290E+00   -1.7148344775804603E+00    2.8545705150573628E+00
Pb    9.7570488652694980E+00   -8.1130388247978296E+00    3.9684193033335462E+00
Pb    8.2790238108550049E+00    3.2928398518824888E+00   -1.0072661853957651E+01
Pb   -2.4165218014942247E+00    3.9520704130411257E+00    9.3156158408720646E+00
Pb    7.8362886406085215E+00    1.0248505747611372E+01    1.6748330089439345E+00
Pb    8.8444999729418488E+00    4.0483050607679898E+00    1.9163019933951708E+00
Pb    9.7099084119848644E+00   -1.8233913937851385E+00    8.9730552882713255E+00
Pb    9.8448943860206306E+00   -7.6135908533467571E+00    9.8590166563603034E+00
Pb    8.6757571253022370E+00    1.0666246822359364E+01    7.6758030559772266E+00
Pb    9.5365157144851178E+00    4.4616883063281003E+00    7.9261905901115091E+00
Pb   -8.5822370841104778E+00    3.7368001394117241E+00    9.3183187779495196E+00
Pb   -2.5244623897947442E+00   -2.9220263759173393E+00    3.3061583813496807E+00
Pb   -9.5905669983949444E+00    8.6224651121201248E+00    2.7799662708893194E+00
Pb   -1.0008875514366309E+01    7.9582514382661262E+00   -3.3370794082103665E+00
Pb   -8.1456694477923541E+00   -1.0828456708588661E+01   -7.8145852875739470E+00
Pb   -4.3594601256609575E+00    7.3533897778172568E+00   -9.4971215533950488E+00
Pb   -9.3730953378752595E+00    2.4982748291499903E+00    3.0771049152527707E+00
Pb   -9.0180781162505834E+00    1.0362837978150541E+01    8.5375820741064317E+00
Pb   -2.8433640952915362E+00   -3.8047046191390064E+00   -2.7157836885386581E+00
Br    9.3078700141229945E-02   -3.6647791238008187E+00   -2.6568400923049476E+00
Br    3.1776035867274737E+00   -2.9183689780390205E+00   -5.8396054556391297E+00
Br    2.8278938952972732E+00   -2.8175171371313157E-01   -3.0940442521350593E+00
Br    1.0874250589821941E+00   -9.3293195176882850E+00   -2.4504084963434978E+00
Br    4.1599412196261216E+00   -8.8892929836661043E+00   -5.3625821070837318E+00
Br    3.2632026378817685E+00   -6.4880394716403114E+00   -2.6447078888679685E+00
Br   -2.5811844567937166E+00   -4.3643962272277461E+00   -5.6038742189731963E+00
Br   -8.5271582761401419E+00   -2.9328566142769144E+00    6.6987923174047701E+00
Br   -2.3755732885767178E+00   -6.7627250605868927E-01   -3.3715597740330527E+00
Br    4.8154499439342420E+00   -1.2147426032801176E+01   -2.3073725839338222E+00
Br    1.1888689300236448E+01   -7.8215511795870141E-01    2.7610728864937086E+00
Br   -5.1400324094690832E+00   -9.1923146921279031E+00   -1.5673702675882788E+00
Br   -1.1392248681706478E+01   -4.3297748622405505E+00    3.6676055464242352E+00
Br   -8.8550349437489224E+00   -4.2559945038426399E+00    4.7255898325806306E-01
Br    1.2535650788858652E+01   -7.8257622602946615E+00    3.5851382103193847E+00
Br   -8.7861616997023650E-01    8.2353066283732321E+00   -3.7636219729687221E+00
Br    2.0640303479152258E+00    8.5462304120956976E+00   -7.2464452676841109E+00
Br    1.5285361117847831E+00    1.1438247974575118E+01   -3.9185309508141644E+00
Br   -5.0603564678794477E-01    2.7679351438765329E+00   -3.0694838624259502E+00
Br    3.0536500948545853E+00    2.8106277555288441E+00   -6.7687506808413698E+00
Br    2.4061868145533181E+00    5.5562793699673962E+00   -4.3443427425096477E+00
Br    4.9563003969609742E-01   -2.4537142456802572E+00    2.3303766247696540E+00
Br    3.5577773440617566E+00   -3.1889354288730622E+00    7.5318448668949545E-02
Br    3.3032701075405693E+00    2.1922536012854896E-01    1.9666343808020175E+00
Br    7.7265841548210656E-01   -8.5874837830891764E+00    4.7856340356760718E+00
Br    4.0902419511313681E+00   -8.6588794096766755E+00    7.6947169612336164E-01
Br    3.1633351467672028E+00   -5.5763389807934249E+00    3.6533265175596727E+00
Br   -7.1704519953817263E+00    6.3302404721213712E+00   -9.1939110520507885E+00
Br   -4.5534988164195127E+00    7.0665445628202761E+00   -1.2286968782280711E+01
Br    4.2115725828803452E+00   -1.1846252438919542E+01    4.1656739281311213E+00
Br   -4.6471686568852411E+00    1.0204426644631690E+01   -9.4392893600201599E+00
Br   -3.8803975748135184E+00    4.4454833966754128E+00   -9.2580779311470121E+00
Br   -8.4847936483968773E+00   -6.7224943213536170E-01    3.3320776707548712E+00
Br   -2.4786956070379245E+00   -9.5563915466479372E+00   -5.0175820850599262E+00
Br   -6.6873745377228726E+00    8.6722573353038879E+00    2.6026010210032786E+00
Br   -3.8570356144764615E+00    8.4325008258488321E+00   -7.5141429239835977E-01
Br   -3.7677479638072739E+00    1.1794719844417511E+01    1.9245740884355675E+00
Br   -8.9634218470283966E-01    9.0072184426172832E+00    2.0164509618728235E+00
Br    2.4446201301404500E+00    8.5882199345460091E+00   -1.4163609929973269E+00
Br    1.7794070630942114E+00    1.1777606061033570E+01    1.9593008160688088E+00
Br   -1.9695214316330115E-01    2.9039794904100069E+00    2.9275703883168029E+00
Br    2.1966669314006539E+00    3.6517254865558808E+00   -6.4236903987347682E-01
Br    2.0768313165433101E+00    6.2653181102197983E+00    2.6394372112910993E+00
Br    8.3172775243490260E-01   -1.6217058545994547E+00    9.5124163524349949E+00
Br    3.3636183452033852E+00   -2.1556395897469467E+00    5.7595652540298072E+00
Br    3.4802131326434829E+00    1.2005402335144961E+00    9.0518728516099269E+00
Br    2.1562454753836088E-01   -8.3387846055436246E+00    9.7461860356446923E+00
Br    3.6204669950224586E+00   -8.2431446285570082E+00    6.8758306356197210E+00
Br    2.9189429213920697E+00   -4.6067410694385265E+00    9.8409980371294061E+00
Br   -1.1824158170364997E+01    1.2959986784938446E+00    3.5425777665208549E+00
Br   -8.6300529939392341E+00    1.8749032989576644E+00    3.4457371059539033E-01
Br    4.4192764027013043E+00   -1.0534196010198702E+01    1.0270269950327847E+01
Br   -9.8670325875052018E+00    5.3080278018030098E+00    2.9477986111868080E+00
Br   -8.0064633338242359E+00    8.3097813231288897E-01    9.2273494032716972E+00
Br   -2.5413870846190352E+00   -6.5954228124736876E+00   -2.3169773684351940E+00
Br   -6.2220806775831949E+00    3.1387632644958354E+00    2.8864367943260163E+00
Br   -3.0937392584645225E+00    1.8032413724268734E+00    1.1756941554421696E-01
Br   -3.1061122871569706E+00    5.6836554075457100E+00    2.4207123090259164E+00
Br   -1.1983759298907508E-01    9.5030644131848359E+00    7.7786268756715664E+00
Br    2.5527041572029652E+00    9.5315245315852106E+00    5.2088980962392641E+00
Br    1.8311462442067823E+00    1.2745442856739837E+01    7.6406067511317843E+00
Br    4.1215911835851238E-01    4.0917269946543176E+00    8.8530057311028738E+00
Br    3.0406861623690431E+00    3.3972677487691820E+00    5.5031482598728223E+00
Br    2.9392906538079924E+00    6.9499920109814290E+00    8.0631572814018710E+00
Br   -5.2120877186039642E+00   -1.9904078632714719E+00    8.7469317579637753E+00
Br    3.9664375007856254E+00   -2.0286214874575035E+00    1.2200512068518698E+01
Br   -1.8655375360012043E+00   -2.4537593888129394E+00    6.4075039470687187E+00
Br   -2.4750463416310691E+00    8.5950371570433082E-01    9.0679115394999190E+00
Br   -2.2019215681786619E+00   -1.2490284898662420E+01   -2.2944116440970430E+00
Br    3.9977116929758720E+00   -7.3987879971148498E+00    1.2854466813924491E+01
Br   -1.2088518796903305E+01    1.2261270703941696E+00   -2.3551836504872945E+00
Br   -2.1738512142206674E+00   -1.1580639751812891E+01    3.4213133287213480E+00
Br   -1.1860358298609277E+01   -4.1898220632893990E+00   -1.9737394239690518E+00
Br    2.8448794288376007E+00    9.8738119918077167E+00    1.0852933667993868E+01
Br   -8.7037248154130999E+00   -4.4107943147984017E+00   -5.8137735307733793E+00
Br   -8.8901667971514318E+00   -1.0058858613541162E+00   -2.6600067993644139E+00
Br    4.3354656300022612E+00    3.9591954110770251E+00    1.1602004600499155E+01
Br   -7.1011391330346756E+00    7.7075617981321338E+00   -3.7506940010482284E+00
Br   -3.6420792855412722E+00    7.7184013254176094E+00   -6.5748483046022868E+00
Br   -4.0425209600916956E+00    1.0996246033229299E+01   -4.0862119636887382E+00
Br   -6.2817421305856564E+00    2.5822566888907641E+00   -2.6259524162737873E+00
Br   -1.1209276019235482E+01   -9.8681963236996353E+00    4.9453646610241346E+00
Br   -3.8218856513946537E+00    1.5467057546927578E+00   -6.1746142259135368E+00
Br   -5.7809694835148564E+00   -4.3299481199381979E+00   -8.9673448456583227E+00
Br   -3.2039353505331585E+00   -3.6082221281229701E+00   -1.1613417037618502E+01
Br   -2.7367175896975553E+00   -1.5104878180791830E+00   -8.8265486273095082E+00
Br   -3.6819634703315685E+00    4.3036805263506643E+00    1.2008755099739039E+01
Br   -5.8758819001461031E+00   -8.4402735135445806E+00    1.0246304424263686E+01
Br   -2.4856979085314186E+00   -8.4723983762210029E+00    6.6121527079739542E+00
Br   -2.3184834107528305E+00   -5.2970531892093087E+00    9.1996196201893774E+00
Br   -8.0682742861709418E+00   -1.0337938842736238E+01    1.7121370434972025E+00
Br   -8.4638296607695942E+00   -6.5676878320048111E+00    4.2830274977928280E+00
Br   -8.7696183698716386E+00    9.7617455683623149E+00    1.1455326401279834E+01
Br    1.0657240790793091E+01    1.1278501498710099E+01    1.9143464533166010E+00
Br   -7.8812277724541646E+00   -6.7903459810806455E+00    1.3393849699920217E+01
Br    1.0832089518909557E+01    8.7464996606545569E+00   -3.9342998198687864E+00
Br    1.1634372785362441E+01    4.1636313748749041E+00    1.0650033923807214E+00
Br   -8.1042934544170304E+00    3.7141351241108604E+00    1.2175452016959531E+01
Br   -1.1519463969456288E+01   -4.9095917709195724E+00   -8.8805052877757245E+00
Br    1.2249857200986705E+01   -1.5557486300308532E+00    7.8342870141134950E+00
Br   -5.3178681872524463E+00   -9.4530148905378759E+00    3.8541783736951669E+00
Br    5.9026702457458589E+00   -3.3285322019617172E+00   -9.0032244853547390E+00
Br    8.3728659696254457E+00   -3.1161686063735141E+00   -1.2209259941718143E+01
Br    1.2516328640841058E+01   -7.3872494881772930E+00    8.6006168734858761E+00
Br    8.4964083211605175E+00   -1.7185459532777084E-01   -9.1912577249739105E+00
Br   -7.7925070066515012E+00   -1.0903690656968806E+01    1.2496296906673420E+01
Br   -1.4901019785227312E+00   -9.2176937044137901E+00    9.1975576770774936E-01
Br   -2.1098268593505032E+00   -5.7024660658790722E+00    4.2030476375848096E+00
Br    6.3188672280809968E+00   -9.0251835227679003E+00   -9.0006609033223857E+00
Br   -5.1763265670120928E+00   -1.1223577238214341E+01   -7.7437799987916778E+00
Br    1.1670379442920705E+01   -8.5874853169595795E+00   -1.1892698960218615E+01
Br    9.9172689789837847E+00   -5.8355269473551727E+00   -9.5796875055018997E+00
Br   -2.8346515630185030E+00   -1.1154217118356778E+01    9.4863540582491019E+00