 # Version information for this restart file 
 # current date 2021-06-17 12:37:20.813
 # current working dir /user/ub2042/exercises/2_fitting/MM_MD_workdir/md_settings.002
 # Program compiled at                              Thu Apr 22 21:44:59 EDT 2021
 # Program compiled on                cpn-k07-07-02.compute.cbls.ccr.buffalo.edu
 # Program compiled for                                                    local
 # Source code revision number                                       git:36754bb
 &GLOBAL
   PRINT_LEVEL  LOW
   PROJECT_NAME cp2k
   RUN_TYPE  MD
 &END GLOBAL
 &MOTION
   &MD
     ENSEMBLE  NVT
     STEPS  10000
     TIMESTEP     2.4999999999999996E+00
     STEP_START_VAL  7500
     TIME_START_VAL     1.8749999999998061E+04
     ECONS_START_VAL    -1.3948793637821183E+01
     TEMPERATURE     3.0000000000000000E+02
     &BAROSTAT
       PRESSURE     1.0100000000000000E+00
       TIMECON     9.9999999999999982E+03
     &END BAROSTAT
     &THERMOSTAT
       TYPE  CSVR
       &CSVR
         TIMECON     9.9999999999999982E+03
         &THERMOSTAT_ENERGY
              -2.6149479876119819E-01
         &END THERMOSTAT_ENERGY
         &RNG_INIT
Wiener process for Thermostat # 1        1 F T F   1.2027761634983569E+00         410547301.0        2880645229.0         554475243.0         200345305.0        3532470403.0        3188192634.0             12345.0             12345.0             12345.0             12345.0             12345.0             12345.0             12345.0             12345.0             12345.0             12345.0             12345.0             12345.0
         &END RNG_INIT
       &END CSVR
     &END THERMOSTAT
     &AVERAGES  T
       &RESTART_AVERAGES
         ITIMES_START  1
         AVECPU     1.7523239219716408E-02
         AVEHUGONIOT     0.0000000000000000E+00
         AVETEMP_BARO     0.0000000000000000E+00
         AVEPOT    -1.4281539285566963E+01
         AVEKIN     4.6719022874791372E-01
         AVETEMP     2.3699089154468965E+02
         AVEKIN_QM     0.0000000000000000E+00
         AVETEMP_QM     0.0000000000000000E+00
         AVEVOL     6.7483345830910886E+06
         AVECELL_A     1.8897261328855703E+02
         AVECELL_B     1.8897261328855703E+02
         AVECELL_C     1.8897261328855703E+02
         AVEALPHA     9.0000000000000000E+01
         AVEBETA     9.0000000000000000E+01
         AVEGAMMA     9.0000000000000000E+01
         AVE_ECONS    -3.9848966907546735E+00
         AVE_PRESS     0.0000000000000000E+00
         AVE_PXX     0.0000000000000000E+00
       &END RESTART_AVERAGES
     &END AVERAGES
     &PRINT
       &ENERGY  SILENT
         &EACH
           MD  10
         &END EACH
       &END ENERGY
     &END PRINT
   &END MD
   &PRINT
     &TRAJECTORY  SILENT
       &EACH
         MD  10
       &END EACH
     &END TRAJECTORY
     &CELL  SILENT
       &EACH
         MD  10
       &END EACH
     &END CELL
     &VELOCITIES  SILENT
       &EACH
         MD  10
       &END EACH
     &END VELOCITIES
     &FORCES  SILENT
       &EACH
         MD  10
       &END EACH
     &END FORCES
     &RESTART  SILENT
       &EACH
         MD  10
       &END EACH
     &END RESTART
   &END PRINT
 &END MOTION
 &FORCE_EVAL
   METHOD  FIST
   &MM
     &FORCEFIELD
       VDW_SCALE14     1.0000000000000000E+00
       EI_SCALE14     1.0000000000000000E+00
       SHIFT_CUTOFF  T
       DO_NONBONDED  T
       IGNORE_MISSING_CRITICAL_PARAMS  T
       &SPLINE
         R0_NB     2.5000000000000000E-01
       &END SPLINE
       &NONBONDED
         &LENNARD-JONES
           ATOMS Br Br
           EPSILON     1.2630795322675199E+02
           SIGMA     3.6900000000000004E+00
         &END LENNARD-JONES
         &LENNARD-JONES
           ATOMS Cs Pb
           EPSILON     8.6920055954630968E+01
           SIGMA     3.9452500000000001E+00
         &END LENNARD-JONES
         &LENNARD-JONES
           ATOMS Cs Cs
           EPSILON     2.2644852172126850E+01
           SIGMA     4.5300000000000002E+00
         &END LENNARD-JONES
         &LENNARD-JONES
           ATOMS Pb Pb
           EPSILON     3.3363415533600227E+02
           SIGMA     6.1000000000000005E+00
         &END LENNARD-JONES
         &LENNARD-JONES
           ATOMS Br Cs
           EPSILON     5.3481070753900497E+01
           SIGMA     3.6300000000000003E+00
         &END LENNARD-JONES
         &LENNARD-JONES
           ATOMS Br Pb
           EPSILON     2.0528187276773045E+02
           SIGMA     2.9800000000000000E+00
         &END LENNARD-JONES
       &END NONBONDED
       &CHARGE
         ATOM Cs
         CHARGE     4.1739999999999999E-01
       &END CHARGE
       &CHARGE
         ATOM Pb
         CHARGE     8.3479999999999999E-01
       &END CHARGE
       &CHARGE
         ATOM Br
         CHARGE    -4.1739999999999999E-01
       &END CHARGE
     &END FORCEFIELD
     &POISSON
       PERIODIC  XYZ
       &EWALD
         EWALD_TYPE  SPME
         GMAX  62 62 62
         O_SPLINE  4
       &END EWALD
     &END POISSON
     &PRINT
       &FF_INFO  LOW
         SPLINE_INFO  F
         SPLINE_DATA  F
       &END FF_INFO
     &END PRINT
   &END MM
   &SUBSYS
     &CELL
       A     1.0000000000000001E+02    0.0000000000000000E+00    0.0000000000000000E+00
       B     0.0000000000000000E+00    1.0000000000000001E+02    0.0000000000000000E+00
       C     0.0000000000000000E+00    0.0000000000000000E+00    1.0000000000000001E+02
       PERIODIC  XYZ
       MULTIPLE_UNIT_CELL  1 1 1
     &END CELL
     &COORD
Cs   -7.6525785520420420E-01   -2.5393873423100072E-01   -5.4456944641652880E+00
Cs    5.7916374552764860E-01   -6.5911573452210996E+00   -5.7645955396127384E+00
Cs    1.2315215904206751E+00   -1.1767880643932017E+01   -5.1236709620753258E+00
Cs   -5.0377975819439058E+00   -8.0637091615457095E+00   -4.5807208762104379E+00
Br   -7.4686877298618537E+00   -1.4293958128612061E+01   -5.5518573812007670E+00
Br    1.1809041826733420E+01   -3.9253628947241586E+00   -9.7418681877296098E+00
Br   -4.5051864848673731E+00    1.4217260131648370E+00   -1.1845469478174783E+01
Cs   -1.6603292357731947E+00    5.6490696598115697E+00   -6.6621551921668587E+00
Cs    3.8910970316615262E-01    6.7876740623155585E-01   -6.7703516205993952E-01
Cs    9.1551887518994102E-01   -6.5143293911489808E+00    1.2819999550671930E+00
Br   -5.6376344858497749E+00   -3.1301708195066160E+00    4.0145503589079325E+00
Cs   -1.1491792028753181E+01   -6.0392633488752043E+00    1.2940451971630663E+01
Cs    1.3416912953061130E+01   -9.1317451356773169E+00    4.6707693178119480E-01
Cs   -7.2089515429132476E+00    5.6487924667878584E+00   -7.6960248981762325E-01
Cs   -8.6658613184367239E-01    1.1096164198036350E+01   -1.3596522943409461E+00
Cs   -4.7164939890118840E-01    6.1075791573991571E+00   -1.3228983181004399E+00
Cs   -4.1469889427974235E-02    1.2869691686851381E-01    6.0032230550524037E+00
Cs    7.3423621026369412E-01   -4.2736714734637804E+00    6.8914953766860743E+00
Cs    1.8743133037562272E+00   -9.9773397641815524E+00    7.5025519407104442E+00
Cs   -5.6075248584287269E+00    7.1352205621601019E+00    1.1033314069831514E+01
Cs   -7.6125561569742679E+00   -3.2152253300258802E+00   -1.1297932287229600E+01
Cs   -4.5553171756016804E+00   -1.3030855279034288E+01   -3.7801746710888935E+00
Cs   -5.7410724295687388E+00   -4.5602441404721850E-01    5.9594970451454126E+00
Br   -2.6739307291956393E+00   -3.3598674451091157E+00    6.1686928602994773E-01
Cs    4.9261745083986264E-01    6.6207778124603962E+00    5.5387016358769836E+00
Br    1.2760973274441131E+01   -8.7058170814773650E+00   -8.6765903558653221E+00
Cs    1.3577367385283514E+00   -3.4769159879757994E+00    1.2206470670051610E+01
Br   -3.0087192064732853E+00    7.5629623559321832E-02    3.3616585331587987E+00
Br   -7.9606983213351024E+00   -2.2095958072426605E+00    1.2933678227296602E+01
Cs    1.0422531664330384E+01    1.1987610903581242E+01   -8.9052624153096307E+00
Cs   -9.9648553086820701E+00   -6.8617705566233704E+00    7.6872443709804887E+00
Cs   -4.7478654099402560E+00   -5.4660686498838418E+00    7.8466108252526512E+00
Cs   -7.6071999839256188E+00    9.3888342079215210E+00   -8.0327695038361391E+00
Br   -1.0428761523272721E+01   -9.1215667048814986E+00    1.0037549550165480E+01
Br   -6.8276532681718338E+00   -8.6137345904524345E+00    7.7310459930737743E+00
Cs   -1.0631629607959335E+01   -8.3043437170723546E+00   -4.3269396202850245E+00
Cs   -6.7662456950298084E+00    4.5014168045193372E+00   -6.2753449781688309E+00
Br   -7.6414469902638640E+00   -5.9566161537735498E+00    1.0466190435499520E+01
Cs    1.1670235135322590E+01    8.6264187627387745E+00    9.4688091489994424E+00
Br   -1.2309824917771149E+01    8.2685954716634509E+00    7.2960975394914156E+00
Br   -5.7719637670248165E+00   -3.9412675943535298E+00   -2.1861625274837291E+00
Cs    6.2754404737908109E-01    1.7324506993944624E+00    1.0512781596179105E+01
Cs    1.0851547668771600E+01    7.2265130747190662E+00   -1.6779320329528036E+00
Cs   -1.1273457820573149E+01   -9.4759666682730384E+00   -9.3029166045310543E+00
Cs    1.1651503896869492E+01    1.5615125311733817E+00    5.6239468315463030E+00
Cs   -1.2023700435451852E+01    9.1593016642033689E+00   -7.1074822815725467E+00
Cs    1.2359195590545944E+01   -9.6013626006539230E+00    6.5923443495778020E+00
Cs    4.9832113250851569E+00   -6.7370569324263920E+00   -1.1174516420870392E+01
Cs    7.8665196991868296E+00   -1.0558462006356061E+01    6.8005234268115524E+00
Cs   -4.0378423352088078E+00   -1.1621022807254455E+01    2.5676742691287062E+00
Cs    7.5097457637756762E+00   -1.2494768012909468E+01   -1.1004203616561703E+01
Cs    1.1196851954038619E+01    6.6946109507428702E+00   -6.8539123162726936E+00
Cs    1.0904354198276256E+01    1.2598743521153024E+01    3.7977310705813934E+00
Cs    9.3729193986380928E+00    4.9716393378905019E+00   -1.2904473605010494E+01
Cs   -5.1106378163314370E-01   -6.9848808566287470E+00   -1.0155072686379606E+01
Cs   -1.0849886071813183E+01   -1.8123151322944229E+00   -4.8094439808473419E+00
Cs    6.4717896298259099E+00   -4.1716850480717147E+00    1.1349349968916968E+01
Cs    1.2128498505373306E+01   -3.8779051087827314E+00    6.1682114061313991E+00
Cs   -1.0154017366987782E+01   -1.2463228062174229E+01    9.0283663131303413E+00
Cs   -1.6162112219310771E+00   -2.6732617314195775E+00   -1.2085887951890923E+01
Cs    4.9045918253775966E-02    1.2411825080538787E+01    3.9220290062704928E+00
Cs   -1.1177374654843113E+00    4.0771663965794565E+00   -1.2093948784592634E+01
Cs    5.2040924792926537E+00    9.8660273823115263E-01   -5.8432345260360981E+00
Cs    6.5564829462118928E+00   -5.4172659938590000E+00   -4.8091758938384652E+00
Cs    7.3722064486283556E-01   -1.3997939469475536E+01    6.4928152078116979E+00
Cs   -1.0787279407064657E+01   -7.5895491913439098E-02    7.0606663753579015E+00
Cs    4.5468375559433039E+00   -1.0970539366647734E+00   -1.2075379306528777E+01
Cs    4.3438891507825197E+00    1.0385340936395572E+01   -1.3806295945107705E+01
Cs    4.6765276930556615E-01    8.7721328429633054E+00    1.1886814132515243E+01
Cs   -6.8515855641114074E+00    1.2005434477102639E+01    6.0954038017283141E+00
Cs    4.2453511589246808E+00    1.1497534644278378E+01   -7.9455782830765633E+00
Cs    4.3093691364314806E+00    6.3187716177281903E+00   -7.6114215423139537E+00
Cs    6.0023298720084464E+00    1.1575397017999769E+00    5.6962442410272540E-01
Cs    6.4310842925864691E+00   -5.2427666694749808E+00    1.1634406995688096E+00
Cs    7.8937244258244395E+00   -1.1210510414502048E+01   -9.9698691978217201E-03
Cs    4.5742518135000063E+00    4.3762802404585202E+00   -1.2341932597015266E+01
Cs   -6.2006767355330048E+00    6.5375500459232603E+00    5.1023596774174758E+00
Cs   -5.5664013374694523E+00   -8.5880707997903851E+00   -9.4658615581026950E+00
Cs    5.0165865883347678E+00    6.7075759652811477E+00   -1.0316237814814879E+00
Cs    6.0818613994210242E+00    1.2360136283461125E+00    5.8603361109433996E+00
Cs    7.5149185162574552E+00   -4.8171970685456182E+00    6.3521522888482274E+00
Cs   -7.1120525553014327E+00    1.0879550538077925E+01   -1.4556353151521513E+00
Cs    1.1828672583955544E+01    2.2827344864161740E+00   -1.1604921833564432E+00
Cs   -5.1847451661942143E+00   -5.2581444527215149E-01   -3.9844170595928702E-01
Cs   -1.1515567140763771E+01    6.1147875837907941E+00    5.0263864896853248E+00
Cs   -5.3234708972918723E+00    1.7881655576449123E+00    1.1819797405638527E+01
Cs    5.1230457932188127E+00    1.3325774358137785E+01    3.9196483687157837E+00
Cs    5.8241328155717902E+00    6.9907489770143911E+00    4.9165076555154270E+00
Cs    6.6721815716276192E+00    2.7546661604950797E+00    1.1814037489061809E+01
Cs    4.3978372092208167E+00    1.1856375794248613E+01   -1.7011021788799447E+00
Cs    1.1251961519633641E+01    9.9927767811253332E-01   -6.6301408471322869E+00
Cs    1.2548955162784377E+01   -5.1861101968035443E+00   -6.1127740362648311E+00
Cs    8.1225297980475624E+00   -9.3203506662710733E+00    1.2115008148728631E+01
Cs    9.4450682180080481E+00    1.3732334404642225E+01   -2.3160557656107850E+00
Cs   -1.1597790093299395E+01    6.5805026699262481E-01    1.2254072770521228E+01
Cs   -7.2595528001261842E+00    3.3308962352614895E+00   -1.1414854893232627E+01
Cs   -1.3005958962373255E+01    8.8361309409819295E+00   -6.6097189450713034E-01
Cs   -4.6912748572185228E+00   -4.4381756984512872E+00    1.3036219319230311E+01
Cs   -4.2904899108154346E+00   -1.0515196538570352E+01    1.3747073888333002E+01
Cs    5.9434111276645822E+00    7.9118348671686087E+00    1.0963962239488977E+01
Cs    1.1731669242187937E+01   -3.8446587286019653E+00    7.7188020281061892E-02
Cs   -1.1377333281147079E+01   -1.4871700448182468E+00    1.3371461991785032E+00
Cs   -8.9715659856486401E+00    8.0275204183100772E+00   -1.3213296522052651E+01
Cs   -1.1617959312382609E+01    4.3770240061140759E+00    4.1849284287877174E-02
Cs   -1.0440621265273766E+01   -1.2830248905858630E+01   -2.8679049517736233E+00
Cs   -1.0689353390114903E+01   -7.4080094111274404E+00    9.2021924443075431E-01
Cs   -4.9698550927084542E+00   -6.1265350859564522E+00    7.5952217410833500E-01
Cs   -4.0788665132610813E+00   -1.1058410538373847E+01    8.1767450175359375E+00
Cs    1.1471544824302425E+01   -3.2427555886386195E+00    1.2808975020376394E+01
Cs    1.1543293233908942E+01    7.9710031043274894E+00    4.8004519202978617E+00
Cs   -1.2347202934482482E+01    2.8493018069317135E+00   -5.5300701535400600E+00
Cs   -6.4873572111488178E+00   -2.3208187422071176E+00   -6.2903088323973915E+00
Cs   -9.7950836017666134E+00   -1.1952852537014625E+01    2.3247851940062247E+00
Cs    1.2332454835979776E+01   -8.0864496950357534E+00   -1.1937219384207744E+01
Cs   -5.4738909143262440E+00   -1.4730524180618124E+01   -8.5546118395744664E+00
Cs   -2.2074980267651272E+00    9.9583070513143639E+00   -1.2793575077124558E+01
Cs    1.7246799184730308E-01   -1.1655187793136784E+01   -1.1979660337950882E+01
Cs   -2.2661937276622508E+00    1.0824500238916535E+01   -7.7852344663296398E+00
Cs   -1.2630296958361013E+01    6.3517864281923293E+00    1.0247504453945604E+01
Cs    9.6752441447353521E-01   -1.1051163459343529E+01    1.4200604444389917E+00
Cs   -1.3366135559944995E+01    2.7725564170858172E+00   -1.2015979188666154E+01
Cs   -1.1707437055470395E+01    1.2072147884025858E+01    5.1855087026523554E+00
Cs    6.6877982633676725E+00   -1.1762156876563569E+01   -5.9059642646743589E+00
Cs    1.4054177707235109E+01   -3.2413424519324816E+00   -1.2328991303142628E+01
Cs   -6.8971621345944056E-01    1.3446691610198165E+01    8.9567754187537645E+00
Pb    3.9170162723154336E+00   -2.9208063124769201E+00   -2.6851146225886420E+00
Pb    4.2433497646552958E+00   -9.1565163324288932E+00   -2.5112472379230186E+00
Pb   -8.6118365594050914E+00   -3.7141867237764239E+00    3.7909509590054831E+00
Pb   -1.5312027885486941E+00   -9.8009730135609878E+00   -1.4156844591996172E+00
Pb    2.0993129602830871E+00    9.2561995182431573E+00   -4.4793635471483508E+00
Pb    2.4845542021837481E+00    3.4836584721236941E+00   -3.5947036691355296E+00
Pb    3.5655705425130351E+00   -2.3723102004477417E+00    3.1069458477067924E+00
Pb    4.4103681463864186E+00   -8.5352226782402383E+00    3.9855888839139704E+00
Pb   -3.5431992411520765E+00    8.8821432469686901E+00    1.6776767578280956E+00
Pb    2.4944815351863969E+00    9.9307989896287996E+00    1.5959019450733039E+00
Pb    2.7076250957103922E+00    3.7885581504836230E+00    2.6246266904317967E+00
Pb    3.4295632916915353E+00   -1.2826928167029197E+00    9.0336902791745679E+00
Pb    4.2561759736396700E+00   -7.5071384687226068E+00    9.7712517889434718E+00
Pb   -3.1326057379515793E+00    3.0163152568584253E+00    2.3987613151746876E+00
Pb    2.6000200602380525E+00    1.0866123242462042E+01    7.6725971078206721E+00
Pb    3.1509899796878105E+00    4.6413582918375855E+00    8.4646465539019093E+00
Pb   -2.3278362614702246E+00   -2.0732333435151915E+00    9.5909611348160979E+00
Pb   -7.4379928870801946E+00   -9.4271255321052543E+00    4.9958814771669884E+00
Pb   -9.0373287486449421E+00    1.7001938729617927E+00   -2.3355151609515423E+00
Pb   -3.3497897145889679E+00   -4.6350648281219131E+00   -8.2074134053817698E+00
Pb   -1.6295688747022838E+00   -8.4497399829364905E+00    4.6141637659606927E+00
Pb   -3.9991319678897796E+00    8.2064889267549503E+00   -4.2251863452443779E+00
Pb   -1.5789437625997553E+00   -7.5248519086282775E+00    1.0964352800463063E+01
Pb   -8.7365182393697545E+00   -4.5272804002472080E+00   -1.9461845809729590E+00
Pb   -7.4768966640908578E+00   -1.0167428599975391E+01   -1.0427269270257902E+00
Pb   -3.5181348878466041E+00    2.4890397914799793E+00   -3.2253307002241316E+00
Pb   -7.4384635559707588E+00   -8.9184432020239335E+00    1.0880885032448223E+01
Pb   -9.4249781568388027E+00   -5.9131154564063566E+00   -7.9206163175543596E+00
Pb    8.8304515112995396E+00   -3.2178141692794080E+00   -9.7052983157419863E+00
Pb    9.5685848482784674E+00   -8.9795832008501488E+00   -8.6377590095846539E+00
Pb   -2.3102777527191241E+00   -1.0690504686338338E+01   -7.1953287368170660E+00
Pb   -1.0790405940600166E+01    6.0165517285704730E+00   -9.8188003077458177E+00
Pb    2.5679199135724500E+00   -3.5648107710698804E+00   -8.4968737218462209E+00
Pb    3.5066788143530676E+00   -9.7554458131587545E+00   -8.5146174006257542E+00
Pb   -4.3660124788530803E+00    1.1290529966761962E+00   -8.9209943382498444E+00
Pb    1.1604029123469997E+00    8.3523021560405972E+00   -1.0662335277990692E+01
Pb    1.7275351384950994E+00    2.2694970274068411E+00   -9.1693118662159900E+00
Pb    9.9097415939403515E+00   -1.6971434047730387E+00   -2.8616491994054645E+00
Pb    1.0052645809862199E+01   -7.6511500021704011E+00   -2.7687465989170854E+00
Pb   -8.3361398067942822E+00   -2.8718817027045014E+00    1.0025555062927458E+01
Pb    7.3878863521520710E+00    8.4622025253535895E+00   -1.0775006015953219E+01
Pb   -1.0182859283517347E+01    1.1745758824556933E-01   -8.8469904803250241E+00
Pb   -3.2942320164245400E+00    9.7754586654935771E+00    7.7829285668374784E+00
Pb    8.1009899707642425E+00    9.8613624062105032E+00   -4.9016500651682042E+00
Pb    8.5756118949585431E+00    3.9435161000924834E+00   -3.9263880496075676E+00
Pb    9.4347162447764781E+00   -1.8605775333929271E+00    3.1694083340100172E+00
Pb    1.0312990701749328E+01   -7.6837025755554711E+00    3.4838259689870483E+00
Pb    8.1424614893034928E+00    2.6980117318613530E+00   -9.7458758931407949E+00
Pb   -3.1337738558729376E+00    3.7673781581471473E+00    8.3361321426064663E+00
Pb    8.4827672618001877E+00    1.0611613343728724E+01    9.3026436419872460E-01
Pb    8.5737857990601434E+00    4.7078338989618462E+00    2.0824351505119059E+00
Pb    9.9147439827820953E+00   -8.5983881865305400E-01    9.3062625708166493E+00
Pb    1.0202595506341934E+01   -6.9723106065864942E+00    9.4540261576423603E+00
Pb    8.5323225237527449E+00    1.0963899570488197E+01    7.6342718753500334E+00
Pb    9.1851983922158773E+00    5.1655970701825273E+00    8.5915398617867957E+00
Pb   -9.0045763433004424E+00    3.1813971508152101E+00    9.2966145906920143E+00
Pb   -2.6410902837180590E+00   -2.6501186683462148E+00    3.5486541668970704E+00
Pb   -9.7433220372109872E+00    8.3224300500994790E+00    2.2356594189547816E+00
Pb   -9.8338682161860511E+00    7.8414007534023540E+00   -3.9524265546101067E+00
Pb   -8.4694958992865317E+00   -1.1824826219888653E+01   -6.9070086818688559E+00
Pb   -4.9469074985839248E+00    6.9622910215707599E+00   -1.0251026459403361E+01
Pb   -9.1184139578742052E+00    2.2719106057301994E+00    3.5309364287820415E+00
Pb   -9.7918101478798665E+00    8.8139298326505333E+00    8.2412691078006333E+00
Pb   -2.4520838017194282E+00   -3.6555906739833501E+00   -2.3363544815436512E+00
Br    4.0357510615068420E-01   -3.4172535752399882E+00   -3.0820047205320891E+00
Br    3.4373007571067169E+00   -2.6990310426363022E+00   -5.7444176081255884E+00
Br    3.7262817467175284E+00    8.3617660126639415E-01   -2.6933194989623939E+00
Br    1.4440035336012380E+00   -9.1124470744195385E+00   -2.2604850737168949E+00
Br    4.1958696131470559E+00   -9.5815163858860188E+00   -5.6736504004649397E+00
Br    4.3888959798547109E+00   -5.5986610532823429E+00   -2.0147795421117425E+00
Br   -2.8771533877858859E+00   -4.2477926883711952E+00   -5.3483275274539652E+00
Br   -8.9075309796769169E+00   -2.6765912946779373E+00    6.9931691049337044E+00
Br   -2.7149433814055541E+00   -8.2497795750575686E-01   -2.8809288234679800E+00
Br    4.3411116427234475E+00   -1.1902079356815625E+01   -2.5751259958845552E+00
Br    1.2149619677374471E+01   -2.1586109192875207E+00    2.6778889718501979E+00
Br   -4.2885597997958511E+00   -1.0573569525922194E+01   -1.1157212222871657E+00
Br   -1.1283194565148667E+01   -4.2142665693082195E+00    2.8671840739678149E+00
Br   -7.7984454917420551E+00   -4.3587583086315735E+00    8.5174487646371388E-01
Br    1.3041461645687475E+01   -8.4916754311750076E+00    3.5808455296099404E+00
Br   -1.3491026019904593E+00    9.0529261815859048E+00   -4.9692412490329785E+00
Br    1.7975917940172397E+00    8.4616150064067632E+00   -7.6378326793590272E+00
Br    1.7103464529397894E+00    1.1651534000018421E+01   -5.5886353532027382E+00
Br   -2.5668188923142882E-01    2.6046587812356634E+00   -3.6710370366111680E+00
Br    2.1967568630378853E+00    3.3560008468014777E+00   -6.4525795896241744E+00
Br    2.5663773479199712E+00    6.3399258826951375E+00   -4.2143550954976758E+00
Br    5.4988839725509508E-01   -2.3825150712304639E+00    3.6150789289265344E+00
Br    3.1828467831052270E+00   -2.6498973179913077E+00    2.3534498571355489E-01
Br    3.8627012569686481E+00    8.2318853965923189E-01    3.2404243425797681E+00
Br    1.0631079872016078E+00   -8.6492973726525513E+00    3.8300020136695432E+00
Br    4.0127888153321338E+00   -9.3037268912574014E+00    9.6765609081215942E-01
Br    3.8274187959349319E+00   -5.1580890118923497E+00    3.5676743690664638E+00
Br   -7.7023690099142339E+00    6.5000900312035457E+00   -1.0463840893890819E+01
Br   -4.2020448915027933E+00    5.8837426846629262E+00   -1.2771182425083680E+01
Br    4.7604338328553411E+00   -1.1015512231897079E+01    5.5851166982719036E+00
Br   -5.8818724182797606E+00    9.6943386915442513E+00   -1.0905263143048428E+01
Br   -4.6393534317972902E+00    4.4811553664150141E+00   -8.7260736586118171E+00
Br   -9.1635171483844857E+00   -6.9111902938396197E-01    3.5326479988564548E+00
Br   -1.4986309519517249E+00   -9.8276820265129281E+00   -4.6158351640439239E+00
Br   -6.7817027068734239E+00    8.3220514649255204E+00    1.5616102602951922E+00
Br   -3.2363415577093599E+00    8.2221618213913974E+00   -1.1984004040070855E+00
Br   -4.4990999852186500E+00    1.1647313120143606E+01    6.4853576833987459E-01
Br   -6.8325012018265585E-01    9.4993620826105545E+00    1.6708786757002152E+00
Br    2.0454680122125710E+00    9.3601232748654954E+00   -1.6971405007106370E+00
Br    1.4343550528382807E+00    1.2494579825331803E+01    5.8351731016031194E-01
Br    2.9526902785867330E-02    3.1764934450810443E+00    2.8598085666893009E+00
Br    2.3081298915116966E+00    3.9093280469188985E+00   -3.1153426913012966E-01
Br    2.2526780716856480E+00    6.7002084906766948E+00    2.2846097244280301E+00
Br    5.6553769134298781E-01   -1.5353167853738672E+00    9.0293899889657965E+00
Br    3.3221917928678550E+00   -1.4314581726949598E+00    6.1642997610912911E+00
Br    3.8343307752407783E+00    1.9259849704996881E+00    8.7635637871690655E+00
Br    1.1392784315027933E+00   -7.4201649541737700E+00    1.0349218288776424E+01
Br    4.0802992289779647E+00   -7.2025066089393350E+00    6.8712180988967928E+00
Br    3.1170616809792890E+00   -4.3325625980462865E+00    9.5489340811402741E+00
Br   -1.2090357514613709E+01    2.8136635190594794E+00    3.5818280689178223E+00
Br   -9.4223952054053992E+00    1.8529611912568784E+00    6.1090623179896220E-01
Br    5.1467333186125366E+00   -1.0410149221129689E+01    1.0184984218951676E+01
Br   -9.0991336823511499E+00    5.3321165942556368E+00    2.4947060882696048E+00
Br   -8.4592237217350608E+00    1.7070400166712077E-01    9.5742127915858397E+00
Br   -2.3268424149729672E+00   -6.7983762743449923E+00   -1.9473638792402415E+00
Br   -6.3581890704021760E+00    2.1750951491449531E+00    3.0568006252086550E+00
Br   -2.5854979555173863E+00    2.5215524458936969E+00   -4.3936922991236382E-01
Br   -2.9535852450441618E+00    5.8255983285355439E+00    2.2261994026943843E+00
Br   -3.4338680389046317E-01    1.0435931263783461E+01    7.4989687992360485E+00
Br    2.8896153172019963E+00    1.0787723717587225E+01    4.0872518764177057E+00
Br    1.8705233151272951E+00    1.3585932870833235E+01    6.6416765429103242E+00
Br    3.2431825960733307E-01    4.0947678017661238E+00    8.1797526534479008E+00
Br    3.5522707608844866E+00    4.7864995180853525E+00    5.3730080458928207E+00
Br    2.3695647908096031E+00    7.5438408926942291E+00    8.4572328302021571E+00
Br   -5.1050089029172128E+00   -2.6105121993995981E+00    9.5290856559706469E+00
Br    3.1790444480170654E+00   -1.0266251290116131E+00    1.1973825465012419E+01
Br   -2.2982750875572777E+00   -2.5676803646170558E+00    6.4217619043197258E+00
Br   -2.6416022154565182E+00    1.0191505404208969E+00    8.5634601327213034E+00
Br   -1.2504518414852728E+00   -1.2441803401445815E+01   -1.0081570386072145E+00
Br    5.2871362889782780E+00   -7.0902371067518013E+00    1.2649279963649562E+01
Br   -1.1902955934707185E+01    1.6604687799699096E+00   -2.7488430900222682E+00
Br   -1.1699943544476286E+00   -1.1206693556302977E+01    5.8314200177746569E+00
Br   -1.1297768782513074E+01   -4.7411533792263238E+00   -1.1045360936990187E+00
Br    2.6123970917868755E+00    1.1606657575881407E+01    1.0537719166778215E+01
Br   -9.1280311149021287E+00   -5.3027587559518983E+00   -5.0196689237677443E+00
Br   -8.6135495415892915E+00   -1.2363324878311532E+00   -2.0320498196011183E+00
Br    3.8669158947543454E+00    5.2379257893070026E+00    1.1674754984369708E+01
Br   -6.7680267865338068E+00    7.6181046313361218E+00   -3.6213486068895144E+00
Br   -4.5746409180446719E+00    7.8981977727597128E+00   -7.2397483292303138E+00
Br   -4.5372723405409277E+00    1.0956205361235433E+01   -3.9337448042169934E+00
Br   -6.4427232070886005E+00    2.4351940146592534E+00   -2.6492809759991833E+00
Br   -9.9653372078328353E+00   -1.0673523969386558E+01    5.6518655136267126E+00
Br   -4.5564551409955767E+00    1.3969888821691396E+00   -5.8695327927707375E+00
Br   -6.1435499337138459E+00   -5.6100129664587071E+00   -8.0308761857172311E+00
Br   -3.6553034056089491E+00   -5.3697852761753042E+00   -1.1175120733176840E+01
Br   -4.1116273706191020E+00   -1.9209312419520006E+00   -8.8899058557896335E+00
Br   -3.0467635196093510E+00    4.0844428287151153E+00    1.1448553391935491E+01
Br   -4.5424486487110585E+00   -7.7023672530021114E+00    1.1723569713263444E+01
Br   -1.6580321552219139E+00   -8.2289992873188815E+00    7.5757300090408171E+00
Br   -1.5166831461174632E+00   -4.8352870193299902E+00    9.6955165456093120E+00
Br   -7.3900553319331710E+00   -9.4653131140141937E+00    1.7755056154953359E+00
Br   -7.6475291157683403E+00   -6.4448946737770925E+00    4.3589457440394943E+00
Br   -9.4076161921348795E+00    8.5498825415724315E+00    1.1033519582855140E+01
Br    1.1457359541017668E+01    1.1157558665722584E+01    2.8589926951713618E-01
Br   -8.4698398166453650E+00   -9.6890575384451143E+00    1.3420688536250241E+01
Br    1.0976374938402815E+01    1.0134028353216870E+01   -5.7425976192942576E+00
Br    1.1380935611369685E+01    5.2336683490588607E+00    2.6050450436261361E+00
Br   -8.6622646308974236E+00    3.0212394623715109E+00    1.2047027262133438E+01
Br   -1.2179255906037771E+01   -6.9263002770025315E+00   -7.2175186662866722E+00
Br    1.2645073917850256E+01    1.2669227334247413E-01    8.2753634765854649E+00
Br   -4.3829804125974059E+00   -9.1891676682467995E+00    4.8101912814007175E+00
Br    5.4439167371788244E+00   -3.3840969956977922E+00   -9.4394436436975049E+00
Br    9.3682582913243184E+00   -4.1228441902771289E+00   -1.2537114791344335E+01
Br    1.2744591196692959E+01   -6.6071949339441929E+00    8.1379172471649959E+00
Br    8.4089262356855343E+00   -1.6645012413925125E-01   -9.5602900143915726E+00
Br   -6.7376348693404253E+00   -1.1452230238719725E+01    1.0038721985083393E+01
Br   -1.8320350473955893E+00   -8.8032537883179547E+00    1.5293387035509802E+00
Br   -2.1281161962275283E+00   -5.6887661634811169E+00    4.0333272619704008E+00
Br    6.3435020698299196E+00   -9.7535889131127504E+00   -9.0245579036106065E+00
Br   -5.1245216068191182E+00   -1.1548884653093127E+01   -7.0959977946477775E+00
Br    8.7321445930129791E+00   -9.6506913771298208E+00   -1.1945704581009553E+01
Br    8.8119146891475566E+00   -6.1715527824565628E+00   -8.5033963936912187E+00
Br   -1.3151110270218311E+00   -1.0416475352378168E+01    1.1007408197743240E+01