 # Version information for this restart file 
 # current date 2021-06-17 12:38:04.247
 # current working dir /user/ub2042/exercises/2_fitting/MM_MD_workdir/md_settings.002
 # Program compiled at                              Thu Apr 22 21:44:59 EDT 2021
 # Program compiled on                cpn-k07-07-02.compute.cbls.ccr.buffalo.edu
 # Program compiled for                                                    local
 # Source code revision number                                       git:36754bb
 &GLOBAL
   PRINT_LEVEL  LOW
   PROJECT_NAME cp2k
   RUN_TYPE  MD
 &END GLOBAL
 &MOTION
   &MD
     ENSEMBLE  NVT
     STEPS  10000
     TIMESTEP     2.4999999999999996E+00
     STEP_START_VAL  9990
     TIME_START_VAL     2.4974999999995493E+04
     ECONS_START_VAL    -1.3948793637821183E+01
     TEMPERATURE     3.0000000000000000E+02
     &BAROSTAT
       PRESSURE     1.0100000000000000E+00
       TIMECON     9.9999999999999982E+03
     &END BAROSTAT
     &THERMOSTAT
       TYPE  CSVR
       &CSVR
         TIMECON     9.9999999999999982E+03
         &THERMOSTAT_ENERGY
              -3.2218499362548547E-01
         &END THERMOSTAT_ENERGY
         &RNG_INIT
Wiener process for Thermostat # 1        1 F T F  -1.4436051593819570E+00        2305787847.0         317263915.0         649490368.0        2437808356.0        3240923174.0        2748373337.0             12345.0             12345.0             12345.0             12345.0             12345.0             12345.0             12345.0             12345.0             12345.0             12345.0             12345.0             12345.0
         &END RNG_INIT
       &END CSVR
     &END THERMOSTAT
     &AVERAGES  T
       &RESTART_AVERAGES
         ITIMES_START  1
         AVECPU     1.7501968605298387E-02
         AVEHUGONIOT     0.0000000000000000E+00
         AVETEMP_BARO     0.0000000000000000E+00
         AVEPOT    -1.4262613337265627E+01
         AVEKIN     4.8432684297061207E-01
         AVETEMP     2.4568375631966330E+02
         AVEKIN_QM     0.0000000000000000E+00
         AVETEMP_QM     0.0000000000000000E+00
         AVEVOL     6.7483345830912264E+06
         AVECELL_A     1.8897261328855686E+02
         AVECELL_B     1.8897261328855686E+02
         AVECELL_C     1.8897261328855686E+02
         AVEALPHA     9.0000000000000000E+01
         AVEBETA     9.0000000000000000E+01
         AVEGAMMA     9.0000000000000000E+01
         AVE_ECONS    -4.0020664075382086E+00
         AVE_PRESS     0.0000000000000000E+00
         AVE_PXX     0.0000000000000000E+00
       &END RESTART_AVERAGES
     &END AVERAGES
     &PRINT
       &ENERGY  SILENT
         &EACH
           MD  10
         &END EACH
       &END ENERGY
     &END PRINT
   &END MD
   &PRINT
     &TRAJECTORY  SILENT
       &EACH
         MD  10
       &END EACH
     &END TRAJECTORY
     &CELL  SILENT
       &EACH
         MD  10
       &END EACH
     &END CELL
     &VELOCITIES  SILENT
       &EACH
         MD  10
       &END EACH
     &END VELOCITIES
     &FORCES  SILENT
       &EACH
         MD  10
       &END EACH
     &END FORCES
     &RESTART  SILENT
       &EACH
         MD  10
       &END EACH
     &END RESTART
   &END PRINT
 &END MOTION
 &FORCE_EVAL
   METHOD  FIST
   &MM
     &FORCEFIELD
       VDW_SCALE14     1.0000000000000000E+00
       EI_SCALE14     1.0000000000000000E+00
       SHIFT_CUTOFF  T
       DO_NONBONDED  T
       IGNORE_MISSING_CRITICAL_PARAMS  T
       &SPLINE
         R0_NB     2.5000000000000000E-01
       &END SPLINE
       &NONBONDED
         &LENNARD-JONES
           ATOMS Br Br
           EPSILON     1.2630795322675199E+02
           SIGMA     3.6900000000000004E+00
         &END LENNARD-JONES
         &LENNARD-JONES
           ATOMS Cs Pb
           EPSILON     8.6920055954630968E+01
           SIGMA     3.9452500000000001E+00
         &END LENNARD-JONES
         &LENNARD-JONES
           ATOMS Cs Cs
           EPSILON     2.2644852172126850E+01
           SIGMA     4.5300000000000002E+00
         &END LENNARD-JONES
         &LENNARD-JONES
           ATOMS Pb Pb
           EPSILON     3.3363415533600227E+02
           SIGMA     6.1000000000000005E+00
         &END LENNARD-JONES
         &LENNARD-JONES
           ATOMS Br Cs
           EPSILON     5.3481070753900497E+01
           SIGMA     3.6300000000000003E+00
         &END LENNARD-JONES
         &LENNARD-JONES
           ATOMS Br Pb
           EPSILON     2.0528187276773045E+02
           SIGMA     2.9800000000000000E+00
         &END LENNARD-JONES
       &END NONBONDED
       &CHARGE
         ATOM Cs
         CHARGE     4.1739999999999999E-01
       &END CHARGE
       &CHARGE
         ATOM Pb
         CHARGE     8.3479999999999999E-01
       &END CHARGE
       &CHARGE
         ATOM Br
         CHARGE    -4.1739999999999999E-01
       &END CHARGE
     &END FORCEFIELD
     &POISSON
       PERIODIC  XYZ
       &EWALD
         EWALD_TYPE  SPME
         GMAX  62 62 62
         O_SPLINE  4
       &END EWALD
     &END POISSON
     &PRINT
       &FF_INFO  LOW
         SPLINE_INFO  F
         SPLINE_DATA  F
       &END FF_INFO
     &END PRINT
   &END MM
   &SUBSYS
     &CELL
       A     1.0000000000000001E+02    0.0000000000000000E+00    0.0000000000000000E+00
       B     0.0000000000000000E+00    1.0000000000000001E+02    0.0000000000000000E+00
       C     0.0000000000000000E+00    0.0000000000000000E+00    1.0000000000000001E+02
       PERIODIC  XYZ
       MULTIPLE_UNIT_CELL  1 1 1
     &END CELL
     &COORD
Cs   -2.5903368031064128E-01   -9.1531153717045310E-01   -5.6864921086821489E+00
Cs    9.5333949319324440E-01   -6.7390052820134470E+00   -4.5380812794220402E+00
Cs    1.0074859461582242E+00   -1.2625467518236755E+01   -2.7389082307238328E+00
Cs   -6.2231299607519794E+00   -7.7179447767959610E+00   -3.7967471263066277E+00
Br   -6.5001147741983507E+00   -1.4473328015998352E+01   -5.3933579034614221E+00
Br    1.1500708296352968E+01   -2.8274586993965687E+00   -9.3541027847798279E+00
Br   -4.6748691951820565E+00    6.7721078278023011E-02   -1.2166980440232996E+01
Cs   -2.2668915217936374E+00    4.1435321431109573E+00   -7.3956463587625052E+00
Cs   -4.2199609938074706E-01   -2.2343748301859540E-01    5.3361654478069054E-01
Cs    4.7810208358910128E-01   -5.7636684907540436E+00    1.1015516406280006E+00
Br   -4.9463131418948523E+00   -3.1273149841938483E+00    4.2342919200741154E+00
Cs   -9.1841126361800587E+00   -5.4518631713796788E+00    1.4284296323556246E+01
Cs    1.2784976156247572E+01   -9.9856480876318479E+00    1.1031580280733622E+00
Cs   -6.8975404704463701E+00    4.9110721852115597E+00   -7.0971799027518945E-01
Cs   -1.7167216958641520E+00    1.0947138281257711E+01   -2.0235091137007850E+00
Cs   -5.5653006577188735E-01    5.7732952906756250E+00   -1.0939292013905639E+00
Cs   -1.4909864650211088E-01    1.1347486945601344E+00    6.3848090057361091E+00
Cs    1.7898919649404339E+00   -4.1397548287162333E+00    6.4566122446600724E+00
Cs    1.1073385748594924E+00   -1.0009060250537337E+01    8.6747642269044984E+00
Cs   -5.8034485569504950E+00    6.7821232204521529E+00    1.1064889388026314E+01
Cs   -8.2450769923402074E+00   -3.6861013166982426E+00   -1.2047921446613536E+01
Cs   -4.3972865794032430E+00   -1.2474703395883092E+01   -2.9409163767220172E+00
Cs   -5.4319032205825621E+00    8.3198447886489124E-01    6.4932815387108542E+00
Br   -2.5239703798715136E+00   -3.0774288737838584E+00    1.0038073045192446E+00
Cs   -1.0065624992212265E+00    7.2042535348915777E+00    3.9962660124029270E+00
Br    1.2594517614117118E+01   -7.5525117569861093E+00   -8.7992873879954452E+00
Cs    2.2970938672051364E+00   -3.2324114113421829E+00    1.2552999245128406E+01
Br   -2.6452101737976697E+00    2.4122319212271054E-01    3.7947459498481333E+00
Br   -7.4127330855731346E+00   -2.1448216110686071E+00    1.3933110116127772E+01
Cs    1.0172475884181416E+01    1.1661736047087464E+01   -1.0039447703611950E+01
Cs   -9.9104057136318779E+00   -6.5706254715747727E+00    7.9886633592223486E+00
Cs   -4.5700999859631350E+00   -5.6418403810768503E+00    7.0419847853972550E+00
Cs   -8.1033454064513073E+00    8.8432036422689571E+00   -6.9196410883560029E+00
Br   -9.0783204783472282E+00   -8.8853332026506866E+00    1.0151214927913221E+01
Br   -5.7759406785850533E+00   -8.9600195568051273E+00    8.2412496640308177E+00
Cs   -1.1571900092626771E+01   -7.8400634290742524E+00   -2.5413562557508107E+00
Cs   -6.6761326312332514E+00    4.0028758618703213E+00   -6.6206799846986080E+00
Br   -7.1575195134849432E+00   -5.4652882149365514E+00    1.1305250007979559E+01
Cs    1.0578783398812334E+01    1.0589299778850513E+01    8.0972376009406766E+00
Br   -1.2911842077900507E+01    7.3750315456271123E+00    8.5932215440078750E+00
Br   -5.9067599285409553E+00   -4.1545491652500930E+00   -2.3117983295357396E+00
Cs    9.4961555556852803E-02    2.4985907327341863E+00    1.0980656363476429E+01
Cs    1.0345482892722332E+01    7.4688615670259324E+00   -1.8180876971673525E+00
Cs   -1.1205749083349227E+01   -9.8297530393066861E+00   -8.5078242989605180E+00
Cs    1.1025491469324509E+01    3.2019373580052974E+00    5.3589718775195090E+00
Cs   -1.2977540960288083E+01    8.8430462930706444E+00   -6.7891615649474168E+00
Cs    1.4561323629800698E+01   -7.6366127905720642E+00    7.7041658905356138E+00
Cs    7.5304788852904858E+00   -7.0468220825420405E+00   -1.1257693263383517E+01
Cs    9.2501510448829123E+00   -8.5593082406150494E+00    6.8131562287274496E+00
Cs   -2.8817468029193094E+00   -1.2176978175029646E+01    3.0351355118942349E+00
Cs    7.8849772071895474E+00   -1.3307152261233133E+01   -9.4587178610149909E+00
Cs    1.0992987845650150E+01    6.8267651696100895E+00   -9.5597488902155305E+00
Cs    3.7478737442642580E+00    1.2757916459291437E+01    2.3473060907222258E+00
Cs    8.2428607444808950E+00    4.4006108147932395E+00   -1.5709888428967375E+01
Cs   -7.8987592939773044E-01   -8.1501374309392922E+00   -1.0711903419419436E+01
Cs   -1.2017767488001747E+01   -3.5508792914191480E+00   -4.8855580498549234E+00
Cs    6.4808541264865429E+00   -1.6700016001264129E+00    1.2758950541348039E+01
Cs    1.2902564369369605E+01   -2.2045008239604886E+00    6.0891928405750448E+00
Cs   -7.7087615354458423E+00   -1.2275476235166103E+01    9.3272464541845146E+00
Cs   -1.2818859646164749E+00   -2.2451441192263308E+00   -1.1116974665631647E+01
Cs   -2.6011882334180649E+00    1.2481214815031224E+01    4.4234651043539417E+00
Cs   -1.9604188697884546E+00    3.2511352134024047E+00   -1.1763818068059871E+01
Cs    5.2546486819350022E+00   -3.6226097910380156E-01   -6.4823937716479501E+00
Cs    6.5490353978211084E+00   -6.0172584346300129E+00   -4.6000890385064235E+00
Cs    7.1667505612011038E+00   -1.1428711998475174E+01    8.8537396280234084E+00
Cs   -1.1751843075648106E+01   -9.8822867344835319E-01    7.7037424411633166E+00
Cs    5.0511585148837401E+00   -9.6027625941994188E-01   -1.1961005507711720E+01
Cs    3.9174845370047642E+00    1.0578920229413109E+01   -1.5443470443583108E+01
Cs    4.9722398985427713E-01    8.7208227474891444E+00    1.1135954350947268E+01
Cs   -7.9811974705701134E+00    1.1663963721370624E+01    5.6714190014005812E+00
Cs    5.0797155102460874E+00    1.1526417782295381E+01   -1.0270893709437274E+01
Cs    4.5270840161668104E+00    6.0964878242032094E+00   -7.5484262206569657E+00
Cs    6.0869590335011940E+00    1.2009248263043080E+00   -5.2320314173958937E-01
Cs    7.0532400139386207E+00   -5.0376155640046125E+00    2.2272420536152165E-01
Cs    8.6741651262319568E+00   -1.0512140960885173E+01    2.4122733139458297E+00
Cs    4.2136801173398952E+00    4.1645436447574626E+00   -1.2805822907788407E+01
Cs   -5.7643078372350578E+00    5.9780114276359511E+00    5.2744845122232329E+00
Cs   -5.9630859802178815E+00   -9.4463565015485695E+00   -9.7594923309388033E+00
Cs    4.4808442475133425E+00    6.4374675984236323E+00   -2.2360815022957854E+00
Cs    5.9836567044646287E+00    2.3900993668327750E+00    5.6992033740500840E+00
Cs    8.0820024033695717E+00   -3.6100535783518031E+00    5.9962718219601525E+00
Cs   -7.4500370759783392E+00    1.0405760437527974E+01   -2.0510143493834305E+00
Cs    1.2561864296275678E+01    9.8022873282774947E-01   -1.5118871844474606E+00
Cs   -6.6411646761800327E+00   -8.6578965144473496E-01    2.4692590428760997E-01
Cs   -1.1575529213758957E+01    4.5589961274437618E+00    6.2069876861789792E+00
Cs   -5.2698895596123121E+00    1.7138233659948228E+00    1.2689159724609091E+01
Cs    4.0882500722759678E+00    1.4332501535757750E+01    7.4727938099680538E+00
Cs    5.6347416190500699E+00    7.4954497033404852E+00    3.8517579851814268E+00
Cs    6.0153665874121884E+00    2.9548866567996632E+00    1.0479475623656327E+01
Cs    4.0740815565022785E+00    1.2046026207730272E+01   -3.0546635486070359E+00
Cs    1.0660177378846203E+01    1.9803694863003790E-01   -6.9104098549800517E+00
Cs    1.1383213004648322E+01   -5.1103804766089773E+00   -6.4004066429764617E+00
Cs    8.4045715614647190E+00   -6.1209512351273903E+00    1.3937724451252215E+01
Cs    9.9288469394429040E+00    1.3548228184612048E+01   -4.1509082727862507E+00
Cs   -1.0408294216394930E+01   -3.6103883012809673E-01    1.3529815650452464E+01
Cs   -7.9989467356589730E+00    1.6801457325705569E+00   -1.2768425148618284E+01
Cs   -1.2730497823768133E+01    1.0727621181689781E+01   -8.4498306696436676E-01
Cs   -3.6891889834432563E+00   -4.2923996666617921E+00    1.3113398965064498E+01
Cs   -1.8685964648231943E+00   -9.8679330291293663E+00    1.4830437445051304E+01
Cs    5.6204328207362346E+00    9.2914835118427188E+00    9.0829689011242092E+00
Cs    1.2159321726351740E+01   -3.7415784871327316E+00   -1.5517037942033063E+00
Cs   -1.1559105915250004E+01   -2.2254374986758276E+00    2.2221126615682198E+00
Cs   -8.2386100943004816E+00    7.1243600658817900E+00   -1.3166413287341559E+01
Cs   -1.2803959867719483E+01    4.1984783573721751E+00    3.4870445092558816E-01
Cs   -1.0440138672286023E+01   -1.3365184991455282E+01   -3.0885911681489855E+00
Cs   -1.0096280115653263E+01   -7.3152082989790337E+00    2.8796235238139771E+00
Cs   -5.4894623314287525E+00   -6.9777353961431503E+00    1.3128983278724864E+00
Cs   -3.3534618779073613E+00   -1.1344972374030736E+01    8.5515659817660854E+00
Cs    1.2385340639926220E+01   -1.2348619480114429E+00    1.1407670540730095E+01
Cs    1.0501189857708939E+01    9.2069668863892922E+00    3.2451890455092176E+00
Cs   -1.3304328221138293E+01    2.8921970870258447E+00   -5.5607622653064972E+00
Cs   -7.2562294026143084E+00   -2.9460005774762443E+00   -5.1098972080165828E+00
Cs   -9.1100230564052787E+00   -1.5472465059328549E+01    2.2006511859439564E+00
Cs    1.5829198423140713E+01   -6.8982099916500204E+00   -1.0297590759165008E+01
Cs   -4.3872121303717062E+00   -1.4547490684817305E+01   -7.7280473841662918E+00
Cs   -1.8507793946524553E+00    9.0613317062670529E+00   -1.3126877264341855E+01
Cs    2.0415702539773890E+00   -1.3121849583389720E+01   -8.7407913400746224E+00
Cs   -2.5624517112372560E+00    1.0464220988079811E+01   -8.0535176999654468E+00
Cs   -1.1963074551452850E+01    5.0835168549362324E+00    1.0809767168224603E+01
Cs    2.0820189155315787E+00   -1.1031757203896774E+01    1.7661795965083358E+00
Cs   -1.3058398717905373E+01    1.9156987545401578E+00   -1.2087173079842888E+01
Cs   -1.2367722027873633E+01    9.9829199002258271E+00    5.3122207988752317E+00
Cs    7.8676625822511026E+00   -1.1698351091532837E+01   -3.2770253426186349E+00
Cs    1.0360941153083420E+01   -8.9480139956202298E-01   -1.2475413406388382E+01
Cs   -1.7454240231446407E+00    1.3409552401290954E+01    8.6061024243234971E+00
Pb    3.0865116080357815E+00   -2.8267567174321173E+00   -2.8051003662100595E+00
Pb    4.3698802145482034E+00   -8.5555633841626957E+00   -1.1732947004104664E+00
Pb   -7.8843074894933345E+00   -3.5233984294703244E+00    4.6599740736991366E+00
Pb   -1.8063661796749386E+00   -9.4218128641192003E+00   -7.3466902583014049E-01
Pb    1.5980681263615202E+00    9.0869133466160061E+00   -5.4964664828526830E+00
Pb    2.1225536022507376E+00    3.0279667736146925E+00   -4.3229210364443738E+00
Pb    4.2626524041735117E+00   -1.8796254935169203E+00    2.6892604027070361E+00
Pb    5.3404646363888322E+00   -7.6103399614770897E+00    4.7331973977455997E+00
Pb   -4.0713514017488404E+00    8.9412765321759071E+00    1.7301676331204860E+00
Pb    1.7537593092460630E+00    9.7148089815102914E+00    5.2337648423682370E-01
Pb    2.6217080856755079E+00    3.8763233810587781E+00    1.7605159560233454E+00
Pb    3.6535000883424340E+00   -7.5392941964422733E-01    8.7728612350282127E+00
Pb    5.0385411068339083E+00   -6.6670464824157563E+00    1.0839050200138381E+01
Pb   -3.5654932485996791E+00    2.9075696680976715E+00    2.6524443582552544E+00
Pb    1.5728578306280001E+00    1.1267809849675412E+01    6.3243071264393755E+00
Pb    2.5480891500460112E+00    5.2867661870371503E+00    7.5886768448831239E+00
Pb   -1.8285714058199076E+00   -1.5867719882708131E+00    1.0000039801408144E+01
Pb   -6.6530147794702819E+00   -9.7477555792819146E+00    5.2538702533401525E+00
Pb   -1.0103727541033640E+01    1.0703693230957010E+00   -2.4333755230316672E+00
Pb   -2.9186697099781980E+00   -5.4754509202192869E+00   -7.7070941405042488E+00
Pb   -5.9309348689584873E-01   -8.1018688081617576E+00    4.9761195579865900E+00
Pb   -4.3698189968454111E+00    7.6989690070223613E+00   -4.4965652031192889E+00
Pb   -8.5133128366150235E-01   -7.2759951636012330E+00    1.1289611951929910E+01
Pb   -8.8432078189985308E+00   -5.0821475452341787E+00   -1.2852985720774353E+00
Pb   -7.9143059842308059E+00   -1.0989466207201485E+01   -4.5514014626184102E-01
Pb   -4.1049588954290259E+00    1.9456497255864196E+00   -3.3317040117045442E+00
Pb   -6.7242493492693614E+00   -8.9123086049003177E+00    1.2045872373012951E+01
Pb   -9.0891956986823530E+00   -6.4890041575627819E+00   -7.1085987708306133E+00
Pb    8.7435877549841816E+00   -3.5445547248134788E+00   -9.1015078040491240E+00
Pb    1.0582631510922177E+01   -9.7066332575290932E+00   -7.7982815187522636E+00
Pb   -1.1839327185717725E+00   -1.0976749628634279E+01   -6.4473814130393938E+00
Pb   -1.0975716010665545E+01    5.7902793665933050E+00   -9.5522412265040888E+00
Pb    2.7717698814657510E+00   -4.1429927946950293E+00   -8.9113480415317827E+00
Pb    4.3844373358879416E+00   -9.7277222340744682E+00   -7.3739004671576218E+00
Pb   -4.3142931182767592E+00    1.9024937866422548E-01   -9.1517451649260178E+00
Pb    1.4551144911834260E+00    7.9324598352400812E+00   -1.1421181312190244E+01
Pb    1.6042016216197312E+00    2.0378995267362550E+00   -9.9530543844954718E+00
Pb    8.9689030009460886E+00   -2.1762143961824001E+00   -3.4577900997465627E+00
Pb    1.0534600503564690E+01   -8.2546566794163709E+00   -2.2130927599376813E+00
Pb   -7.6150237263065268E+00   -2.8255472347915509E+00    1.0803665467988093E+01
Pb    7.4522923242677210E+00    8.2597093151648178E+00   -1.2835971851075231E+01
Pb   -1.0057707071639696E+01   -2.5400451083855041E-01   -8.4669299663757904E+00
Pb   -4.1642923984941937E+00    1.0095007271666175E+01    7.5969573544069133E+00
Pb    7.4950043725325664E+00    9.1454585302890976E+00   -6.9471130688072638E+00
Pb    8.1063881518456213E+00    3.5799413530140995E+00   -4.5732708591010063E+00
Pb    9.9789199871484531E+00   -7.1690790558437212E-01    2.2641607805324382E+00
Pb    1.1110493569083861E+01   -6.3588612695409434E+00    3.7524909278958516E+00
Pb    7.6234310633500222E+00    2.5691147458110937E+00   -1.0628242151262166E+01
Pb   -3.2577496466061713E+00    4.0670844205860188E+00    8.6974623254178702E+00
Pb    7.5883544080225125E+00    1.0851021097974758E+01   -6.1839098267244930E-01
Pb    9.1071820412513205E+00    4.9343468781649928E+00    1.1686891400833990E+00
Pb    9.4412377929556435E+00    4.8185129591999887E-01    8.2559537229340965E+00
Pb    1.1011145526922308E+01   -5.5513341045989044E+00    1.0214749111216010E+01
Pb    7.4707125687649354E+00    1.2370689910317012E+01    5.4857274913114438E+00
Pb    8.4474110873807575E+00    6.1090510019614506E+00    7.3867016136192776E+00
Pb   -9.0499970456251582E+00    2.9625095037519338E+00    9.5686652211885885E+00
Pb   -1.9470992317521685E+00   -2.5240020868917221E+00    3.8315667743446840E+00
Pb   -1.0015884362853251E+01    7.8828743986339056E+00    2.6584620412772648E+00
Pb   -1.0399135816113283E+01    7.1163415731461193E+00   -3.3871923354552025E+00
Pb   -7.5673069694355535E+00   -1.1920268218518425E+01   -6.0626781475762979E+00
Pb   -4.7827452699048028E+00    6.5229286107340219E+00   -1.0422615755757162E+01
Pb   -9.2915995668122164E+00    1.8158990984912298E+00    3.4710987255281127E+00
Pb   -1.0171118664506515E+01    8.7148225189867823E+00    8.7173331460682224E+00
Pb   -3.0398895576632978E+00   -3.9013891051876572E+00   -2.0680035210444019E+00
Br    2.1309222994027388E-01   -3.1724309897067529E+00   -2.0466165877797797E+00
Br    2.5621782040168899E+00   -3.5103800813870021E+00   -5.6375153800170770E+00
Br    2.5227063979928017E+00   -1.3410186891410583E-01   -4.0466909747380662E+00
Br    8.4705896828547644E-01   -8.8152314626078585E+00   -1.5282649929693588E+00
Br    4.3817340674140537E+00   -8.4530302089879488E+00   -4.3262456032861802E+00
Br    3.7368010122161737E+00   -5.6128543136980955E+00   -1.5431510361414427E+00
Br   -2.6456078735168869E+00   -4.6438384363227403E+00   -4.7866142668413483E+00
Br   -7.4175626591163475E+00   -2.6897583088625892E+00    7.7731357670040939E+00
Br   -3.1707959158977594E+00   -9.5369380400399184E-01   -2.8672329969708223E+00
Br    4.7718730563737894E+00   -1.1685430902927994E+01   -6.5881716540088953E-01
Br    1.2615396454801788E+01    3.8554884786809074E-02    2.0460542617871846E+00
Br   -4.7190901555710427E+00   -1.0326391006379504E+01   -3.9443721883288313E-01
Br   -1.0718136911057128E+01   -4.5885433829838833E+00    5.1207126470385420E+00
Br   -8.3861029406461416E+00   -4.1603908851370708E+00    1.5656541665387684E+00
Br    1.3763148669645037E+01   -6.8285360734480003E+00    4.3732907236503182E+00
Br   -1.7004605886804105E+00    8.0209534672001066E+00   -5.5126719660780692E+00
Br    1.5324001078792477E+00    8.2650058411697511E+00   -8.1858590784536602E+00
Br    3.0354440240607033E-01    1.1451641074043918E+01   -5.1886487414979454E+00
Br   -8.5076154436217200E-01    2.6032670078935523E+00   -3.7095818462847960E+00
Br    1.8702695575553165E+00    2.7283846662657907E+00   -7.1354799739840677E+00
Br    2.2313675469843268E+00    5.9202802326011916E+00   -5.1991123398463603E+00
Br    1.2775507989934634E+00   -1.8409328082607310E+00    2.7797940745299061E+00
Br    4.3926355284334768E+00   -1.9014630705009046E+00   -4.6494799724004099E-01
Br    4.2724552456169622E+00    8.5582552474905704E-01    2.6621961767003715E+00
Br    2.5075808405631546E+00   -8.2405207654709365E+00    4.4649149357974647E+00
Br    5.5610953914910617E+00   -8.3645640950703530E+00    1.7619625600389628E+00
Br    4.7453119418243430E+00   -4.4974905074309577E+00    3.8918315672259416E+00
Br   -7.8485783560857074E+00    6.0123949477324734E+00   -1.0181325023004526E+01
Br   -4.4240553512221403E+00    4.9262437385596769E+00   -1.2853025854617410E+01
Br    6.2210232429983954E+00   -9.8391938347004206E+00    5.9116903966390870E+00
Br   -4.6590189438691105E+00    9.0487632564432143E+00   -1.1365429596768424E+01
Br   -4.7216947579088648E+00    3.6063035609169432E+00   -9.5258805386764358E+00
Br   -8.6319167195559707E+00   -9.7607226589730445E-01    3.7352970835700066E+00
Br   -1.6649462152181396E+00   -1.0461386302742337E+01   -3.4746007223580744E+00
Br   -7.2009814747151015E+00    7.9457922742564975E+00    1.8811952631365008E+00
Br   -4.3574464762693976E+00    8.0717865969642428E+00   -1.2849016195826533E+00
Br   -4.3789276987633290E+00    1.1521898394863197E+01    7.8116004038669562E-01
Br   -1.0596674297553188E+00    9.0851584073564542E+00    9.4929397514050673E-01
Br    1.6573125269835538E+00    9.0246513886041448E+00   -2.6087940464092401E+00
Br    1.4144541057282392E+00    1.2266387173957003E+01   -3.0064415683589624E-01
Br   -8.1311240998737322E-01    3.6331338087909111E+00    2.5402720695212775E+00
Br    2.2949086075138490E+00    3.4781719323648574E+00   -1.2012097783941575E+00
Br    2.3119513863298846E+00    6.7695600591488194E+00    1.1021375146418038E+00
Br    1.0287561102417160E+00   -9.8202369155409674E-01    9.4416644714682061E+00
Br    3.2827224099438399E+00   -1.1683599563988023E+00    6.0672054616046207E+00
Br    3.1000749931289686E+00    2.1867039555279653E+00    8.5159883855768541E+00
Br    2.1599270907512089E+00   -7.2874329394072435E+00    1.1259599091191905E+01
Br    4.7667849105135671E+00   -6.7229410251181294E+00    7.8401713224910896E+00
Br    4.5461741817218897E+00   -3.6325576726219451E+00    9.8794579380078975E+00
Br   -1.2003059303111968E+01    6.3439411139857604E-01    4.1291573986827093E+00
Br   -9.4727718433151828E+00    1.6052463599886018E+00    6.9658374340009077E-01
Br    5.5199465752301489E+00   -9.5445956423029177E+00    1.1496040547116108E+01
Br   -9.9202279290049411E+00    4.9313598875222580E+00    3.0707406591023667E+00
Br   -8.3243667131629380E+00   -2.4383665841917776E-01    9.9136046970941027E+00
Br   -2.8277311474175786E+00   -6.5643624507447882E+00   -1.0382658663819331E+00
Br   -6.4063776442921760E+00    2.3016096935735244E+00    3.0033544298763597E+00
Br   -4.1237748528170259E+00    2.7624027449862569E+00   -3.3882296333845258E-01
Br   -3.6588941375578932E+00    6.1596674729611722E+00    2.1656188006785184E+00
Br   -1.2501132059522866E+00    1.0523377926463928E+01    6.6386120935654027E+00
Br    1.7991434054222748E+00    1.0259892051610867E+01    3.4389709497677452E+00
Br    1.1445824953282973E+00    1.3630776020623390E+01    5.0916280297945802E+00
Br   -3.8196852351526739E-01    4.6470672404021407E+00    8.3986944394747205E+00
Br    2.7114357611338495E+00    4.3450812645344552E+00    4.8592626810397412E+00
Br    1.8957282183153563E+00    8.1817586189872120E+00    7.1207761298690890E+00
Br   -4.6405421313963942E+00   -2.6452289579544548E+00    1.0204279414255861E+01
Br    4.1901953332343052E+00    9.9347995785720081E-02    1.1756535560343846E+01
Br   -1.5029322331583703E+00   -2.0879181810323955E+00    7.0750858050159282E+00
Br   -2.5860316492099300E+00    1.2443975005326398E+00    8.7862281276458294E+00
Br   -7.9442088639807562E-01   -1.2226309837889202E+01    4.4330978282128991E-01
Br    5.3244261980746144E+00   -4.9903805856944832E+00    1.3091496303854608E+01
Br   -1.3309267596993392E+01    1.6327196286762360E+00   -1.9015875702047997E+00
Br   -3.5017365273232459E-01   -1.0878735832805202E+01    5.5626822041844575E+00
Br   -1.1590999928930605E+01   -4.7277252858405099E+00   -4.1610895439091533E-01
Br    1.7557125411589534E+00    1.2401572471469692E+01    8.9052964722958041E+00
Br   -8.8075942412109569E+00   -5.8895283346627307E+00   -3.9622266782627671E+00
Br   -9.7679781332293434E+00   -2.3021201168889842E+00   -2.3594155742604919E+00
Br    2.6330019100278923E+00    5.6781886547373652E+00    1.0263799485351797E+01
Br   -7.8224313695197774E+00    7.4516798493248428E+00   -4.0238963197391433E+00
Br   -4.9679851977023919E+00    7.1785040122996433E+00   -7.5294985485050860E+00
Br   -5.1804473430581224E+00    1.0267771932525235E+01   -5.1867260502292254E+00
Br   -6.7424572311475188E+00    1.3011616768635541E+00   -2.8343289151323163E+00
Br   -9.3681896211553131E+00   -1.0618410252761322E+01    6.5342917792914283E+00
Br   -4.4026268448944279E+00    8.6783878666896064E-01   -6.3533905343143013E+00
Br   -6.2226321914484695E+00   -5.6549366117942643E+00   -6.5857961746308469E+00
Br   -4.2053919932497923E+00   -6.5204216070188146E+00   -1.0017634704327795E+01
Br   -3.1698604339878567E+00   -2.5097387983961501E+00   -8.2792873250304542E+00
Br   -3.3511756594185038E+00    4.3855630066716573E+00    1.1653400654028076E+01
Br   -3.7826716838350993E+00   -7.2924532117446805E+00    1.1857922539055139E+01
Br   -8.7022813884278805E-01   -7.1198599139238299E+00    8.2925110560637343E+00
Br   -7.0871813561288022E-01   -4.1533577195690103E+00    1.1083504727702865E+01
Br   -7.5052910820691823E+00   -1.0584722951534822E+01    2.4487336143662111E+00
Br   -7.0417037153349389E+00   -6.6391293790349701E+00    4.4058153958771271E+00
Br   -8.8745599487426432E+00    7.8788678623948565E+00    1.1263064095303056E+01
Br    1.0183189500804133E+01    1.1143076548528621E+01   -1.8464588143446139E+00
Br   -7.3445093166501119E+00   -8.7602470369210916E+00    1.4831780497207305E+01
Br    1.0397634873120632E+01    9.2844536832905895E+00   -7.1630507653565738E+00
Br    1.1358091656414228E+01    6.5185104987861138E+00    1.7642952796990061E+00
Br   -9.3878086635667781E+00    3.2928146421801565E+00    1.2539277958938120E+01
Br   -1.1692506412183638E+01   -7.1031039246478898E+00   -5.8415477333136989E+00
Br    1.2217543607939392E+01    5.2581968168885107E-01    8.0693817278922477E+00
Br   -3.6631122946795203E+00   -8.2125574934509729E+00    4.7788656530711195E+00
Br    5.6834481839315085E+00   -3.4005576120068852E+00   -9.3855229909133975E+00
Br    8.6458833585753467E+00   -3.6163768197477140E+00   -1.1908519450173673E+01
Br    1.3241956549560740E+01   -3.8671402208073764E+00    9.8336683582439299E+00
Br    8.4960579008548933E+00   -3.6197369630627535E-01   -9.5185927311663985E+00
Br   -5.1258711065714309E+00   -1.1190680675873768E+01    1.1268037237289496E+01
Br   -9.2024478173458479E-01   -8.9471797472383710E+00    2.2602815157114269E+00
Br   -1.1949553603060810E+00   -5.2198503729194146E+00    4.0877884548065850E+00
Br    7.4916365886507181E+00   -1.0181712716436140E+01   -7.1834702332298912E+00
Br   -4.6764947222429472E+00   -1.0907784220640265E+01   -6.7434033202718435E+00
Br    9.5309559042079695E+00   -9.9239195548489523E+00   -1.0855874259220995E+01
Br    8.6942286437238341E+00   -6.3876777196756587E+00   -7.9126188239058468E+00
Br   -7.6756919291983650E-01   -1.0246409867859782E+01    1.1463731805704251E+01