 # Version information for this restart file 
 # current date 2021-06-17 12:35:44.318
 # current working dir /user/ub2042/exercises/2_fitting/MM_MD_workdir/md_settings.002
 # Program compiled at                              Thu Apr 22 21:44:59 EDT 2021
 # Program compiled on                cpn-k07-07-02.compute.cbls.ccr.buffalo.edu
 # Program compiled for                                                    local
 # Source code revision number                                       git:36754bb
 &GLOBAL
   PRINT_LEVEL  LOW
   PROJECT_NAME cp2k
   RUN_TYPE  MD
 &END GLOBAL
 &MOTION
   &MD
     ENSEMBLE  NVT
     STEPS  10000
     TIMESTEP     2.4999999999999996E+00
     STEP_START_VAL  2000
     TIME_START_VAL     4.9999999999997863E+03
     ECONS_START_VAL    -1.3948793637821183E+01
     TEMPERATURE     3.0000000000000000E+02
     &BAROSTAT
       PRESSURE     1.0100000000000000E+00
       TIMECON     9.9999999999999982E+03
     &END BAROSTAT
     &THERMOSTAT
       TYPE  CSVR
       &CSVR
         TIMECON     9.9999999999999982E+03
         &THERMOSTAT_ENERGY
              -8.0974919701156833E-02
         &END THERMOSTAT_ENERGY
         &RNG_INIT
Wiener process for Thermostat # 1        1 F T F  -4.1316006610438311E-01        3467588906.0        2335825785.0        3211720173.0        1531220123.0        1256874348.0        2092146405.0             12345.0             12345.0             12345.0             12345.0             12345.0             12345.0             12345.0             12345.0             12345.0             12345.0             12345.0             12345.0
         &END RNG_INIT
       &END CSVR
     &END THERMOSTAT
     &AVERAGES  T
       &RESTART_AVERAGES
         ITIMES_START  1
         AVECPU     1.7464455474982991E-02
         AVEHUGONIOT     0.0000000000000000E+00
         AVETEMP_BARO     0.0000000000000000E+00
         AVEPOT    -1.4332774658719346E+01
         AVEKIN     4.1909047546718253E-01
         AVETEMP     2.1259140133353725E+02
         AVEKIN_QM     0.0000000000000000E+00
         AVETEMP_QM     0.0000000000000000E+00
         AVEVOL     6.7483345830898648E+06
         AVECELL_A     1.8897261328855916E+02
         AVECELL_B     1.8897261328855916E+02
         AVECELL_C     1.8897261328855916E+02
         AVEALPHA     9.0000000000000000E+01
         AVEBETA     9.0000000000000000E+01
         AVEGAMMA     9.0000000000000000E+01
         AVE_ECONS    -2.5673918562276876E+00
         AVE_PRESS     0.0000000000000000E+00
         AVE_PXX     0.0000000000000000E+00
       &END RESTART_AVERAGES
     &END AVERAGES
     &PRINT
       &ENERGY  SILENT
         &EACH
           MD  10
         &END EACH
       &END ENERGY
     &END PRINT
   &END MD
   &PRINT
     &TRAJECTORY  SILENT
       &EACH
         MD  10
       &END EACH
     &END TRAJECTORY
     &CELL  SILENT
       &EACH
         MD  10
       &END EACH
     &END CELL
     &VELOCITIES  SILENT
       &EACH
         MD  10
       &END EACH
     &END VELOCITIES
     &FORCES  SILENT
       &EACH
         MD  10
       &END EACH
     &END FORCES
     &RESTART  SILENT
       &EACH
         MD  10
       &END EACH
     &END RESTART
   &END PRINT
 &END MOTION
 &FORCE_EVAL
   METHOD  FIST
   &MM
     &FORCEFIELD
       VDW_SCALE14     1.0000000000000000E+00
       EI_SCALE14     1.0000000000000000E+00
       SHIFT_CUTOFF  T
       DO_NONBONDED  T
       IGNORE_MISSING_CRITICAL_PARAMS  T
       &SPLINE
         R0_NB     2.5000000000000000E-01
       &END SPLINE
       &NONBONDED
         &LENNARD-JONES
           ATOMS Br Br
           EPSILON     1.2630795322675199E+02
           SIGMA     3.6900000000000004E+00
         &END LENNARD-JONES
         &LENNARD-JONES
           ATOMS Cs Pb
           EPSILON     8.6920055954630968E+01
           SIGMA     3.9452500000000001E+00
         &END LENNARD-JONES
         &LENNARD-JONES
           ATOMS Cs Cs
           EPSILON     2.2644852172126850E+01
           SIGMA     4.5300000000000002E+00
         &END LENNARD-JONES
         &LENNARD-JONES
           ATOMS Pb Pb
           EPSILON     3.3363415533600227E+02
           SIGMA     6.1000000000000005E+00
         &END LENNARD-JONES
         &LENNARD-JONES
           ATOMS Br Cs
           EPSILON     5.3481070753900497E+01
           SIGMA     3.6300000000000003E+00
         &END LENNARD-JONES
         &LENNARD-JONES
           ATOMS Br Pb
           EPSILON     2.0528187276773045E+02
           SIGMA     2.9800000000000000E+00
         &END LENNARD-JONES
       &END NONBONDED
       &CHARGE
         ATOM Cs
         CHARGE     4.1739999999999999E-01
       &END CHARGE
       &CHARGE
         ATOM Pb
         CHARGE     8.3479999999999999E-01
       &END CHARGE
       &CHARGE
         ATOM Br
         CHARGE    -4.1739999999999999E-01
       &END CHARGE
     &END FORCEFIELD
     &POISSON
       PERIODIC  XYZ
       &EWALD
         EWALD_TYPE  SPME
         GMAX  62 62 62
         O_SPLINE  4
       &END EWALD
     &END POISSON
     &PRINT
       &FF_INFO  LOW
         SPLINE_INFO  F
         SPLINE_DATA  F
       &END FF_INFO
     &END PRINT
   &END MM
   &SUBSYS
     &CELL
       A     1.0000000000000001E+02    0.0000000000000000E+00    0.0000000000000000E+00
       B     0.0000000000000000E+00    1.0000000000000001E+02    0.0000000000000000E+00
       C     0.0000000000000000E+00    0.0000000000000000E+00    1.0000000000000001E+02
       PERIODIC  XYZ
       MULTIPLE_UNIT_CELL  1 1 1
     &END CELL
     &COORD
Cs   -1.7433275211205082E-01   -8.4618769853277742E-01   -5.9217246449493821E+00
Cs    3.1906260650669421E-01   -6.3929698145555633E+00   -5.3198789302042853E+00
Cs    3.0434842489972608E-01   -1.2487897274779828E+01   -4.8154019414906353E+00
Cs   -5.7505801599116442E+00   -6.7451427853385661E+00   -6.0936365356070752E+00
Br   -8.5562539666501234E+00   -1.2311704650420744E+01   -8.6588314188241178E+00
Br    1.1858827549177516E+01   -3.1899371237949850E+00   -9.2924597218618548E+00
Br   -2.9808181115817405E+00    2.1926197873940727E+00   -1.2121353944044470E+01
Cs   -1.8223971456964333E-01    5.7409402484051197E+00   -6.8592042187881246E+00
Cs   -7.8742346991805678E-01    3.1676372578793251E-02    1.1726311767806384E-01
Cs    4.1116780970299593E-01   -4.9610484701077757E+00   -2.3243624724201872E-01
Br   -5.9099573174692610E+00   -2.7329050390364609E+00    2.8042438594834467E+00
Cs   -1.1458734751597964E+01   -6.0368948386223762E+00    1.1648189588716260E+01
Cs    1.2497357868249846E+01   -1.0368794574008474E+01   -1.1654434210184030E+00
Cs   -6.2708889288960163E+00    6.3136275557127952E+00   -5.8277172557186974E-01
Cs   -3.0333817578263417E-01    1.0674673067924100E+01   -6.2917909705745245E-01
Cs   -5.1836927008886602E-01    5.7058282051385305E+00   -5.8128447377524251E-01
Cs    9.9949766666801432E-01    3.0431322423851964E-01    5.7872584090251680E+00
Cs   -2.0058488393322810E-01   -6.1391345671653719E+00    5.7084302173946160E+00
Cs    6.5762154190403777E-01   -1.1697518699525714E+01    7.8013054381422231E+00
Cs   -5.8668884629194809E+00    6.1539850377628484E+00    1.0831814708293409E+01
Cs   -5.4114601249437726E+00   -3.8947896085371053E-01   -1.2049439302607579E+01
Cs   -5.2914933803977355E+00   -1.0924679706992132E+01   -5.4262350481522974E+00
Cs   -5.5775008903415193E+00    4.1389753889461595E-01    5.9869446456346314E+00
Br   -3.0922818488535420E+00   -2.5942516698068152E+00    2.8347270535832769E-01
Cs    4.0432123004833465E-01    6.3426059950370544E+00    5.6030475230619681E+00
Br    1.2335193183418314E+01   -9.5759763305127841E+00   -9.1540404634011878E+00
Cs    7.6344925288627863E-01   -5.6073019123022263E+00    1.0985296847839042E+01
Br   -2.9917539983299104E+00   -2.6537221313842188E-02    3.7487337601461266E+00
Br   -9.2844201500328278E+00   -3.2355335013921329E+00    1.1826324409372154E+01
Cs    1.2198420460647421E+01    1.1263436138638410E+01   -6.6189353174931433E+00
Cs   -1.1228819106641467E+01   -6.4128934700477531E+00    6.1486991159285171E+00
Cs   -4.6620579287231685E+00   -6.3768894910990248E+00    6.8742618695758972E+00
Cs   -5.9821053976486382E+00    1.1076865027398858E+01   -5.9128024004788520E+00
Br   -1.1537018147785362E+01   -8.6125207840744320E+00    9.8698075189502052E+00
Br   -8.6397441134940891E+00   -9.3834586041175339E+00    7.1496574621399729E+00
Cs   -1.0437753025775132E+01   -6.2331824161506040E+00   -5.4330216581702091E+00
Cs   -6.9044698261818187E+00    5.6779725581617280E+00   -6.4718282198917798E+00
Br   -8.5473154690492485E+00   -6.2960634072462103E+00    9.1716364688759278E+00
Cs    1.1674850944236931E+01    6.6949690761137539E+00    1.0460266387432203E+01
Br   -1.1682022813501339E+01    8.2769359140204948E+00    9.2925532537587401E+00
Br   -5.6253384420082693E+00   -2.8369566098234476E+00   -3.1516917616943312E+00
Cs    4.3648220906848301E-01    1.4859326525464975E+00    1.1449341734033782E+01
Cs    1.0971428816670951E+01    6.1684132602768864E+00   -2.4397517489399267E-01
Cs   -1.2489482541384765E+01   -6.5580783095511226E+00   -9.9384724058570946E+00
Cs    1.2466929201750348E+01    8.2736627276266295E-01    6.0606465464570007E+00
Cs   -1.2152016841657630E+01    1.1506697497780245E+01   -6.7937831092647629E+00
Cs    1.1689558741660298E+01   -1.0505927213255140E+01    5.9435229119463351E+00
Cs    6.6474022185560164E+00   -5.9036709060170853E+00   -1.2170666497898091E+01
Cs    6.1063677989402390E+00   -1.1251885854971478E+01    6.8422592532288977E+00
Cs   -5.1901860871723793E+00   -1.2229671768951054E+01   -2.1024156864899385E-01
Cs    6.0722111551350952E+00   -1.2005350757222708E+01   -1.1598616867210911E+01
Cs    1.1897333631907079E+01    5.9692529948927957E+00   -6.0874948915756040E+00
Cs    1.1046548699426344E+01    1.1922558289807169E+01    5.6447723869666921E+00
Cs    1.1576494358386185E+01    5.3877900774941425E+00   -1.1924661595353358E+01
Cs    1.3815862215920047E-01   -5.7600434030529266E+00   -1.1257486925814499E+01
Cs   -1.1192451106917005E+01   -1.3921913364767585E-01   -5.5609154314963494E+00
Cs    6.7560112223177189E+00   -5.4219976581947034E+00    1.1362739899538747E+01
Cs    1.1207269649599793E+01   -5.5272219110876577E+00    5.7694199532353814E+00
Cs   -1.0682010435733954E+01   -1.2917418372155135E+01    1.2627162041414287E+01
Cs    1.4770851653471148E-01    3.0096126752200331E-01   -1.1521936978736059E+01
Cs   -2.8522910290306669E-01    1.1457558249186134E+01    5.8442354258870841E+00
Cs   -3.6738788271555814E-02    5.3703647203982827E+00   -1.1808359692266004E+01
Cs    5.8211668232108176E+00    6.5759626832620466E-01   -5.8013040229718342E+00
Cs    6.3695195254895642E+00   -5.5920241552968406E+00   -5.7223649423762204E+00
Cs   -4.3092982207731838E+00   -1.2064558058340076E+01    6.7476531328727241E+00
Cs   -1.1416109542543451E+01    2.2892875101482860E-01    6.0492874942762587E+00
Cs    6.4639874586823538E+00   -4.1733620274666698E-02   -1.0916360867174349E+01
Cs    5.9415642872675889E+00    1.0805629539575481E+01   -1.2544997215221800E+01
Cs   -6.2282260088503856E-03    6.3803428905739974E+00    1.0840183595277866E+01
Cs   -6.3009480637775450E+00    1.1689045052967522E+01    6.2382614748895113E+00
Cs    5.6423857439858418E+00    1.1220564322360273E+01   -6.3135903225479515E+00
Cs    5.6041157888612725E+00    5.7754025103576616E+00   -5.1960914040099420E+00
Cs    6.0346796570941779E+00   -1.9481385870064324E-01   -2.7093485250872673E-01
Cs    6.2490311735604509E+00   -6.0636203798425825E+00    6.8655710786472798E-02
Cs    6.5865271399079823E+00   -1.0812283000793590E+01    1.0066590977338716E-01
Cs    6.3274863777502182E+00    5.1129437961652204E+00   -1.1838762369177456E+01
Cs   -6.6758887819750985E+00    5.1217794289910232E+00    5.8170440603954123E+00
Cs   -6.3899588226245978E+00   -6.4710932705497548E+00   -1.0900562629934258E+01
Cs    5.7130768786453450E+00    6.3081943340418398E+00   -8.1040952753557802E-03
Cs    6.6217410203687876E+00    4.5967153744900441E-01    5.8997925365853661E+00
Cs    5.6136228824257728E+00   -5.4156061697373019E+00    5.5439140797609889E+00
Cs   -5.8902101534764677E+00    1.1456090651788543E+01   -6.7118343335309616E-01
Cs    1.1958130892129249E+01    4.6567064638573558E-01    6.3639689370327945E-01
Cs   -6.3896908163064765E+00   -6.1563700942000544E-03    6.5509525778151811E-01
Cs   -1.1610530094294786E+01    5.0713683462055359E+00    6.9749930436864087E+00
Cs   -5.5706652360735109E+00   -3.8772359041428167E-01    1.1160715383853006E+01
Cs    5.8548978876228839E+00    1.2046743012388996E+01    7.0098150362701075E+00
Cs    5.7084880423009823E+00    7.1471466117253932E+00    5.8855248800741196E+00
Cs    5.7047142083414171E+00    9.9346153971816634E-02    1.1112210651196644E+01
Cs    5.2825129499343362E+00    1.1400215865181472E+01   -3.4557556728134270E-01
Cs    1.1537335179420259E+01   -9.0567473584333577E-02   -6.0118264252021572E+00
Cs    1.1908574145580863E+01   -6.3600830134649176E+00   -6.8760705798182862E+00
Cs    6.5908228823853898E+00   -9.8987413501094714E+00    1.2301987432896663E+01
Cs    1.2615451317986800E+01    1.1169837203264182E+01   -3.9859347189219357E-01
Cs   -1.0693230240493698E+01   -1.5437501411507019E-02    1.1305707234484665E+01
Cs   -7.0928685627968875E+00    5.2976490351854331E+00   -1.2039244536537337E+01
Cs   -1.1513400253172035E+01    1.1451512731459122E+01    2.0201770993994017E-01
Cs   -6.0240718066936800E+00   -5.1896089723794629E+00    1.1740632478297638E+01
Cs   -5.4343350684666696E+00   -1.1510505264664491E+01    1.2948668244444582E+01
Cs    6.5842870636906454E+00    6.7255715238609461E+00    1.1399787745682927E+01
Cs    1.1414321986152643E+01   -4.8074649117765889E+00   -3.8995823112989152E-02
Cs   -1.2146307372606447E+01   -1.0191604392549049E-01   -1.8789879825174108E-01
Cs   -6.9868285561148014E+00    1.1068627215128689E+01   -1.1697833159815234E+01
Cs   -1.1695184688155488E+01    6.2629542997813399E+00    5.7152556961120826E-01
Cs   -1.0035961798461690E+01   -1.2767756794226498E+01   -5.5068585213811039E+00
Cs   -1.1904250883038044E+01   -5.9495678181472975E+00    5.0515288671514125E-01
Cs   -6.0826439750625463E+00   -7.1587493707179455E+00    6.4896992868178860E-01
Cs   -1.1783027643555233E+01   -1.0719521647208772E+01    6.4044724397274528E+00
Cs    1.2046653643115668E+01   -5.2811282970037601E+00    1.0819655281702065E+01
Cs    1.1335162306175956E+01    6.5220982352650578E+00    5.4896286735056901E+00
Cs   -1.1954262050445605E+01    4.8167250780131354E+00   -6.7279172733055415E+00
Cs   -5.4437393468556587E+00   -7.9015581773057653E-01   -5.7018082283778400E+00
Cs   -1.1382204558119764E+01   -1.0913657759107322E+01    9.1991539777712206E-01
Cs    1.3062176136839454E+01   -1.1978601657204218E+01   -1.1175419351842582E+01
Cs   -5.8401122985683092E+00   -1.1460402052504138E+01   -1.2234730922729836E+01
Cs    6.6880914185618801E-01    1.1963502020081222E+01   -1.1119666373942843E+01
Cs    2.0706664578911263E-01   -1.1797391721479434E+01   -1.0094475950221488E+01
Cs   -2.7826169197560197E-01    1.1172625486349103E+01   -5.9653252315508558E+00
Cs   -1.1764159368151127E+01    9.9378372199109481E+00    1.2107225369605546E+01
Cs    7.1573676725935420E-01   -1.1218044541530363E+01    7.8884589446290787E-01
Cs   -1.1828684423765333E+01   -9.7396170039881746E-01   -1.0826635678947559E+01
Cs   -1.0968281959398416E+01    1.1961014714724740E+01    6.1450743853697425E+00
Cs    5.7743718046210573E+00   -1.1150808895387305E+01   -6.4155926233485738E+00
Cs    1.1352318532355870E+01   -9.1741728419857849E-01   -1.1564615407593203E+01
Cs    4.5463931803830709E-01    1.1832791305641639E+01    1.1406129985576653E+01
Pb    2.9254199495775706E+00   -2.8811176021403586E+00   -3.0031888539517611E+00
Pb    3.4712449367764595E+00   -9.1011933421067539E+00   -3.0739024198147455E+00
Pb   -8.9905399767282326E+00   -3.1413065282931418E+00    3.1791741952263730E+00
Pb   -2.2004639247804700E+00   -8.9052222074043712E+00   -2.6094549285449489E+00
Pb    2.6966513777219818E+00    9.0561865772618564E+00   -3.2930460944685271E+00
Pb    2.5745311352910605E+00    3.0915793850525985E+00   -3.1662477404946134E+00
Pb    3.0932446993633032E+00   -2.7053023187410568E+00    2.7730500219157288E+00
Pb    3.5788297088944807E+00   -8.8136130747565495E+00    3.0003987871246336E+00
Pb   -3.2453243006959287E+00    9.1560662238811581E+00    2.6256013199853849E+00
Pb    2.7065403698826165E+00    9.2914772273951556E+00    2.6914251254115475E+00
Pb    2.6193639883417634E+00    3.2090147525028905E+00    2.5891725402988994E+00
Pb    3.1802909009251326E+00   -2.5378825814062882E+00    8.6203462780423550E+00
Pb    3.0924582910648821E+00   -8.5311815224198266E+00    9.0072486216831233E+00
Pb   -3.1889254971292678E+00    2.7283809387186189E+00    2.7336022093630947E+00
Pb    2.8049121712107117E+00    9.4490012522158526E+00    8.8770219554954330E+00
Pb    3.1382721516293266E+00    3.3650917584614857E+00    8.5128499135690223E+00
Pb   -3.0124668462631585E+00   -3.2324351848010657E+00    8.7872110807178476E+00
Pb   -8.5120953283662377E+00   -9.2677968220247759E+00    4.0182111788246839E+00
Pb   -9.8370909992679803E+00    2.8794708279866392E+00   -2.9637450782916637E+00
Pb   -2.9979586543746679E+00   -3.3172785105128275E+00   -8.9950687202682680E+00
Pb   -2.4234489199712632E+00   -9.6264510807599564E+00    3.2395488606920373E+00
Pb   -3.1379626841867623E+00    8.5284149551550410E+00   -3.6577004764637699E+00
Pb   -2.7879547608962727E+00   -9.0339554059388085E+00    1.0214713338421772E+01
Pb   -8.5735401762679952E+00   -3.3693517588895876E+00   -2.6825700150642460E+00
Pb   -8.7926218040488084E+00   -9.2419678504232436E+00   -2.2864174863857514E+00
Pb   -4.0265135573545248E+00    2.7709180846096908E+00   -3.0815114033635704E+00
Pb   -8.6598784919149328E+00   -9.1958631416226257E+00    9.9722237123105177E+00
Pb   -8.9783226392723616E+00   -3.6859470899562639E+00   -8.7166449121996674E+00
Pb    9.0147741513261650E+00   -3.5338976164222911E+00   -8.9892111926198801E+00
Pb    9.3446029912537263E+00   -9.6054017616760454E+00   -9.1987838801546520E+00
Pb   -2.9996581658948753E+00   -9.3022193722931483E+00   -8.6481572178133721E+00
Pb   -9.2878532612386238E+00    8.4830172182194392E+00   -9.0720796371144719E+00
Pb    2.9569901155589111E+00   -3.1712816047868952E+00   -8.8576274111606050E+00
Pb    3.0006408537855846E+00   -8.9716345353765323E+00   -8.9233137189108884E+00
Pb   -3.0579163088952415E+00    2.7575983465919083E+00   -9.0103639917520173E+00
Pb    2.8635757311549384E+00    9.0527212700528192E+00   -9.3502091920326507E+00
Pb    3.2856217235764120E+00    3.1559182789291320E+00   -9.3846397826424504E+00
Pb    8.8303098020878537E+00   -2.7741851318042086E+00   -3.1633636039070723E+00
Pb    9.2994090962466771E+00   -8.8009445072855392E+00   -3.2633132033906809E+00
Pb   -9.0539741181361766E+00   -3.2175414437611707E+00    8.9035806037492460E+00
Pb    9.1802734976209504E+00    8.5493287630580070E+00   -9.3095264637215802E+00
Pb   -9.1660587574492247E+00    2.2409354485505881E+00   -9.2232088126481209E+00
Pb   -3.0669735290378481E+00    9.1604951010280899E+00    8.7911356909254259E+00
Pb    9.4710024657952765E+00    9.4313788527475744E+00   -3.1209722446802313E+00
Pb    8.8334108208836408E+00    3.2241371178066767E+00   -3.2102497273049293E+00
Pb    9.1975951420815427E+00   -2.2787588536518770E+00    2.7740389753468433E+00
Pb    9.3786412881485965E+00   -8.4614715178329174E+00    2.9339507293000362E+00
Pb    9.3739710280864017E+00    2.4443994884841755E+00   -9.0587510056393636E+00
Pb   -2.8417477143677163E+00    2.9412932426129235E+00    8.4605864135103843E+00
Pb    8.8907865234690444E+00    9.4948895808371923E+00    2.5790388386984819E+00
Pb    8.2848256591430651E+00    3.3638345588342533E+00    2.7921320701970771E+00
Pb    9.2274568170032563E+00   -2.4507863169914037E+00    8.5648975635154354E+00
Pb    9.2904379760836768E+00   -8.4285835737798998E+00    9.0491526629811965E+00
Pb    8.9802971426515477E+00    9.7562575170461781E+00    8.7893704962034853E+00
Pb    9.2496097407600040E+00    3.3726037923292904E+00    8.8317294210777941E+00
Pb   -8.6047976573113161E+00    2.5637628993056287E+00    8.9687692282620279E+00
Pb   -2.9964794078151598E+00   -3.2742767175996175E+00    2.8770907193493822E+00
Pb   -9.2160125338580965E+00    9.3213240643327886E+00    3.1171859589013007E+00
Pb   -9.1958861320045546E+00    8.8912582338771298E+00   -2.8585649424768951E+00
Pb   -8.9458098548620590E+00   -9.5482953618839836E+00   -8.4305468534645556E+00
Pb   -3.1580189010072131E+00    8.8857855688235503E+00   -9.8760786181517393E+00
Pb   -9.4402919579920521E+00    2.7608513988516821E+00    2.7054374027891459E+00
Pb   -8.8281435640705066E+00    8.8044109836095803E+00    9.1764094765798543E+00
Pb   -2.8828137464440724E+00   -2.9246201529912712E+00   -2.9697728665881602E+00
Br   -1.7399368156741951E-02   -2.5404237881807199E+00   -2.7705394006426389E+00
Br    2.8114712123239687E+00   -3.3786634551144652E+00   -5.8737227108191847E+00
Br    3.2766975141958277E+00    2.0508515412145872E-01   -3.3333228425144794E+00
Br    5.3121460803579756E-01   -9.3134571003444577E+00   -3.2013066506932968E+00
Br    3.6437433458898112E+00   -8.4069691310465195E+00   -5.7927233900186890E+00
Br    2.8675280883939678E+00   -5.9756449709431401E+00   -3.0906453651593040E+00
Br   -3.0085388641839352E+00   -3.4051128950846805E+00   -5.8887407399568659E+00
Br   -9.2883396140560723E+00   -3.3298183702528479E+00    5.9052346757560779E+00
Br   -3.1949665266413687E+00   -9.2535580313181737E-02   -3.2943282468445427E+00
Br    3.4563058739128207E+00   -1.1854956469158523E+01   -3.4678411073756488E+00
Br    1.1916147714895551E+01   -2.1712338464109777E+00    2.6096446824456199E+00
Br   -5.5436071224454713E+00   -9.0880103710012161E+00   -2.1786170423751945E+00
Br   -1.1638426964301070E+01   -4.0920353942531413E+00    2.8551481405270445E+00
Br   -9.2174815818660036E+00   -2.8486571463549701E+00    3.5095410710084757E-01
Br    1.2211216130311620E+01   -8.4363150390180390E+00    2.6015999891120454E+00
Br   -7.9680150772058617E-02    8.5308522476013469E+00   -3.8970804653909767E+00
Br    3.0217346667612417E+00    9.0157492453634376E+00   -6.4078736683885724E+00
Br    1.8751683586473007E+00    1.1838492635130047E+01   -3.0825253073751400E+00
Br   -5.0149723282669123E-01    3.1275193787031754E+00   -2.9385151372530127E+00
Br    3.1039547108174985E+00    3.1342545470996099E+00   -5.9486932431601343E+00
Br    2.6631146798959717E+00    5.9510999456990774E+00   -3.4050598282590356E+00
Br   -9.8776740220524906E-02   -3.1269541051185947E+00    2.5551394025860832E+00
Br    3.0475702565137159E+00   -3.0108726667812991E+00   -4.8873371228117080E-02
Br    3.4228094544026550E+00    2.7718386930655775E-01    2.7386674733138126E+00
Br    6.3381118110312262E-01   -9.2902939572487604E+00    3.5184400238469045E+00
Br    3.1603288911936427E+00   -8.9004209811031778E+00   -2.3874764464997525E-01
Br    2.8134368279940243E+00   -5.7976402308454222E+00    2.8108391491132454E+00
Br   -6.4025611975134584E+00    8.7527704058637230E+00   -9.2664036645542236E+00
Br   -2.5766719592712879E+00    7.7885156747152546E+00   -1.2519391482366775E+01
Br    4.5486245847354869E+00   -1.1400782052155375E+01    3.2916914049819921E+00
Br   -2.4480457988421920E+00    1.1477638708255942E+01   -1.0675988249611583E+01
Br   -3.0441123618873354E+00    5.8537223889977223E+00   -9.1299915082888692E+00
Br   -9.7942048765449101E+00   -1.7921545514249201E-01    2.9694534622823205E+00
Br   -2.7776473272086388E+00   -8.6724930535634055E+00   -5.4724068211937089E+00
Br   -6.0737241868898799E+00    9.1009722856380488E+00    2.4701858698247543E+00
Br   -2.9319589714845398E+00    8.4202161507103739E+00   -8.8163441884778315E-01
Br   -3.2659046487513774E+00    1.1815909072711156E+01    1.7635086269388054E+00
Br   -3.7445666762907631E-01    9.0360253562046307E+00    3.4181914255087475E+00
Br    2.5071067009903749E+00    8.8748319372608133E+00   -2.1453801846186815E-01
Br    3.3243756464516325E+00    1.2071680336552975E+01    2.2713616237256060E+00
Br   -4.5009583012215537E-01    2.7124987739410873E+00    2.2083391350772241E+00
Br    2.7548349155161569E+00    2.7683216076143218E+00   -3.9462158570601169E-01
Br    2.1496941039036539E+00    6.1714754834442527E+00    2.4746376598944551E+00
Br    6.0540797117727904E-02   -3.0347854796212279E+00    8.5119247477735076E+00
Br    3.4616575120093298E+00   -2.2648582639682244E+00    5.6072111804487630E+00
Br    3.1071358839305150E+00    5.3067500661102041E-01    9.0259844439928170E+00
Br    1.9328523164797343E-01   -8.4451827630169944E+00    9.5321401225488636E+00
Br    3.4657072227975441E+00   -8.7232151713802040E+00    5.7548455898029101E+00
Br    2.8555350978375480E+00   -5.2144369104992752E+00    7.7794275778952207E+00
Br   -1.2145678775292915E+01    3.5974839293514398E+00    3.9329497442250627E+00
Br   -9.6173127279780797E+00    2.2093076804934757E+00   -2.2758298558632161E-02
Br    3.7183599748204137E+00   -1.1148796677222100E+01    9.1778865386021646E+00
Br   -8.8674407420193671E+00    5.7618698763350356E+00    2.9575901514203844E+00
Br   -8.5548230239172192E+00   -2.1794775337191816E-01    8.5886734034657870E+00
Br   -2.0361949895975053E+00   -6.0711847980170921E+00   -2.6256001988009823E+00
Br   -6.0649157153966220E+00    2.2021746642265225E+00    2.9533141941376431E+00
Br   -3.7836537399823453E+00    2.3927661367942226E+00   -2.0207499583632779E-01
Br   -3.0145905584430679E+00    5.5960114050744698E+00    1.8741889000682419E+00
Br   -3.4718927853307567E-02    8.7407290252312020E+00    8.3192437644917412E+00
Br    2.8994374082993217E+00    9.4068233044660126E+00    5.7063047482305516E+00
Br    2.3727737322391964E+00    1.2309423994784488E+01    8.7334732081637778E+00
Br   -1.0898744068635961E-01    2.9440289680772693E+00    8.0973106114852698E+00
Br    2.8966718257991331E+00    3.0225751400438492E+00    5.5919469112024744E+00
Br    3.0348434548138119E+00    6.4013397291894822E+00    8.0476659505886463E+00
Br   -6.0831471113993318E+00   -3.4144667940797420E+00    8.8673573039693814E+00
Br    2.8289473213678367E+00   -3.0288157511743297E+00    1.1384387445447237E+01
Br   -3.3647221290922111E+00   -3.3623224093431188E+00    6.0217471464235697E+00
Br   -3.4441079545931550E+00   -2.8070274637300491E-01    8.3775807288114237E+00
Br   -2.7981243549249486E+00   -1.1837375937968938E+01   -2.9776738539230014E+00
Br    3.7493556801704480E+00   -7.2162714520386588E+00    1.1431522915020517E+01
Br   -1.2889669168696605E+01    2.0527230938597358E+00   -3.1815648948953905E+00
Br   -2.7045583987359820E+00   -1.2391451297430891E+01    2.5729369891319083E+00
Br   -1.1553416855387781E+01   -3.5775420207896107E+00   -3.7196892340368435E+00
Br    2.5770541324181186E+00    8.7830286142372405E+00    1.1497577364960980E+01
Br   -8.3437679695664126E+00   -3.7847479587548070E+00   -5.8988047338304863E+00
Br   -9.1607429240392388E+00   -7.9398500288024421E-02   -3.0522056668691437E+00
Br    2.2338455605470950E+00    4.0230002900915487E+00    1.1225990073548706E+01
Br   -6.0783208435680463E+00    8.5002538523919480E+00   -3.5745032841439035E+00
Br   -3.2565695724313901E+00    9.0733529613309223E+00   -6.9318246678459090E+00
Br   -3.6035809560718630E+00    1.1415485510362965E+01   -3.2836390678363117E+00
Br   -6.8955798389274614E+00    3.3480034600432202E+00   -2.9640925172926482E+00
Br   -1.1330540347077676E+01   -9.1217581426439800E+00    3.7424081406689873E+00
Br   -3.3228589682508951E+00    2.9097326667622694E+00   -6.1006687623552045E+00
Br   -5.9640238739082978E+00   -3.0411170339078533E+00   -9.5103653782099862E+00
Br   -2.9686156159819510E+00   -2.7322305986158040E+00   -1.1877248229609945E+01
Br   -2.9196197508599124E+00   -1.8253802000778102E-01   -8.8672394904497693E+00
Br   -2.0941191101574694E+00    3.4810258916570644E+00    1.1148308902012587E+01
Br   -5.6555301150284629E+00   -8.8403996851290554E+00    1.0107866505693497E+01
Br   -2.4317647978771766E+00   -9.3693275570977175E+00    6.0854622182596483E+00
Br   -3.0091020862235940E+00   -5.9979934464389668E+00    9.5372052449591855E+00
Br   -8.4032178619342783E+00   -9.6691448830392268E+00    7.3662178946813694E-01
Br   -8.6925335779199759E+00   -6.2524394647862067E+00    3.5714301950811773E+00
Br   -8.5155824671051903E+00    9.4333243567267910E+00    1.1955706336866699E+01
Br    1.1866389125853720E+01    9.4597600066473717E+00    2.3978451609402138E+00
Br   -8.1246668123655024E+00   -7.6861627251372342E+00    1.2640573735146440E+01
Br    1.2102290673876645E+01    8.3785968315337662E+00   -2.7314605281149600E+00
Br    1.1550150393992006E+01    3.5271292221346200E+00    2.5441975612964605E+00
Br   -8.2919434232015892E+00    2.2392623495063422E+00    1.1708281317111554E+01
Br   -1.1701994843758889E+01   -3.4501271111012950E+00   -7.8454521800063617E+00
Br    1.2064671743120888E+01   -2.5143585427855917E+00    8.1031215358337327E+00
Br   -5.4617039522892075E+00   -9.4782498505989050E+00    3.3976805962583061E+00
Br    6.0428066553587962E+00   -3.0690186242215964E+00   -8.3399135417388415E+00
Br    8.6092328327326015E+00   -2.9211431770831005E+00   -1.1804284222681268E+01
Br    1.2033551189192263E+01   -7.8839537415884031E+00    8.1534296847425676E+00
Br    8.9376064682108911E+00   -1.9980624871478084E-01   -8.4185413725784848E+00
Br   -8.4008629468540530E+00   -1.1997993429004657E+01    1.0557214327019917E+01
Br   -2.5894023673148254E+00   -9.1841534861717680E+00    3.2693405188117458E-01
Br   -2.7896606023130874E+00   -6.4903489945411250E+00    3.4068352616875490E+00
Br    5.9747642699697714E+00   -9.2971853662531334E+00   -9.4726392280122216E+00
Br   -6.0456134583838237E+00   -9.0191652181247868E+00   -8.3489385966425989E+00
Br    8.7846187557464095E+00   -9.4219828416378366E+00   -1.2315775878050376E+01
Br    9.0472381799885078E+00   -6.4878198575148209E+00   -8.9030047275520587E+00
Br   -2.2812160000159083E+00   -1.2228773898055231E+01    9.9009277257248787E+00