 # Version information for this restart file 
 # current date 2021-06-17 12:38:04.081
 # current working dir /user/ub2042/exercises/2_fitting/MM_MD_workdir/md_settings.002
 # Program compiled at                              Thu Apr 22 21:44:59 EDT 2021
 # Program compiled on                cpn-k07-07-02.compute.cbls.ccr.buffalo.edu
 # Program compiled for                                                    local
 # Source code revision number                                       git:36754bb
 &GLOBAL
   PRINT_LEVEL  LOW
   PROJECT_NAME cp2k
   RUN_TYPE  MD
 &END GLOBAL
 &MOTION
   &MD
     ENSEMBLE  NVT
     STEPS  10000
     TIMESTEP     2.4999999999999996E+00
     STEP_START_VAL  9980
     TIME_START_VAL     2.4949999999995503E+04
     ECONS_START_VAL    -1.3948793637821183E+01
     TEMPERATURE     3.0000000000000000E+02
     &BAROSTAT
       PRESSURE     1.0100000000000000E+00
       TIMECON     9.9999999999999982E+03
     &END BAROSTAT
     &THERMOSTAT
       TYPE  CSVR
       &CSVR
         TIMECON     9.9999999999999982E+03
         &THERMOSTAT_ENERGY
              -3.2121822821543278E-01
         &END THERMOSTAT_ENERGY
         &RNG_INIT
Wiener process for Thermostat # 1        1 F T F   1.0571577890008135E+00        2254892290.0        3032320490.0        1438837230.0         879273700.0         502542477.0        1398262910.0             12345.0             12345.0             12345.0             12345.0             12345.0             12345.0             12345.0             12345.0             12345.0             12345.0             12345.0             12345.0
         &END RNG_INIT
       &END CSVR
     &END THERMOSTAT
     &AVERAGES  T
       &RESTART_AVERAGES
         ITIMES_START  1
         AVECPU     1.7496882785878732E-02
         AVEHUGONIOT     0.0000000000000000E+00
         AVETEMP_BARO     0.0000000000000000E+00
         AVEPOT    -1.4262685470504850E+01
         AVEKIN     4.8425292821907467E-01
         AVETEMP     2.4564626169373315E+02
         AVEKIN_QM     0.0000000000000000E+00
         AVETEMP_QM     0.0000000000000000E+00
         AVEVOL     6.7483345830912264E+06
         AVECELL_A     1.8897261328855686E+02
         AVECELL_B     1.8897261328855686E+02
         AVECELL_C     1.8897261328855686E+02
         AVEALPHA     9.0000000000000000E+01
         AVEBETA     9.0000000000000000E+01
         AVEGAMMA     9.0000000000000000E+01
         AVE_ECONS    -4.0021477789657878E+00
         AVE_PRESS     0.0000000000000000E+00
         AVE_PXX     0.0000000000000000E+00
       &END RESTART_AVERAGES
     &END AVERAGES
     &PRINT
       &ENERGY  SILENT
         &EACH
           MD  10
         &END EACH
       &END ENERGY
     &END PRINT
   &END MD
   &PRINT
     &TRAJECTORY  SILENT
       &EACH
         MD  10
       &END EACH
     &END TRAJECTORY
     &CELL  SILENT
       &EACH
         MD  10
       &END EACH
     &END CELL
     &VELOCITIES  SILENT
       &EACH
         MD  10
       &END EACH
     &END VELOCITIES
     &FORCES  SILENT
       &EACH
         MD  10
       &END EACH
     &END FORCES
     &RESTART  SILENT
       &EACH
         MD  10
       &END EACH
     &END RESTART
   &END PRINT
 &END MOTION
 &FORCE_EVAL
   METHOD  FIST
   &MM
     &FORCEFIELD
       VDW_SCALE14     1.0000000000000000E+00
       EI_SCALE14     1.0000000000000000E+00
       SHIFT_CUTOFF  T
       DO_NONBONDED  T
       IGNORE_MISSING_CRITICAL_PARAMS  T
       &SPLINE
         R0_NB     2.5000000000000000E-01
       &END SPLINE
       &NONBONDED
         &LENNARD-JONES
           ATOMS Br Br
           EPSILON     1.2630795322675199E+02
           SIGMA     3.6900000000000004E+00
         &END LENNARD-JONES
         &LENNARD-JONES
           ATOMS Cs Pb
           EPSILON     8.6920055954630968E+01
           SIGMA     3.9452500000000001E+00
         &END LENNARD-JONES
         &LENNARD-JONES
           ATOMS Cs Cs
           EPSILON     2.2644852172126850E+01
           SIGMA     4.5300000000000002E+00
         &END LENNARD-JONES
         &LENNARD-JONES
           ATOMS Pb Pb
           EPSILON     3.3363415533600227E+02
           SIGMA     6.1000000000000005E+00
         &END LENNARD-JONES
         &LENNARD-JONES
           ATOMS Br Cs
           EPSILON     5.3481070753900497E+01
           SIGMA     3.6300000000000003E+00
         &END LENNARD-JONES
         &LENNARD-JONES
           ATOMS Br Pb
           EPSILON     2.0528187276773045E+02
           SIGMA     2.9800000000000000E+00
         &END LENNARD-JONES
       &END NONBONDED
       &CHARGE
         ATOM Cs
         CHARGE     4.1739999999999999E-01
       &END CHARGE
       &CHARGE
         ATOM Pb
         CHARGE     8.3479999999999999E-01
       &END CHARGE
       &CHARGE
         ATOM Br
         CHARGE    -4.1739999999999999E-01
       &END CHARGE
     &END FORCEFIELD
     &POISSON
       PERIODIC  XYZ
       &EWALD
         EWALD_TYPE  SPME
         GMAX  62 62 62
         O_SPLINE  4
       &END EWALD
     &END POISSON
     &PRINT
       &FF_INFO  LOW
         SPLINE_INFO  F
         SPLINE_DATA  F
       &END FF_INFO
     &END PRINT
   &END MM
   &SUBSYS
     &CELL
       A     1.0000000000000001E+02    0.0000000000000000E+00    0.0000000000000000E+00
       B     0.0000000000000000E+00    1.0000000000000001E+02    0.0000000000000000E+00
       C     0.0000000000000000E+00    0.0000000000000000E+00    1.0000000000000001E+02
       PERIODIC  XYZ
       MULTIPLE_UNIT_CELL  1 1 1
     &END CELL
     &COORD
Cs   -2.8675752745756256E-01   -9.4079990784505285E-01   -5.6847296797103208E+00
Cs    9.2440961605618832E-01   -6.7626850513677832E+00   -4.5662869529404340E+00
Cs    1.0353841052021018E+00   -1.2640212978867872E+01   -2.7526157977601184E+00
Cs   -6.2146007502682261E+00   -7.6879355318395950E+00   -3.8137399859100363E+00
Br   -6.4935800198916258E+00   -1.4399753322931090E+01   -5.3902535440636088E+00
Br    1.1533728648588150E+01   -2.8635002013974962E+00   -9.3661860725879471E+00
Br   -4.7111961691707407E+00    1.2400909675917023E-01   -1.2155971843634800E+01
Cs   -2.2666775146609073E+00    4.1473901896672425E+00   -7.3602127714501595E+00
Cs   -3.6699707271503906E-01   -2.1810418514919255E-01    5.3401111766356446E-01
Cs    5.0757249128773851E-01   -5.7616666091900193E+00    1.0984451113594922E+00
Br   -4.9284189398476617E+00   -3.0876171866233086E+00    4.2004495492092264E+00
Cs   -9.1823242207807585E+00   -5.4457169036209123E+00    1.4277617910040176E+01
Cs    1.2801095279774021E+01   -9.9711784231369069E+00    1.1200142547171081E+00
Cs   -6.8958551696801402E+00    4.8698453550650331E+00   -7.1477092789432917E-01
Cs   -1.7136270425657638E+00    1.0928297035378433E+01   -2.0282961086583029E+00
Cs   -5.8095317428703952E-01    5.7644226073859715E+00   -1.0906012672881618E+00
Cs   -1.6353662773235680E-01    1.1086196450095063E+00    6.4381578791051046E+00
Cs    1.7713405236403208E+00   -4.1111458358264183E+00    6.4474829217609049E+00
Cs    1.0768291606810731E+00   -1.0030517675519619E+01    8.6198614522091699E+00
Cs   -5.8439229697831676E+00    6.7869343315998680E+00    1.1081851832163814E+01
Cs   -8.2472624604512905E+00   -3.6459418752210939E+00   -1.2063909556746466E+01
Cs   -4.4381723380197231E+00   -1.2452510237028392E+01   -2.9237695722929717E+00
Cs   -5.4666595568458920E+00    8.6665952857470607E-01    6.4039585133122268E+00
Br   -2.5326283782211978E+00   -3.0856051377579039E+00    9.5467860234113533E-01
Cs   -9.9429847129464111E-01    7.2071473342958523E+00    4.0194143041350063E+00
Br    1.2572387981331058E+01   -7.5333479946836412E+00   -8.7298564081722994E+00
Cs    2.2969518917890044E+00   -3.2178781968951866E+00    1.2526986183821437E+01
Br   -2.7148195191001592E+00    2.0846632381569452E-01    3.8695855019922569E+00
Br   -7.4143310761965155E+00   -2.2271226686362628E+00    1.4015201200636778E+01
Cs    1.0163336833079599E+01    1.1666948231520129E+01   -1.0006229121621015E+01
Cs   -9.9196499877494801E+00   -6.5392520371290006E+00    7.9464640689996200E+00
Cs   -4.6255567969709874E+00   -5.6842805378119463E+00    7.0347075686230331E+00
Cs   -8.0828492645204371E+00    8.8274741446432774E+00   -6.9179897323449202E+00
Br   -9.0279770633827212E+00   -8.9311694363661793E+00    1.0157715819705572E+01
Br   -5.7310595991374864E+00   -8.9364151129456015E+00    8.2537074227757419E+00
Cs   -1.1565784781096090E+01   -7.8657054234353954E+00   -2.5870525442710361E+00
Cs   -6.7367297767276098E+00    4.0477722649386250E+00   -6.5998605032510858E+00
Br   -7.0991321638045886E+00   -5.4779827985938478E+00    1.1328775988708614E+01
Cs    1.0564844369951583E+01    1.0565327018700524E+01    8.0932971813756183E+00
Br   -1.2970584524800275E+01    7.3446995296785156E+00    8.5902523788176133E+00
Br   -5.9626683512155942E+00   -4.1757086587969807E+00   -2.2958478107106624E+00
Cs    1.1545532578578706E-01    2.5299301524351687E+00    1.0980545552102976E+01
Cs    1.0334976524297174E+01    7.4938430221649481E+00   -1.8886666119074820E+00
Cs   -1.1162499991604626E+01   -9.8349321882169694E+00   -8.4726016602064007E+00
Cs    1.1041778864714869E+01    3.1612980356851459E+00    5.3261355371097849E+00
Cs   -1.3031367570714874E+01    8.8705232169906623E+00   -6.8374854536500322E+00
Cs    1.4514677616898533E+01   -7.6855645504952435E+00    7.7659574743641029E+00
Cs    7.5259365556183804E+00   -7.0212753372411614E+00   -1.1242387407572185E+01
Cs    9.2317479003042457E+00   -8.5197826525410765E+00    6.8960822812545244E+00
Cs   -2.8941698889254708E+00   -1.2169585571594840E+01    3.0751047064263681E+00
Cs    7.8846146548984573E+00   -1.3349816342599937E+01   -9.4509625667903876E+00
Cs    1.0982933322673397E+01    6.8242175399407143E+00   -9.5251106687355520E+00
Cs    3.7218187178593256E+00    1.2792354088814493E+01    2.3470142763077630E+00
Cs    8.2372400897831284E+00    4.3710656518619730E+00   -1.5721227053202895E+01
Cs   -7.2814934856534508E-01   -8.1339915235781515E+00   -1.0645052133381942E+01
Cs   -1.1979687576853575E+01   -3.4925192451971911E+00   -4.8592228409179121E+00
Cs    6.4975925333076407E+00   -1.6562351531173443E+00    1.2746937539727837E+01
Cs    1.2867747065243353E+01   -2.2443474590659509E+00    6.1033441723054258E+00
Cs   -7.7339917515771175E+00   -1.2277352219428360E+01    9.2923215934466921E+00
Cs   -1.2877385334501472E+00   -2.2505996500271750E+00   -1.1128283951947205E+01
Cs   -2.6285469065849814E+00    1.2488718095297907E+01    4.4368264554034900E+00
Cs   -1.9145818191189796E+00    3.2977366989468586E+00   -1.1792381286429579E+01
Cs    5.2153239433444405E+00   -4.0523259608955892E-01   -6.5346661103099066E+00
Cs    6.5830164413464729E+00   -6.0095464095570232E+00   -4.6467792793786229E+00
Cs    7.1399009641517210E+00   -1.1435707279321612E+01    8.8944705754060251E+00
Cs   -1.1732741305336466E+01   -1.0175314012587235E+00    7.6816788836579004E+00
Cs    5.0581964140884788E+00   -9.6416308685785879E-01   -1.1976650399500066E+01
Cs    3.9543692110979674E+00    1.0497849642827614E+01   -1.5433073783516505E+01
Cs    5.4073644155534151E-01    8.7172839897416949E+00    1.1193707874131434E+01
Cs   -7.8809482933619570E+00    1.1651790884852012E+01    5.6878049242206830E+00
Cs    5.0961093121430405E+00    1.1574736818267921E+01   -1.0291547220071402E+01
Cs    4.5412545467976129E+00    6.0705812798403267E+00   -7.5438386013498659E+00
Cs    6.1124296478478088E+00    1.2052137381756993E+00   -5.1378978579778123E-01
Cs    7.0670992353574178E+00   -5.1322227189805538E+00    2.6218940789336947E-01
Cs    8.7154697228574030E+00   -1.0495065429970589E+01    2.3329257924341618E+00
Cs    4.2573532652171453E+00    4.1483861314210841E+00   -1.2806379216495134E+01
Cs   -5.7492921636721945E+00    6.0147607279843314E+00    5.3077021248168101E+00
Cs   -5.9989418391996701E+00   -9.4091442746140022E+00   -9.8023149406929413E+00
Cs    4.4592114415750723E+00    6.3821062710623355E+00   -2.2176739822833809E+00
Cs    5.9838353555385480E+00    2.3950345434187592E+00    5.7099284781840955E+00
Cs    8.0633493333457160E+00   -3.5444770381713995E+00    5.9920393118873010E+00
Cs   -7.4756921107166550E+00    1.0424703548335769E+01   -2.0564099232416653E+00
Cs    1.2549213024375993E+01    9.0579837615898318E-01   -1.5521557860418285E+00
Cs   -6.5990844084476761E+00   -8.3845196403153965E-01    2.9229568522125243E-01
Cs   -1.1584624803406257E+01    4.5833550852915508E+00    6.1512575600556039E+00
Cs   -5.2384913211958741E+00    1.6518977797146930E+00    1.2727868894212756E+01
Cs    4.0793168860251043E+00    1.4269327790067583E+01    7.5233767502694695E+00
Cs    5.6936690702160258E+00    7.4069510236363492E+00    3.8451095224969087E+00
Cs    5.9898178207414752E+00    2.8994113859966375E+00    1.0486230825825452E+01
Cs    4.0594563814260249E+00    1.2068336703096090E+01   -2.9841669644787170E+00
Cs    1.0635933478122631E+01    1.8011857580695337E-01   -6.9328633447840335E+00
Cs    1.1382844658218184E+01   -5.1015381554307355E+00   -6.4135258613643167E+00
Cs    8.4211312445091053E+00   -6.1352925025439076E+00    1.3928678068269306E+01
Cs    9.8950675084834891E+00    1.3593494853130522E+01   -4.0846282720657276E+00
Cs   -1.0392004853285863E+01   -3.6319626003830774E-01    1.3562258093389325E+01
Cs   -8.0468955474070079E+00    1.7223341006621571E+00   -1.2818928381777635E+01
Cs   -1.2678013215167095E+01    1.0730844274305655E+01   -8.2289657141220907E-01
Cs   -3.6783090120345325E+00   -4.2453516406244569E+00    1.3053269703643625E+01
Cs   -1.8665002934837849E+00   -9.8694070516469914E+00    1.4889386031475221E+01
Cs    5.6132468767605044E+00    9.3108408966291556E+00    9.0689820071322700E+00
Cs    1.2171139874698705E+01   -3.7100251654031542E+00   -1.5607519934081340E+00
Cs   -1.1518305151860741E+01   -2.1883102412099755E+00    2.1621317299253491E+00
Cs   -8.2169382250473539E+00    7.1197520186469738E+00   -1.3170681096365135E+01
Cs   -1.2776250469988524E+01    4.2076935233231474E+00    3.3975450002559954E-01
Cs   -1.0412887121818494E+01   -1.3322140208252904E+01   -3.0660562641328903E+00
Cs   -1.0091899725969656E+01   -7.2905009149156577E+00    2.8719189315700322E+00
Cs   -5.4950518273184210E+00   -6.9785091223071039E+00    1.3375654378239767E+00
Cs   -3.3718742453439066E+00   -1.1365888458053959E+01    8.5179399100121440E+00
Cs    1.2375088053444435E+01   -1.2354099415955067E+00    1.1412821489084761E+01
Cs    1.0487192835268180E+01    9.1991926692251891E+00    3.2507137891292373E+00
Cs   -1.3268577566311663E+01    2.9597160297622791E+00   -5.5853796326081575E+00
Cs   -7.2732178601428474E+00   -2.9017217790930645E+00   -5.1223283305110590E+00
Cs   -9.1282493219425831E+00   -1.5466404983039848E+01    2.2431402791938293E+00
Cs    1.5828819585435522E+01   -6.9025009498030441E+00   -1.0371459846987852E+01
Cs   -4.3895256989077218E+00   -1.4524399894887752E+01   -7.7607448679867046E+00
Cs   -1.8359006215787592E+00    9.0482973158352156E+00   -1.3116200696366436E+01
Cs    2.0256913867857631E+00   -1.3054691562083454E+01   -8.7456843412735878E+00
Cs   -2.5922838576707550E+00    1.0508382954010331E+01   -8.0569495782174982E+00
Cs   -1.1975129599512563E+01    5.0708465672660497E+00    1.0795614056802153E+01
Cs    2.0936009874249444E+00   -1.0967657102278235E+01    1.7853006169369092E+00
Cs   -1.3047465954080687E+01    1.9262092586394679E+00   -1.2045130960450029E+01
Cs   -1.2429414981377025E+01    9.9743789344125044E+00    5.2967152457745827E+00
Cs    7.8402984980614070E+00   -1.1648758552884201E+01   -3.3076796976142115E+00
Cs    1.0316755439572498E+01   -9.3488983600436837E-01   -1.2483211232938604E+01
Cs   -1.6859112615788718E+00    1.3425232371913062E+01    8.6060572182841284E+00
Pb    3.0987166869815370E+00   -2.8544029923776479E+00   -2.8164561548233809E+00
Pb    4.3323200649924498E+00   -8.5369153629133230E+00   -1.2024718203224143E+00
Pb   -7.8921063307218544E+00   -3.5488026810509252E+00    4.6356259332686971E+00
Pb   -1.8368715866792054E+00   -9.4354058535572509E+00   -6.9935075440620076E-01
Pb    1.6239988314931668E+00    9.1441223107164458E+00   -5.4816760857170488E+00
Pb    2.1382417578021764E+00    3.0212856807298363E+00   -4.3444183489475279E+00
Pb    4.2583729984627086E+00   -1.8854227481882302E+00    2.7093545181831149E+00
Pb    5.3451582084114273E+00   -7.5963641340547676E+00    4.7202849320793376E+00
Pb   -4.1035148280542550E+00    8.9199376703828932E+00    1.6991895505961490E+00
Pb    1.7599030291525488E+00    9.7249381721708819E+00    5.4043722546654549E-01
Pb    2.5784701836440775E+00    3.8650313320484830E+00    1.7821041992173958E+00
Pb    3.6320308220695185E+00   -7.4958626792595628E-01    8.7535517475828239E+00
Pb    5.0016818259400226E+00   -6.6706039457093009E+00    1.0852371036697351E+01
Pb   -3.5902370891106257E+00    2.9432658700482794E+00    2.6543205526805669E+00
Pb    1.5495294888025790E+00    1.1246438253219322E+01    6.3313163027285109E+00
Pb    2.5728290542761050E+00    5.3037978955839407E+00    7.5436522588354809E+00
Pb   -1.8647496486008481E+00   -1.6005821187090461E+00    9.9800107596712593E+00
Pb   -6.6870897447096125E+00   -9.7702615894827538E+00    5.2534769549516156E+00
Pb   -1.0114190364465738E+01    1.0215301996403845E+00   -2.3837413608046041E+00
Pb   -2.9180195678956129E+00   -5.4864503978892083E+00   -7.6969909739010722E+00
Pb   -5.9373318582735324E-01   -8.0849402002106014E+00    5.0055446745122039E+00
Pb   -4.3651899047081120E+00    7.7054881009994078E+00   -4.4479509100164085E+00
Pb   -8.8911066614562440E-01   -7.2475899566122282E+00    1.1248618615661075E+01
Pb   -8.8942937001614890E+00   -5.0294603702932656E+00   -1.3043029356359970E+00
Pb   -7.9027782182864712E+00   -1.0963688309724454E+01   -4.6241989130455263E-01
Pb   -4.0829056947326583E+00    1.9197884639781992E+00   -3.3364901196996106E+00
Pb   -6.7115760453934312E+00   -8.8701740564969338E+00    1.2026813267392237E+01
Pb   -9.0998713347820921E+00   -6.4628000308140692E+00   -7.1071730204951464E+00
Pb    8.7984392838119945E+00   -3.5303681951260915E+00   -9.0778792083434698E+00
Pb    1.0567158723039485E+01   -9.7065678964597115E+00   -7.8417012654280507E+00
Pb   -1.1926431446097261E+00   -1.0945643675077546E+01   -6.4097188176186135E+00
Pb   -1.0988205785629999E+01    5.8105954885314768E+00   -9.5630814424550916E+00
Pb    2.7227684939124179E+00   -4.1249830462567889E+00   -8.8465513246179857E+00
Pb    4.3859628435946503E+00   -9.7478516597674556E+00   -7.4102749417093969E+00
Pb   -4.3106196657318359E+00    1.9623440380115559E-01   -9.1583391428217933E+00
Pb    1.4719319626077734E+00    7.9244998331559682E+00   -1.1453049381860609E+01
Pb    1.6053619505606738E+00    2.1212503406248135E+00   -9.9475227356753493E+00
Pb    8.9720045825960018E+00   -2.1578919669655376E+00   -3.4318120044319613E+00
Pb    1.0514530532882702E+01   -8.2996848122890370E+00   -2.2312662498017106E+00
Pb   -7.6304954817254398E+00   -2.8438646384272444E+00    1.0827556438079775E+01
Pb    7.4694194302825077E+00    8.2467723424862474E+00   -1.2857137149077417E+01
Pb   -1.0075277531816409E+01   -2.7606223156712401E-01   -8.4606023134141903E+00
Pb   -4.1656284477444689E+00    1.0072068934831247E+01    7.6012080032315499E+00
Pb    7.4936489524124665E+00    9.1104732799618429E+00   -6.9405277065811033E+00
Pb    8.1063936791384332E+00    3.5473633634725843E+00   -4.5673946106776073E+00
Pb    1.0044051693690733E+01   -7.1314931104126211E-01    2.2549722378034884E+00
Pb    1.1127504336019889E+01   -6.3651156493987475E+00    3.7120892974705324E+00
Pb    7.6263521869827109E+00    2.5324624163320153E+00   -1.0646720764038957E+01
Pb   -3.2396449685157171E+00    4.0917914099979065E+00    8.6593506496598973E+00
Pb    7.5997097695890359E+00    1.0849353122095469E+01   -6.3659320881705950E-01
Pb    9.0990661885965594E+00    4.9312116488340969E+00    1.1898810749334392E+00
Pb    9.4418229320421840E+00    4.9164387243689817E-01    8.2098485090670046E+00
Pb    1.1009331719761201E+01   -5.5329805730527326E+00    1.0217344001686115E+01
Pb    7.4717975871945281E+00    1.2332099189111705E+01    5.5073839924582995E+00
Pb    8.4163855970368076E+00    6.1310367504355883E+00    7.4095142188339471E+00
Pb   -8.9836353503062778E+00    2.9785149750843112E+00    9.5552153042448911E+00
Pb   -1.9365085218990215E+00   -2.5440970226958486E+00    3.8425372495652947E+00
Pb   -9.9665460315874679E+00    7.8576231590455006E+00    2.6203368993750664E+00
Pb   -1.0408209757115824E+01    7.1254373042363950E+00   -3.3498478783903392E+00
Pb   -7.5671131183166258E+00   -1.1919170543957614E+01   -6.1063667857332931E+00
Pb   -4.7642938560448833E+00    6.4999699747632995E+00   -1.0449853794092288E+01
Pb   -9.2996325796090087E+00    1.8454587984139934E+00    3.4552740410133671E+00
Pb   -1.0151008469963420E+01    8.7097737587627986E+00    8.7051620169942172E+00
Pb   -3.0496287021929098E+00   -3.8999499512821005E+00   -2.0785466921259141E+00
Br    2.6572703710561235E-01   -3.1867673423592846E+00   -2.0044380036244127E+00
Br    2.4868956193507072E+00   -3.5448177520879578E+00   -5.6541927453017706E+00
Br    2.5506432234238590E+00   -9.7225533331224842E-02   -4.0697719905315060E+00
Br    9.2073723860241652E-01   -8.8834682365675128E+00   -1.5654314873127610E+00
Br    4.3911471385788756E+00   -8.4387449267970815E+00   -4.2565394881977410E+00
Br    3.7230378884193192E+00   -5.6389354873548889E+00   -1.5219022040792858E+00
Br   -2.6367227114767040E+00   -4.6659942604155855E+00   -4.7711699920312434E+00
Br   -7.3989706273412228E+00   -2.8019211368856465E+00    7.6986626211211728E+00
Br   -3.2350281606597648E+00   -9.5065434095355184E-01   -2.8334588895158230E+00
Br    4.7865017729942680E+00   -1.1598315349373117E+01   -6.7163221059494960E-01
Br    1.2639239528251430E+01    1.1392862205440585E-02    2.0322826351725638E+00
Br   -4.7267861178382864E+00   -1.0260909944047794E+01   -4.1522420577244712E-01
Br   -1.0641917248722525E+01   -4.5488353555932139E+00    5.0968967336584905E+00
Br   -8.3995012420055630E+00   -4.1386211428440154E+00    1.6051002034795878E+00
Br    1.3787466945041531E+01   -6.8323709383321294E+00    4.3654452564985906E+00
Br   -1.6518724913334673E+00    8.0378860870022919E+00   -5.4749309985320060E+00
Br    1.5441633656592639E+00    8.2649197332168320E+00   -8.1842672888288206E+00
Br    2.9709154839146940E-01    1.1440406795019868E+01   -5.1779115470691437E+00
Br   -8.7680181074052344E-01    2.5807120194343414E+00   -3.7131444857451448E+00
Br    1.8783278140090767E+00    2.7206536339390865E+00   -7.1367125128881215E+00
Br    2.2345164708469931E+00    5.9231593886996965E+00   -5.2543688510295734E+00
Br    1.2862828055168363E+00   -1.8539366572674292E+00    2.8293094681715423E+00
Br    4.3600289257482432E+00   -1.8588594981524758E+00   -4.5528093902853201E-01
Br    4.3023252374228251E+00    8.8727301750723475E-01    2.7061793320182326E+00
Br    2.4748881034098460E+00   -8.2851885443879834E+00    4.4516224739732682E+00
Br    5.5719119017438574E+00   -8.4467341249517123E+00    1.7747999012804279E+00
Br    4.7923637585741448E+00   -4.4955550509963862E+00    3.8441260107080586E+00
Br   -7.9104604108487520E+00    5.9945551812654170E+00   -1.0192235525293901E+01
Br   -4.4434125695543534E+00    4.8744688142470762E+00   -1.2852840988178119E+01
Br    6.1900864327254368E+00   -9.8749810429145430E+00    5.9414749769509898E+00
Br   -4.7180537723220093E+00    9.0720050704045860E+00   -1.1351315255115754E+01
Br   -4.7447910817678141E+00    3.5258427240878945E+00   -9.4344009063538472E+00
Br   -8.6426369431427652E+00   -9.7576636077276635E-01    3.7711577186332916E+00
Br   -1.6993635027138125E+00   -1.0501123448241062E+01   -3.5123146175659179E+00
Br   -7.2261453779035785E+00    7.9237927510946049E+00    1.9194404591012131E+00
Br   -4.3590522917165373E+00    8.0606992237828337E+00   -1.2890228768837388E+00
Br   -4.3309541187959830E+00    1.1556575110703784E+01    7.8565644849754779E-01
Br   -1.0533499006808960E+00    9.0729164391188473E+00    1.0006823250054278E+00
Br    1.7137451619556632E+00    9.0498425605380532E+00   -2.5548002956922979E+00
Br    1.3838623642837407E+00    1.2289942742523387E+01   -3.5417697923685054E-01
Br   -8.0874499524182186E-01    3.6415313275823675E+00    2.4866425147102476E+00
Br    2.3525061894098784E+00    3.4774453998816823E+00   -1.1833944847764404E+00
Br    2.3010981373670836E+00    6.7186445871828617E+00    1.0432565195949488E+00
Br    1.0417608383429857E+00   -9.5620351197045983E-01    9.4551487013412174E+00
Br    3.2544627268750159E+00   -1.1574599852675442E+00    6.0793295441828006E+00
Br    3.1227584537892343E+00    2.1175134426604321E+00    8.4651769207700376E+00
Br    2.1159307081512386E+00   -7.2738877623778118E+00    1.1257529651226617E+01
Br    4.7555924732125661E+00   -6.7323879765889876E+00    7.7378836680678065E+00
Br    4.4456053722742999E+00   -3.6304109215026310E+00    9.8476058612656949E+00
Br   -1.1924488674410551E+01    6.7852944754582589E-01    4.0579174415196224E+00
Br   -9.4970251510392139E+00    1.5985417176232910E+00    7.0524277699862814E-01
Br    5.6166521146244239E+00   -9.5397126498907259E+00    1.1563413377328247E+01
Br   -9.8931533216320062E+00    4.8593467040467067E+00    3.0847225440835646E+00
Br   -8.3260458730981473E+00   -2.7139868288108887E-01    9.9501425488273174E+00
Br   -2.8059647596304855E+00   -6.5352708056098310E+00   -1.1147617840550434E+00
Br   -6.4166379178122330E+00    2.2843301932564875E+00    3.0381570306051291E+00
Br   -4.1084810075211324E+00    2.7190644900719572E+00   -4.0870547485249076E-01
Br   -3.6532875130910774E+00    6.1976883767797162E+00    2.1351582948662204E+00
Br   -1.2346666727387965E+00    1.0571992275906885E+01    6.6321482459684127E+00
Br    1.7614177679768925E+00    1.0264473150889909E+01    3.4781699494624165E+00
Br    1.1448643504408020E+00    1.3654250737317550E+01    5.0917546910354199E+00
Br   -4.3822042128652705E-01    4.6324386933455246E+00    8.4494561044923984E+00
Br    2.6882935152443150E+00    4.2896641906264534E+00    4.9042135028294549E+00
Br    1.9854159741700470E+00    8.1904581591047361E+00    7.0855446276095559E+00
Br   -4.6507847459930014E+00   -2.6497697787974821E+00    1.0240496624789897E+01
Br    4.1049691858697877E+00    1.1100892294915883E-01    1.1685659784777540E+01
Br   -1.4843466436330679E+00   -2.1338580977519279E+00    7.0163452689069077E+00
Br   -2.6236743183201328E+00    1.1284299625619729E+00    8.6568220025029223E+00
Br   -8.1394119269082854E-01   -1.2222323588680711E+01    3.9074242502395978E-01
Br    5.2738685462280444E+00   -5.0202260302356754E+00    1.3112746351962009E+01
Br   -1.3324910272679336E+01    1.6473470399707613E+00   -1.8902199725868205E+00
Br   -3.8431251746815737E-01   -1.0869165790163439E+01    5.6200610955206791E+00
Br   -1.1569239309044278E+01   -4.7222474166442643E+00   -4.8344604325729573E-01
Br    1.8082186175190205E+00    1.2364264912642339E+01    8.9816353423816029E+00
Br   -8.7445218524676243E+00   -5.8952582222799004E+00   -3.9412899186402459E+00
Br   -9.7185762352425424E+00   -2.3380565545644654E+00   -2.3932327535429914E+00
Br    2.5768886419978236E+00    5.6907010192212812E+00    1.0317474794298866E+01
Br   -7.8215767137187235E+00    7.4431660939329474E+00   -4.0040860561170932E+00
Br   -4.8712163286274484E+00    7.1222551898807440E+00   -7.5611980554912153E+00
Br   -5.1772066174117830E+00    1.0225586242955165E+01   -5.1299951095383785E+00
Br   -6.7705071226070457E+00    1.3565031270290986E+00   -2.8845658596167678E+00
Br   -9.3630086477171606E+00   -1.0654976559439818E+01    6.5553864963416784E+00
Br   -4.4029691430722719E+00    8.6078566776183385E-01   -6.3454245963727365E+00
Br   -6.2219299563617261E+00   -5.6148794367041983E+00   -6.5516716222141538E+00
Br   -4.1959717349788752E+00   -6.5820676675443117E+00   -1.0016309070275614E+01
Br   -3.2222521224252092E+00   -2.5338315266817912E+00   -8.2902151640832162E+00
Br   -3.3816464068703422E+00    4.4395637020247278E+00    1.1690846568385524E+01
Br   -3.7416855004844765E+00   -7.1857037951522971E+00    1.1854950651031116E+01
Br   -8.2745397597815618E-01   -7.1124914613070560E+00    8.2163159058493918E+00
Br   -6.7333724228711400E-01   -4.1865016162342759E+00    1.1110199871915247E+01
Br   -7.5390726014438183E+00   -1.0562548763701136E+01    2.4505659704626974E+00
Br   -7.0874293376623099E+00   -6.6671230401468371E+00    4.3196100730771656E+00
Br   -8.8615635846552792E+00    7.8204407520631936E+00    1.1275594549483269E+01
Br    1.0149696789763333E+01    1.1077100942322827E+01   -1.8187775558631609E+00
Br   -7.2934165747787914E+00   -8.7334183932299485E+00    1.4773303509054855E+01
Br    1.0315289915003959E+01    9.2243129537893296E+00   -7.2027408690142130E+00
Br    1.1418256359035224E+01    6.5670255231879846E+00    1.6872322402217144E+00
Br   -9.3499278804822907E+00    3.2853129731163682E+00    1.2543813820279000E+01
Br   -1.1705352327122602E+01   -7.0918480467446257E+00   -5.8279582724844028E+00
Br    1.2196423572919747E+01    5.5340355215704506E-01    8.1324432669775497E+00
Br   -3.6549352041010734E+00   -8.2492702998151781E+00    4.7443699086344147E+00
Br    5.6224299721042774E+00   -3.3600274696687586E+00   -9.4459750601556962E+00
Br    8.6393976311750986E+00   -3.6478659084345240E+00   -1.1940311651685118E+01
Br    1.3235726325070660E+01   -3.8442882601301713E+00    9.7878733099009985E+00
Br    8.5047119548556118E+00   -3.7322340046201008E-01   -9.5692697039922816E+00
Br   -5.0982600903882034E+00   -1.1215417466809424E+01    1.1363616329766796E+01
Br   -9.4459594708241179E-01   -8.9651205693036182E+00    2.2310776991579213E+00
Br   -1.2007037659454749E+00   -5.2498173750563701E+00    4.0651884503374083E+00
Br    7.4470922348481929E+00   -1.0166653140144797E+01   -7.1777753025817681E+00
Br   -4.6937148882443154E+00   -1.0862007293007155E+01   -6.7216363948232178E+00
Br    9.6143035429388544E+00   -9.8977722724274564E+00   -1.0736091535741835E+01
Br    8.6865778234470437E+00   -6.4214676822459600E+00   -7.8513305104722582E+00
Br   -7.9759555303748619E-01   -1.0327298489156021E+01    1.1489657754170592E+01