 # Version information for this restart file 
 # current date 2021-06-17 12:37:55.696
 # current working dir /user/ub2042/exercises/2_fitting/MM_MD_workdir/md_settings.002
 # Program compiled at                              Thu Apr 22 21:44:59 EDT 2021
 # Program compiled on                cpn-k07-07-02.compute.cbls.ccr.buffalo.edu
 # Program compiled for                                                    local
 # Source code revision number                                       git:36754bb
 &GLOBAL
   PRINT_LEVEL  LOW
   PROJECT_NAME cp2k
   RUN_TYPE  MD
 &END GLOBAL
 &MOTION
   &MD
     ENSEMBLE  NVT
     STEPS  10000
     TIMESTEP     2.4999999999999996E+00
     STEP_START_VAL  9500
     TIME_START_VAL     2.3749999999995998E+04
     ECONS_START_VAL    -1.3948793637821183E+01
     TEMPERATURE     3.0000000000000000E+02
     &BAROSTAT
       PRESSURE     1.0100000000000000E+00
       TIMECON     9.9999999999999982E+03
     &END BAROSTAT
     &THERMOSTAT
       TYPE  CSVR
       &CSVR
         TIMECON     9.9999999999999982E+03
         &THERMOSTAT_ENERGY
              -3.0407830795238944E-01
         &END THERMOSTAT_ENERGY
         &RNG_INIT
Wiener process for Thermostat # 1        1 F T F   4.8452024352072653E-01        1792175538.0        2267216916.0         572611013.0          57475850.0        4020803938.0        1984946838.0             12345.0             12345.0             12345.0             12345.0             12345.0             12345.0             12345.0             12345.0             12345.0             12345.0             12345.0             12345.0
         &END RNG_INIT
       &END CSVR
     &END THERMOSTAT
     &AVERAGES  T
       &RESTART_AVERAGES
         ITIMES_START  1
         AVECPU     1.7505935759675725E-02
         AVEHUGONIOT     0.0000000000000000E+00
         AVETEMP_BARO     0.0000000000000000E+00
         AVEPOT    -1.4266495181698541E+01
         AVEKIN     4.8114388765948912E-01
         AVETEMP     2.4406914331940527E+02
         AVEKIN_QM     0.0000000000000000E+00
         AVETEMP_QM     0.0000000000000000E+00
         AVEVOL     6.7483345830912264E+06
         AVECELL_A     1.8897261328855686E+02
         AVECELL_B     1.8897261328855686E+02
         AVECELL_C     1.8897261328855686E+02
         AVEALPHA     9.0000000000000000E+01
         AVEBETA     9.0000000000000000E+01
         AVEGAMMA     9.0000000000000000E+01
         AVE_ECONS    -4.0177127921763889E+00
         AVE_PRESS     0.0000000000000000E+00
         AVE_PXX     0.0000000000000000E+00
       &END RESTART_AVERAGES
     &END AVERAGES
     &PRINT
       &ENERGY  SILENT
         &EACH
           MD  10
         &END EACH
       &END ENERGY
     &END PRINT
   &END MD
   &PRINT
     &TRAJECTORY  SILENT
       &EACH
         MD  10
       &END EACH
     &END TRAJECTORY
     &CELL  SILENT
       &EACH
         MD  10
       &END EACH
     &END CELL
     &VELOCITIES  SILENT
       &EACH
         MD  10
       &END EACH
     &END VELOCITIES
     &FORCES  SILENT
       &EACH
         MD  10
       &END EACH
     &END FORCES
     &RESTART  SILENT
       &EACH
         MD  10
       &END EACH
     &END RESTART
   &END PRINT
 &END MOTION
 &FORCE_EVAL
   METHOD  FIST
   &MM
     &FORCEFIELD
       VDW_SCALE14     1.0000000000000000E+00
       EI_SCALE14     1.0000000000000000E+00
       SHIFT_CUTOFF  T
       DO_NONBONDED  T
       IGNORE_MISSING_CRITICAL_PARAMS  T
       &SPLINE
         R0_NB     2.5000000000000000E-01
       &END SPLINE
       &NONBONDED
         &LENNARD-JONES
           ATOMS Br Br
           EPSILON     1.2630795322675199E+02
           SIGMA     3.6900000000000004E+00
         &END LENNARD-JONES
         &LENNARD-JONES
           ATOMS Cs Pb
           EPSILON     8.6920055954630968E+01
           SIGMA     3.9452500000000001E+00
         &END LENNARD-JONES
         &LENNARD-JONES
           ATOMS Cs Cs
           EPSILON     2.2644852172126850E+01
           SIGMA     4.5300000000000002E+00
         &END LENNARD-JONES
         &LENNARD-JONES
           ATOMS Pb Pb
           EPSILON     3.3363415533600227E+02
           SIGMA     6.1000000000000005E+00
         &END LENNARD-JONES
         &LENNARD-JONES
           ATOMS Br Cs
           EPSILON     5.3481070753900497E+01
           SIGMA     3.6300000000000003E+00
         &END LENNARD-JONES
         &LENNARD-JONES
           ATOMS Br Pb
           EPSILON     2.0528187276773045E+02
           SIGMA     2.9800000000000000E+00
         &END LENNARD-JONES
       &END NONBONDED
       &CHARGE
         ATOM Cs
         CHARGE     4.1739999999999999E-01
       &END CHARGE
       &CHARGE
         ATOM Pb
         CHARGE     8.3479999999999999E-01
       &END CHARGE
       &CHARGE
         ATOM Br
         CHARGE    -4.1739999999999999E-01
       &END CHARGE
     &END FORCEFIELD
     &POISSON
       PERIODIC  XYZ
       &EWALD
         EWALD_TYPE  SPME
         GMAX  62 62 62
         O_SPLINE  4
       &END EWALD
     &END POISSON
     &PRINT
       &FF_INFO  LOW
         SPLINE_INFO  F
         SPLINE_DATA  F
       &END FF_INFO
     &END PRINT
   &END MM
   &SUBSYS
     &CELL
       A     1.0000000000000001E+02    0.0000000000000000E+00    0.0000000000000000E+00
       B     0.0000000000000000E+00    1.0000000000000001E+02    0.0000000000000000E+00
       C     0.0000000000000000E+00    0.0000000000000000E+00    1.0000000000000001E+02
       PERIODIC  XYZ
       MULTIPLE_UNIT_CELL  1 1 1
     &END CELL
     &COORD
Cs   -7.7696422961081635E-01   -1.8547172664888063E+00   -5.5813243663317014E+00
Cs    7.3871223162433008E-01   -6.9616405219559230E+00   -4.4853596381431142E+00
Cs    2.1309609051955634E+00   -1.1669165998150655E+01   -4.2888301906574897E+00
Cs   -4.8710435174321445E+00   -8.4462161206899626E+00   -3.7982953720176509E+00
Br   -6.7318183232740401E+00   -1.4388572435563777E+01   -5.5830091620144797E+00
Br    1.1320292841096416E+01   -2.3708991959795638E+00   -1.0012026466379075E+01
Br   -4.5517193386194696E+00   -1.0903801265637796E+00   -1.1459283606978113E+01
Cs   -1.4357622388964664E+00    4.3013735372251229E+00   -6.4784413915961006E+00
Cs    3.2592150199474146E-01    5.6557890243579134E-01   -3.4745225732526766E-02
Cs    8.5352725928897699E-01   -4.9650838238065438E+00    8.6162523595527429E-01
Br   -4.9614116001852731E+00   -3.2803791793502493E+00    3.8473167050723447E+00
Cs   -1.0094864039024985E+01   -7.0648524066985559E+00    1.3348457164446925E+01
Cs    1.4127059521027174E+01   -9.2984429176337144E+00    4.9395061501014759E-01
Cs   -6.3711962053468714E+00    5.8647679687021625E+00    2.7483632517245010E-01
Cs   -1.6964097231887159E+00    1.1205505378996742E+01   -1.8146429430174296E+00
Cs   -1.2161740588336916E+00    5.9976950965472104E+00   -1.2138794539260294E+00
Cs    4.8691792835107361E-01    1.0837183521223426E+00    5.0089724881029190E+00
Cs    1.9267276429203399E+00   -4.7816837659323799E+00    7.1991296330952492E+00
Cs    2.0358901068984308E+00   -9.9155903531628606E+00    7.9285706037033670E+00
Cs   -6.8817054643898423E+00    6.2914591624465874E+00    1.1229213436318812E+01
Cs   -7.0371546278770474E+00   -2.6100401202590828E+00   -9.7871107613752866E+00
Cs   -4.3139920276338577E+00   -1.3192281937018342E+01   -2.8361288885754758E+00
Cs   -5.0417007068160693E+00   -2.1440416059354481E-01    5.9743145970843337E+00
Br   -2.1362234767120465E+00   -3.3001736624342199E+00    9.5938046740821714E-01
Cs   -4.1655863226023347E-02    6.8409898763185986E+00    4.6215084396972044E+00
Br    1.3093236739539243E+01   -8.3518822623031070E+00   -8.0117394574554233E+00
Cs    8.2868760093005334E-01   -3.1506373258761067E+00    1.2251794078791931E+01
Br   -2.1107235153603794E+00   -2.1484061913828713E-02    3.1233575507477407E+00
Br   -7.3246103726499614E+00   -1.7293256692851244E+00    1.3018689043846413E+01
Cs    1.0384549894866307E+01    1.0661089097726576E+01   -9.2519362077679794E+00
Cs   -9.9685395845115057E+00   -8.2147325436313636E+00    8.3483451434990723E+00
Cs   -4.2576634939859650E+00   -5.1544607883752187E+00    7.7746479701941533E+00
Cs   -7.6113150474201401E+00    9.6587017598579923E+00   -7.1627708883162748E+00
Br   -9.4035866075296735E+00   -1.0365925062489943E+01    1.1570761526001780E+01
Br   -6.9633680699163962E+00   -9.0355802368524074E+00    8.1678717911551111E+00
Cs   -1.0380605674552241E+01   -8.2328424296347098E+00   -3.9391600331863170E+00
Cs   -7.6216082287824820E+00    3.6749056077462106E+00   -6.5631675350960252E+00
Br   -7.6672222554445399E+00   -5.8748196823331869E+00    1.0866559200411480E+01
Cs    1.0676627171723414E+01    9.2626277427622501E+00    9.5653186522683420E+00
Br   -1.2743263740495953E+01    7.8725949524311769E+00    8.0017238030329860E+00
Br   -5.5203703056786662E+00   -3.7137902332769177E+00   -2.1856384058206100E+00
Cs    8.6947458830170643E-01    1.9188406159337015E+00    1.1099452353976243E+01
Cs    1.0516685217552691E+01    7.2656756544340508E+00   -3.2289233901070946E+00
Cs   -1.1823570894631365E+01   -1.0498322913890936E+01   -8.9715309738113298E+00
Cs    1.1489713052628010E+01    4.0854856225870151E+00    4.6670170819395356E+00
Cs   -1.4792156250856520E+01    8.0731684374604189E+00   -7.2419162688226582E+00
Cs    1.4093110651926168E+01   -7.8584574994480016E+00    8.1329809345437010E+00
Cs    5.6430442045908338E+00   -8.4564650099495413E+00   -1.1787023758852296E+01
Cs    8.2987199990871972E+00   -8.1005963080030803E+00    7.6650530827399646E+00
Cs   -3.9173047851329290E+00   -1.2231164930930333E+01    3.0618678069524177E+00
Cs    6.7606140540033586E+00   -1.2704990790527692E+01   -8.9804841208192379E+00
Cs    1.0422986582823082E+01    4.7428281238491152E+00   -8.5252694169675252E+00
Cs    4.2156597137746470E+00    1.3966285365297354E+01    3.7352777283511926E+00
Cs    9.7061055375279057E+00    4.2758931692216660E+00   -1.4417326075529983E+01
Cs   -9.0089135747044546E-01   -7.8795912286745189E+00   -1.0458243404493347E+01
Cs   -1.2401609060736511E+01   -1.8169040765538556E+00   -4.5652502590626058E+00
Cs    7.3520804805492919E+00   -1.7243083460687274E+00    1.1361647044591310E+01
Cs    1.3426956038968155E+01   -1.6198571369284895E+00    6.1634078818504099E+00
Cs   -9.0918230649379694E+00   -1.2424143760118604E+01    9.2106261061932617E+00
Cs   -6.2643849851162059E-01   -2.1973421321691600E+00   -1.1411611800200857E+01
Cs   -2.1606133350896499E+00    1.2839612630350105E+01    3.9516131441571325E+00
Cs   -1.6864936844556009E+00    4.3076842393771688E+00   -1.2917557812445700E+01
Cs    5.2258546093062233E+00   -3.3079817443732407E-01   -5.9455029730043139E+00
Cs    6.8062395470834982E+00   -6.1707663797821350E+00   -6.0083431306270434E+00
Cs    5.2913389132114084E+00   -1.1322862948155215E+01    9.9489982094726468E+00
Cs   -1.1216248944943851E+01   -5.7408466633892530E-01    5.7105037592469508E+00
Cs    4.2539600733304903E+00   -1.3715165997611909E+00   -1.1654551349069296E+01
Cs    4.7793433160568339E+00    8.9322233193923086E+00   -1.5011462107487562E+01
Cs    4.3336815419379876E-01    7.9885713017780073E+00    1.0266203770870701E+01
Cs   -7.6025315880147142E+00    1.1071861396120150E+01    4.4364525445241929E+00
Cs    5.0233404731313751E+00    1.0731648140647351E+01   -1.0368356163878953E+01
Cs    5.0535034758341242E+00    5.0467670199145820E+00   -7.7732581249728234E+00
Cs    6.3329099350429789E+00    9.2309247749905354E-01   -1.0715023388034068E+00
Cs    7.7235376117210848E+00   -4.7520687117126048E+00    5.4087178675226555E-01
Cs    7.4931822891074447E+00   -1.1810936076395633E+01    1.4613391008341716E+00
Cs    4.5318872965005372E+00    4.0133384343665073E+00   -1.3457614039147879E+01
Cs   -6.3744423087212656E+00    5.8974395544816911E+00    5.9683897176111751E+00
Cs   -6.3641881053988687E+00   -7.8288257986379595E+00   -9.9800965033431410E+00
Cs    5.0349527001526342E+00    7.1294564475085354E+00   -1.6832283163532005E+00
Cs    6.4983978218362610E+00    2.4919390263896610E+00    5.0341432343184076E+00
Cs    7.3556471970194233E+00   -3.4951718600325727E+00    7.0415860765545464E+00
Cs   -7.1232013889906920E+00    1.0585636860823630E+01   -1.1068771131786834E+00
Cs    1.0901976442002553E+01    1.8937333554863813E+00   -2.1788552039438058E+00
Cs   -4.9115329467145159E+00   -9.1605094903661666E-01    4.1987814237859267E-01
Cs   -1.1976426661884346E+01    4.0900907615603215E+00    5.4852943178436195E+00
Cs   -5.0637803704862847E+00    5.4735300339652926E-01    1.1267282065845446E+01
Cs    4.9055285108129558E+00    1.3547602803712046E+01    8.8077880740032128E+00
Cs    4.9652855479443803E+00    9.1677472254836019E+00    3.4711215643665287E+00
Cs    6.5961036145657337E+00    3.7299315345059094E+00    1.0197920572273857E+01
Cs    3.1096168212667470E+00    1.2267543086931134E+01   -2.2429774900835020E+00
Cs    1.0866138463253364E+01    2.3096571203449767E-01   -7.9094036480308407E+00
Cs    1.1989075706032029E+01   -5.7027665066232114E+00   -5.6929323191402776E+00
Cs    8.5154051052010704E+00   -6.6890892370506894E+00    1.3458543587908613E+01
Cs    8.3318053551950584E+00    1.3849383537203042E+01   -2.3216878278036313E+00
Cs   -9.9654953208556361E+00    7.8597589187382322E-01    1.3136275346383689E+01
Cs   -7.6190473517511581E+00    3.0815659368530519E+00   -1.0592710993459407E+01
Cs   -1.2656599329084576E+01    9.7661276450282148E+00   -4.9660633562999124E-01
Cs   -4.6523484200662244E+00   -4.9402062117375642E+00    1.3164755251682868E+01
Cs   -2.6665726137342118E+00   -9.3002160950295458E+00    1.4264068938610681E+01
Cs    5.5785442559290850E+00    8.6490898121033055E+00    8.9951619574402955E+00
Cs    1.2726987964279086E+01   -3.6051591683648434E+00    1.0131123005848607E-01
Cs   -1.1431785980692782E+01   -1.6437066868005981E+00    8.8163018728924891E-01
Cs   -8.4676507644635262E+00    7.8773725458960229E+00   -1.3131558222593748E+01
Cs   -1.1801612620901595E+01    3.7353581099306945E+00   -1.0866496650363050E-01
Cs   -9.0783480310373310E+00   -1.5191950146559641E+01   -2.6972794573820682E+00
Cs   -1.1364336785461164E+01   -6.5965450026841959E+00    1.6817593112767759E+00
Cs   -4.5772965658820581E+00   -6.8042322978978316E+00    2.5884973662546051E+00
Cs   -2.4772998139354456E+00   -1.1820565343464100E+01    9.6130597929099988E+00
Cs    1.2820360329419364E+01   -7.8736929085671714E-01    1.1464686435963722E+01
Cs    1.0433910586175440E+01    8.8331501477337095E+00    2.9421677934250412E+00
Cs   -1.3033560418309449E+01    2.6857605821665191E+00   -5.5144215220614869E+00
Cs   -5.7953685867130780E+00   -2.3664112113272053E+00   -5.2001786160698886E+00
Cs   -9.1059114311927623E+00   -1.2093852311098379E+01    3.2991961305607127E+00
Cs    1.1931094392710948E+01   -6.8250772641529593E+00   -1.1311707906805028E+01
Cs   -3.7775892707154339E+00   -1.3735255843478456E+01   -8.8462692083072820E+00
Cs   -3.6853411137089656E+00    9.0518849088145803E+00   -1.3990470138210616E+01
Cs    2.0078094689691950E+00   -1.2889046185095459E+01   -9.0452288174005222E+00
Cs   -2.5416775072093123E+00    1.0269456213122037E+01   -7.0290796683824484E+00
Cs   -1.2236087929384967E+01    5.5684879274046981E+00    1.1115474941671847E+01
Cs    2.2430545480497632E+00   -1.1544129114486633E+01    3.2089723376328454E+00
Cs   -1.2999863269958377E+01    3.2415889051251510E+00   -1.2005563140726517E+01
Cs   -1.3523183247535821E+01    9.6955610617454706E+00    5.3128345790246065E+00
Cs    7.8169028286602842E+00   -1.0953636942518875E+01   -3.8542684676920587E+00
Cs    9.8364659779804224E+00   -7.6967920796680200E-01   -1.2585201675226909E+01
Cs   -6.2233773602423929E-02    1.2876347793453570E+01    9.8326409061218349E+00
Pb    3.1681055116755870E+00   -3.2824585462532871E+00   -2.4849644372356043E+00
Pb    4.2082256945044332E+00   -8.8778281548936580E+00   -1.0674918267198783E+00
Pb   -8.1238127501556079E+00   -4.0304437747623982E+00    4.1777502359201755E+00
Pb   -1.4397254505918324E+00   -9.8926169951955245E+00   -6.3341311092767116E-01
Pb    1.3850046059210375E+00    8.3063286803352661E+00   -5.4763701612719649E+00
Pb    2.0485733378155841E+00    2.4882606300482362E+00   -3.9721538317685812E+00
Pb    3.8520244725511028E+00   -2.1922244321615070E+00    3.1589797376493185E+00
Pb    4.9077314901449789E+00   -7.9525854041789712E+00    4.9008844989298117E+00
Pb   -4.3180414270128997E+00    9.1326732490566300E+00    1.7040506996682983E+00
Pb    1.3684541059739810E+00    9.5270120138671537E+00    8.7799118249850661E-01
Pb    2.8895327697528743E+00    3.8727043309481770E+00    1.8098977246150150E+00
Pb    3.8531578511672659E+00   -6.7119326664815848E-01    8.6980963020746600E+00
Pb    4.9776058793822093E+00   -6.3077546157026445E+00    1.0809345930854716E+01
Pb   -2.8652372399788173E+00    3.0964087729631249E+00    2.8507775112073110E+00
Pb    2.0301911849947989E+00    1.0818328095067143E+01    7.0235877910083540E+00
Pb    2.8183477810312882E+00    5.0475431173952421E+00    7.5134661808355121E+00
Pb   -2.0483135308321576E+00   -1.8722226752658360E+00    9.4444251965855379E+00
Pb   -6.6687846297649269E+00   -9.4747659579916679E+00    5.5333493432578571E+00
Pb   -9.1974377442788420E+00    1.5456330012717978E+00   -2.6370815956525400E+00
Pb   -3.3085044804669463E+00   -4.9125104113726596E+00   -7.8963815006284115E+00
Pb   -9.2004355941554383E-01   -8.8928572287640559E+00    5.0871146826454803E+00
Pb   -4.4313529918724512E+00    7.5399248322968209E+00   -4.3383430586811427E+00
Pb   -8.4060030404824915E-01   -7.4679030756397076E+00    1.0911627539223906E+01
Pb   -8.6343978959289061E+00   -4.4985381051781435E+00   -1.9355176594930084E+00
Pb   -7.2841504728877844E+00   -1.0312000448020148E+01   -4.7628003859973894E-01
Pb   -3.5811700533508861E+00    1.8264166829576021E+00   -3.1998471082554549E+00
Pb   -6.8477886725385417E+00   -8.9115939115260243E+00    1.1381087010672395E+01
Pb   -9.5827290007292696E+00   -5.9770008507796533E+00   -7.7638598984350775E+00
Pb    8.6174350176207408E+00   -3.6487188131598778E+00   -9.6334911737129030E+00
Pb    1.0339596139499438E+01   -9.4523266635100889E+00   -7.9965547479141161E+00
Pb   -1.8282804462827402E+00   -1.0680941853994623E+01   -6.6118009804325899E+00
Pb   -1.0874615866590618E+01    6.1898409390311002E+00   -9.7942943145448371E+00
Pb    2.3313240344974298E+00   -3.8670365751186897E+00   -8.9321803024360005E+00
Pb    4.0735923352269188E+00   -9.6199523650290732E+00   -7.1574719466496566E+00
Pb   -4.2327777962087403E+00    8.2860214489014161E-01   -9.1615278232507968E+00
Pb    1.4151806514027103E+00    7.7334650345597256E+00   -1.1646761850284218E+01
Pb    1.4563949899489408E+00    1.8961119539679057E+00   -9.8301730892340711E+00
Pb    9.1201974225369788E+00   -2.2948107817546970E+00   -3.7078995566745321E+00
Pb    1.0575702011243591E+01   -8.2079764989804964E+00   -1.9277409711439359E+00
Pb   -8.1578780167506935E+00   -2.8640773078578130E+00    1.0531878837438796E+01
Pb    7.6960086533847916E+00    7.6091496043003310E+00   -1.1731533267766546E+01
Pb   -1.0553787701222049E+01    2.2353238877252157E-01   -8.8515049449297294E+00
Pb   -4.1125376737765524E+00    1.0162925404423811E+01    7.7076936601977293E+00
Pb    7.0226789874230047E+00    9.3838615518452926E+00   -6.0877195877105716E+00
Pb    7.9668220858850409E+00    3.4778649074374544E+00   -5.1311987661959630E+00
Pb    9.7295237532496675E+00   -7.7637383811936678E-01    2.3925587839097591E+00
Pb    1.0936276306971424E+01   -6.5306498410032221E+00    4.0445158078619050E+00
Pb    7.3640168209559214E+00    2.0547615355848921E+00   -1.0926901794698779E+01
Pb   -2.9240185065163065E+00    4.0912061566154074E+00    8.8479983824329640E+00
Pb    7.4025931621492038E+00    1.0629160021110719E+01   -2.3132701889732359E-02
Pb    8.6715789955074793E+00    4.7879244764957880E+00    8.9180677433654409E-01
Pb    9.9070414401008762E+00    6.0846350601876809E-01    7.8121836957191970E+00
Pb    1.1006449787409826E+01   -5.0066619942170050E+00    1.0121780947730846E+01
Pb    8.3966785841249507E+00    1.1963150540562284E+01    6.4943671091757782E+00
Pb    8.7944436295111288E+00    6.1083318205373383E+00    7.0142970238035982E+00
Pb   -9.2320241559920788E+00    3.0075596385891958E+00    9.2459196552343421E+00
Pb   -2.1232685917448104E+00   -3.0882613980168734E+00    3.8164092874629678E+00
Pb   -1.0118078650462577E+01    7.8328177006974693E+00    2.5647568798644844E+00
Pb   -1.0232740189596326E+01    7.4847179833491690E+00   -3.3795309079529221E+00
Pb   -7.6633884471567617E+00   -1.1877763520610957E+01   -6.3678538738850090E+00
Pb   -4.6046261158024455E+00    6.7967940490479837E+00   -1.0210827931344761E+01
Pb   -8.5012302649337670E+00    1.9843215582376776E+00    3.2334104972602473E+00
Pb   -1.0025590537173898E+01    9.1205913670793972E+00    8.1922962357523588E+00
Pb   -2.6929057461495902E+00   -4.0673449024325867E+00   -1.9039141571887133E+00
Br    4.4065997316406280E-01   -3.9358932082387414E+00   -2.7796734040730393E+00
Br    3.2600406667579009E+00   -3.0590460231167205E+00   -5.6107836246937968E+00
Br    2.5120115662733249E+00   -2.0619126761449177E-01   -2.7848460075975567E+00
Br    1.6728720267714443E+00   -1.0268821516082665E+01    3.8626966016647293E-02
Br    4.4129660359128069E+00   -9.2123835328725949E+00   -4.3120407344743166E+00
Br    2.9496350802395277E+00   -6.4897487538671284E+00   -1.6746237208719541E+00
Br   -3.1095438465887928E+00   -4.5730650731934910E+00   -4.8408800326703698E+00
Br   -7.9240874772857612E+00   -3.3714706132985284E+00    7.5572466391326127E+00
Br   -2.6090359800981542E+00   -1.2470497225326007E+00   -2.7884864306361528E+00
Br    5.6824702629463690E+00   -1.1756106879679797E+01   -1.1879640645398513E+00
Br    1.2415053390273808E+01   -9.4427474067036096E-02    1.6465740700965632E+00
Br   -4.5293937718425488E+00   -9.7395438641835863E+00   -7.7278981518501544E-01
Br   -1.1373262483493976E+01   -3.9955082032898805E+00    4.3916916412922635E+00
Br   -8.5299899973791380E+00   -4.3762575812500959E+00    9.4739502939955123E-01
Br    1.3522868052522783E+01   -7.6767276401656295E+00    3.6714340868783726E+00
Br   -1.5820895866805031E+00    7.5715416311208603E+00   -4.9763659743010331E+00
Br    1.0355997755115407E+00    7.9151871959114928E+00   -8.6426501805731739E+00
Br    1.9909547916552761E-01    1.1126729850257131E+01   -4.9587451837776921E+00
Br   -9.3001585447407187E-01    2.5418676882716782E+00   -3.5298047594461233E+00
Br    1.4986645015577760E+00    1.7380802966123972E+00   -6.8592669520984533E+00
Br    1.8390308918000979E+00    5.2897136922975614E+00   -4.7458574966655975E+00
Br    9.1672401506609180E-01   -2.3418479999026482E+00    3.2804084997937935E+00
Br    3.8558773103943706E+00   -2.6667717640706634E+00    2.7216215526883014E-01
Br    2.6984346189175912E+00    1.2011021247103624E+00    2.2486854538906531E+00
Br    1.9761833389902561E+00   -7.8785265444907369E+00    4.3330712429731211E+00
Br    5.0185804084989067E+00   -8.6174074219262664E+00    1.6643465067894045E+00
Br    4.6160337032482666E+00   -4.9347918210198429E+00    4.4823925944491245E+00
Br   -7.9083745519093060E+00    6.5057735064134370E+00   -1.0039102365937449E+01
Br   -4.9338138563794338E+00    5.6301349061228967E+00   -1.2776221226737801E+01
Br    3.9048313181214223E+00   -1.0706394070133078E+01    5.5857369558054728E+00
Br   -5.1804437877816998E+00    9.3044433417008303E+00   -1.1260818650525875E+01
Br   -4.5265014706003521E+00    3.8821890140487523E+00   -9.4711079469237713E+00
Br   -8.2971355877852613E+00   -1.1907578301448898E+00    3.8586205740144628E+00
Br   -1.4408583348446504E+00   -1.0038818424924404E+01   -3.8197420862714240E+00
Br   -7.0888967490985060E+00    8.2397430369782168E+00    2.4063651952389837E+00
Br   -4.3964308510192396E+00    8.1595003061025526E+00   -1.3308229684839541E+00
Br   -4.0036326528445096E+00    1.1738446719697835E+01    6.4931246781815843E-01
Br   -1.4017183358473035E+00    9.2803459447174781E+00    1.6232023775070641E+00
Br    7.4269555306355017E-01    8.3312162752263443E+00   -1.7863291184430787E+00
Br    7.4853954694735281E-01    1.2260817387629345E+01    3.7907610616466586E-01
Br   -1.0544773230812807E-01    3.8507208503170673E+00    2.2789176360894694E+00
Br    2.6169875077777394E+00    3.0058662151876998E+00   -1.0114077235930894E+00
Br    2.3923320784928284E+00    6.7721936464517691E+00    1.3210263493015262E+00
Br    8.1484661166710859E-01   -1.1404200285019688E+00    8.9535816401119117E+00
Br    4.0215096455008874E+00   -1.3868673239705873E+00    5.9055094472409158E+00
Br    2.8375977371372256E+00    2.2238905813385221E+00    8.4538133326447014E+00
Br    2.2270108160808046E+00   -7.0514253977117560E+00    1.0739176408690454E+01
Br    5.2410892095542794E+00   -7.0666755332713826E+00    7.7713863270912880E+00
Br    4.4122681467210487E+00   -3.3234868198421226E+00    9.4888888704497116E+00
Br   -1.1270660453879723E+01    1.4231064341028214E+00    3.0671279800875277E+00
Br   -8.6837017455338152E+00    2.0051394685693498E+00    2.5890170935711582E-01
Br    6.6968682807384283E+00   -8.6666812704149017E+00    1.1050390111652671E+01
Br   -9.0209698866755357E+00    5.0509502070845347E+00    2.6868282036734423E+00
Br   -9.0584946280404637E+00    6.4806249442984659E-02    9.7744467955587009E+00
Br   -2.1568344350970974E+00   -6.9737073989998342E+00   -1.7316232833688865E+00
Br   -5.6371935896760750E+00    1.9048045145716868E+00    3.1226518793077047E+00
Br   -2.8020964020484911E+00    1.9363042952775218E+00   -1.4455774465826265E-01
Br   -4.0097077057799977E+00    5.8803033961904880E+00    2.6328336487120989E+00
Br   -6.7807775815378357E-01    1.0144344674816315E+01    7.7715925084040913E+00
Br    1.6477700792343812E+00    1.0124582827749265E+01    3.9347836445842841E+00
Br    1.8787591689959058E+00    1.3658034954108965E+01    6.8379762474069139E+00
Br   -9.4885117410873424E-02    5.2155036804134056E+00    7.6634292669817521E+00
Br    2.9408779693750082E+00    4.3415227656841040E+00    4.7318569212305785E+00
Br    2.5878018704883687E+00    7.8473806059270723E+00    7.0020372174397822E+00
Br   -4.8894766947632551E+00   -2.2520935047598556E+00    9.1746514199110223E+00
Br    3.2603022274117603E+00   -3.1679176626356320E-01    1.1620183589836262E+01
Br   -2.0901335832538197E+00   -2.7137794269124909E+00    6.7023989487709503E+00
Br   -2.7340490145088161E+00    8.8741325690559547E-01    8.7102673019408012E+00
Br   -1.9624993174163108E+00   -1.2849657987989273E+01   -3.3954018065419678E-01
Br    5.8530046109047573E+00   -4.9454429235561861E+00    1.3204489669189785E+01
Br   -1.2162894070964418E+01    8.1768514278200954E-01   -2.1490987082032209E+00
Br    4.6871726161575804E-02   -1.1585164430961074E+01    5.7896956969300355E+00
Br   -1.1973030257628084E+01   -4.0452415518733611E+00   -8.2007132209661870E-01
Br    2.9064407441039779E+00    1.0920543707093309E+01    9.6723445497516547E+00
Br   -9.4416877676572373E+00   -5.2623330880075239E+00   -4.9800488466025090E+00
Br   -8.6193574865503830E+00   -1.4613850008780618E+00   -2.1075085904337940E+00
Br    2.8399062162128188E+00    5.7413465745925203E+00    1.0244994381299236E+01
Br   -7.2038880430797061E+00    7.0319751669454673E+00   -3.7470379036659587E+00
Br   -4.9101448543222075E+00    7.4249196059951013E+00   -7.3358468312958491E+00
Br   -4.4546378121841252E+00    1.0643608916179074E+01   -4.1032452919604303E+00
Br   -6.5177936829426137E+00    1.8323886140119203E+00   -3.7086151146971402E+00
Br   -9.6650666923495461E+00   -1.0608510994874875E+01    6.3589031078481577E+00
Br   -3.3765573356724401E+00    1.4031782900409087E+00   -6.2832609898147025E+00
Br   -6.0082905460957274E+00   -5.1173504368735827E+00   -7.6788146805129038E+00
Br   -3.4848456396507683E+00   -5.4457870966424560E+00   -1.0659728213072292E+01
Br   -3.7853871779456205E+00   -1.9490950611404738E+00   -7.9980582255484149E+00
Br   -2.1477248235494462E+00    3.7345755194136832E+00    1.1489121577199862E+01
Br   -3.7627823515785739E+00   -7.8780663183487558E+00    1.0988777190353506E+01
Br   -5.7384461741829484E-01   -8.0188022759939450E+00    8.2565815721839453E+00
Br   -1.5302678328753814E+00   -4.9135768004464158E+00    1.0402765974436738E+01
Br   -6.7143084826502379E+00   -9.3337855436097872E+00    2.3828813252702359E+00
Br   -7.7359637799804544E+00   -6.8763576339492136E+00    4.8416548918995872E+00
Br   -9.9769757704568072E+00    9.0024154351057373E+00    1.0942505231819604E+01
Br    9.8469060241280033E+00    1.1896493652944086E+01    1.4325711086830221E-02
Br   -6.5741305740707068E+00   -8.2437538415445104E+00    1.3974937545528386E+01
Br    9.8273266057447426E+00    9.8602164446399367E+00   -5.3964588508608351E+00
Br    1.1273976682491323E+01    6.0327129544488303E+00    5.6519331259413164E-01
Br   -9.4322237893859207E+00    3.9341983824514126E+00    1.2305910415437879E+01
Br   -1.2172345114306768E+01   -7.4477266368091870E+00   -6.8871491431912712E+00
Br    1.2762913438780723E+01    1.0583276003039279E+00    7.7337595710038904E+00
Br   -3.7426054164748819E+00   -9.1882955665181090E+00    5.4705338518302309E+00
Br    5.5780407304542532E+00   -4.2765895848982272E+00   -9.9052077550673960E+00
Br    8.3204630304260299E+00   -3.7991974669522195E+00   -1.2709308801122521E+01
Br    1.3729522886682547E+01   -4.6615691573334468E+00    1.0127813942452121E+01
Br    7.4132514686247806E+00   -7.8468918211284944E-01   -1.0113328647675639E+01
Br   -5.8229842928465141E+00   -1.1806646174955922E+01    1.1324052270414450E+01
Br   -1.9022393691634134E+00   -9.2227162532012912E+00    2.3942189539123522E+00
Br   -1.5220102249546981E+00   -5.8916921019809507E+00    4.2101912370584129E+00
Br    6.9208483092357875E+00   -9.4865164359028338E+00   -7.7889457964646764E+00
Br   -4.5687092050545628E+00   -1.1537011919052548E+01   -6.0657630102814801E+00
Br    8.9602874855129002E+00   -9.8594719306724024E+00   -1.1366667526230223E+01
Br    1.0044451512181221E+01   -6.8431223755925910E+00   -8.7366625363725774E+00
Br   -1.0651463176487495E-01   -1.0439736277796829E+01    1.1891176462562759E+01