&FORCE_EVAL
  METHOD  FIST
  &MM
    &FORCEFIELD
      &CHARGE
        ATOM  Cs
        CHARGE  0.4174
      &END
      &CHARGE
        ATOM  Pb
        CHARGE  0.8348
      &END
      &CHARGE
        ATOM  Br
        CHARGE  -0.4174
      &END
      DO_NONBONDED
      EI_SCALE14  1.0
      IGNORE_MISSING_CRITICAL_PARAMS
      &NONBONDED
        &LENNARD-JONES
          ATOMS  Br Br
          EPSILON  [kjmol] 1.050184
          SIGMA  [nm] 0.369
        &END
        &LENNARD-JONES
          ATOMS  Cs Pb
          EPSILON  [kjmol] 0.7226944124317
          SIGMA  [nm] 0.39452499999999996
        &END
        &LENNARD-JONES
          ATOMS  Cs Cs
          EPSILON  [kjmol] 0.18828
          SIGMA  [nm] 0.453
        &END
        &LENNARD-JONES
          ATOMS  Pb Pb
          EPSILON  [kjmol] 2.7739920000000002
          SIGMA  [nm] 0.61
        &END
        &LENNARD-JONES
          ATOMS  Br Cs
          EPSILON  [kjmol] 0.4446668905146863
          SIGMA  [nm] 0.363
        &END
        &LENNARD-JONES
          ATOMS  Br Pb
          EPSILON  [kjmol] 1.7068104799678259
          SIGMA  [nm] 0.298
        &END
      &END
      SHIFT_CUTOFF  .TRUE.
      &SPLINE
        R0_NB  0.25
      &END
      VDW_SCALE14  1.0
    &END
    &POISSON
      &EWALD
        EWALD_TYPE  spme
        GMAX  62 62 62
        O_SPLINE  4
      &END
      PERIODIC  xyz
    &END
    &PRINT
      &FF_INFO LOW
        SPLINE_DATA  .FALSE.
        SPLINE_INFO  .FALSE.
      &END
    &END
  &END
  &SUBSYS
    &CELL
      ABC  [angstrom] 100.0 100.0 100.0
      PERIODIC  xyz
    &END
    &COORD 
 Cs 18.8291597926 18.8059150096 13.1378645807
 Cs 18.717981628 13.1613788442 13.1841771219
 Cs 18.8635455582 7.577762462 12.9378299332
 Cs 13.381034861 12.9934733645 13.303836141
 Br 9.1656688238 6.8800841168 10.1431679802
 Br 31.2197579681 16.472989948 9.9948540517
 Br 16.005329313 21.3093960144 6.8904344632
 Cs 19.0256758931 24.6181417594 13.32607281
 Cs 19.1997803331 19.2309260074 18.7797767784
 Cs 19.1276822274 13.401195379 18.7687734526
 Br 13.0365175703 15.5802553745 21.6209561095
 Cs 7.5596586067 13.3242175895 30.2548368173
 Cs 30.3524350224 7.5994328519 19.2175297546
 Cs 13.3651399659 24.6330147285 18.9294497388
 Cs 19.2415899588 30.134742259 19.1945411002
 Cs 19.3045341253 24.9414448211 19.1549729346
 Cs 19.3036350795 19.3472975626 24.7787221398
 Cs 19.250234873 12.9876568782 24.7453659245
 Cs 18.4045083977 7.6428555533 25.1058695046
 Cs 12.7492983791 25.1914739843 30.3123042125
 Cs 13.0114559349 19.3367730775 7.5486705765
 Cs 13.4424254458 7.4903828922 12.8743316681
 Cs 13.3823126374 19.5908873147 24.9371723671
 Br 16.546385016 16.605915255 19.0126098835
 Cs 19.2533620974 24.8722802955 24.9120313868
 Br 31.0839444671 9.9830930792 9.64006732
 Cs 19.8192847268 12.8257494813 30.3456758884
 Br 16.1250873332 18.9064955285 22.5626552057
 Br 9.9637841855 15.901718735 30.9430714878
 Cs 30.5074433523 30.0749173338 12.8511415173
 Cs 7.4210069026 13.8284283182 24.7448275453
 Cs 13.1036170677 13.3055159287 24.7517026899
 Cs 12.9710365348 29.7471557851 13.0864325592
 Br 6.754937927 9.910356248 27.9107604057
 Br 9.9938805824 10.3153282252 24.9270856442
 Cs 8.21010111 13.1673757157 12.9586816368
 Cs 12.9676852239 24.7418804527 12.9266815865
 Br 9.6878749797 13.0661197283 27.5692335333
 Cs 30.915851242 25.2832890827 29.9438809863
 Br 6.9803718961 27.6238323518 27.1712955492
 Br 13.1341153922 15.8960325896 16.9199321676
 Cs 19.0520526334 19.2768790905 30.2939580838
 Cs 30.1549896622 25.0190627802 19.2616301686
 Cs 7.5836542919 13.1492321501 7.9681492665
 Cs 30.4151890359 19.5173158271 25.4566449037
 Cs 7.8973675478 30.3878488894 13.0061596087
 Cs 30.5019828172 7.8393464327 25.0458744988
 Cs 24.9174293623 12.9149467206 7.956098919
 Cs 25.1455985988 7.6445943021 24.9912506379
 Cs 12.9893326402 7.5677201256 19.5900635379
 Cs 24.8218989037 7.7073877445 7.7610379823
 Cs 30.2226407368 24.6863992214 12.9775437614
 Cs 30.5973389604 30.1446304079 24.7179067681
 Cs 30.3219959926 24.9700797178 7.643878057
 Cs 19.2695289272 13.1736305194 7.9018617852
 Cs 7.9163640915 18.8041757047 13.1350697606
 Cs 25.1481707329 13.0331823192 30.0833243831
 Cs 30.4870361162 13.3094494083 24.9187462186
 Cs 7.4743817497 7.5928562113 30.3688029461
 Cs 18.667855233 18.8885311769 7.723265965
 Cs 19.2991216708 30.1037540246 24.8331846213
 Cs 19.4744057421 24.9907811154 7.7107194304
 Cs 25.149028229 18.9085442301 13.288116059
 Cs 25.2933283763 13.1532034525 13.1823841759
 Cs 13.094403672 8.148888685 24.9334071054
 Cs 7.9885214417 19.1353855078 24.9288934267
 Cs 25.1064905084 18.6242715516 7.6114480217
 Cs 25.0797676678 30.0798685539 7.4480513577
 Cs 19.3288411896 25.1585104385 30.382325128
 Cs 13.8724634448 30.2575119182 24.9783718039
 Cs 25.285357138 30.4150739716 12.8871875659
 Cs 24.9341118083 24.573153044 13.1041931547
 Cs 24.9682679795 18.5600777301 18.808266925
 Cs 25.029123989 13.1505564718 19.5619269173
 Cs 25.0225094505 7.9013353701 18.9699316331
 Cs 24.7377462575 24.9779522794 7.7401225901
 Cs 13.0834695976 24.991970716 24.8496773143
 Cs 13.4367992679 12.5454314476 7.4788664698
 Cs 24.8034930115 24.6659302935 18.7868041174
 Cs 25.0547870861 18.8825280606 24.9242643174
 Cs 25.1855030812 13.2771961839 24.926496515
 Cs 12.9665762222 30.0455059036 18.590630265
 Cs 30.5643450022 18.7414772297 18.7194672393
 Cs 13.4079954627 18.8072431919 19.2121281327
 Cs 7.5791197825 24.4885146752 25.3102677861
 Cs 13.455457522 19.2249397052 30.2493058152
 Cs 25.0603252823 30.5464863571 25.5268816413
 Cs 24.9948847743 24.9048926872 25.045409427
 Cs 25.2017679278 18.3734878619 30.4832470751
 Cs 24.7046250048 30.424136374 18.7291638877
 Cs 30.4166020411 19.0970883979 12.9394199366
 Cs 30.5521836497 12.783497795 12.6395371688
 Cs 25.4147240555 7.8623147704 30.3726385025
 Cs 30.4785551277 30.1273844564 18.8205046103
 Cs 7.9411728532 19.0545295571 30.2887288454
 Cs 12.4314534572 25.0408072187 7.39468655
 Cs 7.9030563747 30.374311263 18.7683060904
 Cs 13.4827440359 13.2668184735 30.5097667382
 Cs 12.9929304456 7.6265106286 30.0614980867
 Cs 25.5401381914 25.4600608531 30.6103591131
 Cs 30.4470417569 13.097433735 18.9682557117
 Cs 7.6109215664 19.3854560668 19.458920235
 Cs 12.960861599 30.5222957993 7.9716673674
 Cs 7.5732797334 25.006306488 19.62201145
 Cs 7.4824127244 7.9932553597 13.1359204736
 Cs 7.6880398799 13.25503749 18.2311833833
 Cs 13.2795055819 12.883421102 18.9569518372
 Cs 7.6852060127 7.6866921178 24.8703855868
 Cs 30.4530160943 13.0067461357 30.3204039447
 Cs 30.0689479057 25.0146378156 24.8873705654
 Cs 7.3321895412 24.8429776164 12.4039558063
 Cs 13.1603660509 19.5755191697 12.971390503
 Cs 7.5092471924 7.836233789 18.9310875572
 Cs 30.2851223383 7.612823769 7.2801588582
 Cs 6.852837205 7.8563883143 7.8141400078
 Cs 18.8181155317 30.5595313927 7.8879027737
 Cs 19.1674885985 7.9739467789 7.5162296187
 Cs 18.3288533862 30.1500902686 13.1633450666
 Cs 6.8074568039 29.2837363067 30.2717746549
 Cs 19.56835894 7.7863328352 18.8952874649
 Cs 7.528341442 18.8129873006 7.9146924141
 Cs 7.6034636858 30.2996040646 24.8150817048
 Cs 25.6118867644 7.5423298701 13.364750623
 Cs 30.5128280679 19.0767324205 7.6212090929
 Cs 19.2213867044 30.6552678809 30.0333605462
 Pb 22.1456134173 15.9057950193 15.8414254533
 Pb 22.2315996622 9.9864781133 15.9393586321
 Pb 9.9728945654 16.1226278937 21.8185577578
 Pb 16.1000208329 9.6722351824 16.0033244314
 Pb 21.9730416038 28.1806045469 15.8718819844
 Pb 22.0883044535 21.8921199756 15.9338631972
 Pb 22.1172277923 16.0263797066 22.0187881342
 Pb 22.0776115677 9.9003910368 22.0178065985
 Pb 16.2379992546 27.878634862 21.9845790794
 Pb 22.3098894857 28.0391528266 22.0133811939
 Pb 22.3496635308 21.9003479326 22.0087931135
 Pb 22.1707082618 15.9421475232 27.9861020432
 Pb 22.1968860753 9.7083795035 28.0091276601
 Pb 16.2383125224 22.0008656744 21.9732728627
 Pb 22.2276805581 28.1438756679 28.1629891674
 Pb 22.3051601288 22.0369334445 28.4106499156
 Pb 16.2103131251 15.9926717583 28.0400929836
 Pb 9.7575156931 10.1601380217 21.9295911117
 Pb 9.7293316004 22.0171365504 15.9761936616
 Pb 15.9862389935 15.9553352893 9.8831609309
 Pb 16.0113440996 10.0180948572 21.9874871547
 Pb 15.9106185511 27.7168414623 15.9680545377
 Pb 16.0797880546 10.0405158901 28.2165177762
 Pb 10.2882727508 16.0941665029 15.8843533386
 Pb 10.1118569684 9.8599116588 15.9219385564
 Pb 15.9764000983 21.9598061633 15.936701479
 Pb 9.8577329743 10.1300703329 27.9814184707
 Pb 10.3188624001 15.9264369808 9.8379200195
 Pb 28.3516098691 15.9396690244 9.7933017225
 Pb 28.196851569 9.8504613206 9.9134496768
 Pb 16.0446875074 9.8611853497 9.8517087786
 Pb 9.6859449676 28.0350491313 9.7279447309
 Pb 22.1260030023 15.9777281682 10.0800668767
 Pb 22.0637478312 9.9131765614 10.2760814736
 Pb 15.9611323086 22.089525683 9.698685508
 Pb 22.0143443321 28.1308013785 10.0255879072
 Pb 22.0359222998 21.9242278188 9.8519583102
 Pb 28.3373778101 15.8656326683 15.9229851633
 Pb 28.4209944172 9.8365106991 16.036975505
 Pb 10.1621860594 16.0569709373 27.9484818906
 Pb 28.1145680023 27.9876212099 9.8204964066
 Pb 9.7602949932 21.966061007 9.8178542185
 Pb 16.2138673214 28.0636889868 28.1381420544
 Pb 28.0737145764 28.014934563 15.8818076835
 Pb 28.1842373437 21.9262995019 15.9662451957
 Pb 28.382155284 16.16843245 22.0078204709
 Pb 28.1765027038 10.0613725426 22.0256164236
 Pb 28.0530043028 21.9339544593 9.8510595062
 Pb 16.245356244 22.1093892015 28.0532217844
 Pb 27.9294524279 28.15699429 21.9304787152
 Pb 28.1200882983 22.0054849359 22.0302982066
 Pb 28.3484984321 16.0977460802 28.1288728887
 Pb 28.2608238272 10.0491900113 28.0173431258
 Pb 28.3051726504 28.3583293137 28.0877474326
 Pb 28.1079932285 22.2392971528 28.3785857101
 Pb 10.1392604207 22.0784403333 28.1467614429
 Pb 16.1653537498 15.8937056624 21.9878640559
 Pb 10.1665114078 28.2125361008 21.9306743998
 Pb 9.7174846127 27.5787668048 15.8826475233
 Pb 10.0357053088 9.7638483853 9.7991392778
 Pb 15.8907618596 27.808487263 9.7953743031
 Pb 10.1383175087 22.1426330338 22.058381458
 Pb 9.9940319246 28.1247569523 27.9619101238
 Pb 16.0121953779 15.9852717381 16.0666848786
 Br 19.04133651 15.9256246049 15.7829516983
 Br 22.0681328111 16.9063981858 13.0298973248
 Br 22.1205788357 18.909924596 16.5115339127
 Br 19.0659534922 10.0113381958 15.8530889538
 Br 22.2048817924 8.8672409482 13.1358799346
 Br 21.9799717727 13.0130740402 15.0291241096
 Br 15.7121892505 15.7677414397 13.0646456068
 Br 10.2840977866 16.0356328808 24.847760837
 Br 15.7896872463 18.944209008 15.480809027
 Br 22.35874335 7.1353879765 16.6300700877
 Br 31.1896927949 15.5071748531 21.7318093255
 Br 13.0312773973 9.1895189361 16.2058344586
 Br 7.0735357645 16.6980875985 22.3173045766
 Br 9.4592053307 16.3326651608 18.8393279906
 Br 31.1403154466 10.0124132486 22.0300671865
 Br 18.9590400899 27.9155488414 15.9499319206
 Br 21.8501185297 29.1410675566 12.954598534
 Br 21.7847910372 31.002234721 16.6095641199
 Br 19.0231860969 21.6274193688 15.6337473538
 Br 22.4623287144 21.5474880418 12.9463525209
 Br 22.1131817026 24.9558605435 15.5229601959
 Br 19.1115587182 15.5271022753 21.9811171544
 Br 22.2452853605 15.5049400251 18.9357694276
 Br 21.5432513631 18.9663197409 21.6114580479
 Br 18.9548677352 9.752362639 22.0766308489
 Br 22.0659789653 10.6750200236 18.9704237775
 Br 22.3523442285 13.0343046991 22.551383072
 Br 12.9343449321 27.5071875746 10.0906894071
 Br 15.9205104602 28.6849582646 6.9541187345
 Br 22.2542058283 7.0822108596 21.3411948287
 Br 15.8948670063 30.8067464293 10.3887902908
 Br 15.952676174 24.9530683913 8.6558692858
 Br 10.5163236442 19.0814879413 21.8918932821
 Br 15.8374009929 10.15957608 13.001122213
 Br 13.2012592022 27.9522461781 21.7764176505
 Br 16.1058211386 28.3200435941 18.9034852507
 Br 16.5192918924 30.7655188267 22.3697350863
 Br 19.2687466651 27.4301211284 22.022511036
 Br 22.187496774 27.6073673775 18.8723846453
 Br 21.5499357294 30.8575960296 21.8870533509
 Br 19.2239358193 22.2524614075 22.232770774
 Br 21.7928504479 22.2865148015 18.9320972549
 Br 22.8708124098 24.879324948 22.0000988587
 Br 19.142690581 16.0683977295 28.5382619961
 Br 21.8807927441 16.6095085383 24.9428148739
 Br 22.223906785 18.9570941561 28.3835877235
 Br 18.9905584417 9.6517192953 28.2356789471
 Br 21.7632907085 9.2400354013 24.9185075374
 Br 22.0100608699 12.9436859474 27.4233360783
 Br 7.1314885388 22.000071509 22.1985373641
 Br 9.99704977 22.3086042885 19.0231417562
 Br 22.9277323658 6.9019435449 28.0521193595
 Br 9.9184558888 25.1043587804 22.487978708
 Br 10.5820879215 19.0077874669 27.8048621131
 Br 15.951792103 12.8949630541 16.2523992238
 Br 13.1782285897 22.1815392521 21.9127840899
 Br 16.0827012232 21.3452368069 18.9315438095
 Br 16.1959996704 24.8480445099 21.2301414033
 Br 19.1769666986 27.5828574814 27.580792984
 Br 22.4158690807 27.7896603373 24.9472167399
 Br 21.7847741207 31.0172514217 27.5290155708
 Br 19.2266630427 22.1158209315 27.5852067068
 Br 22.5984432163 21.7714380916 24.993508908
 Br 22.5721183219 25.0040124154 28.1490308659
 Br 13.1230294699 15.5882145405 27.77663188
 Br 22.5411372621 15.4866281027 30.8862558613
 Br 16.2191953619 15.2049234648 24.9200696563
 Br 16.169353323 19.0012124459 27.4814586272
 Br 16.2603691471 6.8272298108 15.3701771473
 Br 22.6645805792 10.2941364711 30.8718194057
 Br 7.0610197438 20.9123413599 16.1215825843
 Br 15.5208756916 7.1074317118 22.5015870044
 Br 7.3517884438 15.7412177188 15.3671601245
 Br 21.6105551911 28.0929400603 30.9924661767
 Br 10.9200521115 15.8512168906 12.9284862747
 Br 10.6629755742 19.048236189 15.7257805333
 Br 21.3335853449 22.1095986613 31.107742616
 Br 12.9215131901 27.1600456243 15.9892635254
 Br 15.9735945207 27.2025508502 12.9222966489
 Br 15.4913711947 30.6376835529 15.5530619153
 Br 12.9829749326 22.4633254764 15.9168400134
 Br 6.786117032 9.6406535528 21.9896158585
 Br 15.894383705 22.4787401337 12.9087866249
 Br 13.1412597233 15.9320694875 8.7315118797
 Br 16.7392260771 15.8148707976 7.064224089
 Br 15.8454114276 19.0476393227 10.2770508166
 Br 16.25450438 21.5180893919 30.9099460526
 Br 12.8471055039 10.5057046836 27.8808409396
 Br 15.9991439224 10.5684070549 24.9825707266
 Br 16.5512067201 13.0255464901 28.6190311701
 Br 10.1202580711 10.2082227912 18.9321161178
 Br 9.1338723514 13.1479062815 21.652645259
 Br 9.7353127312 27.5691374643 30.8171495352
 Br 30.9361831696 27.7219189674 21.7209136093
 Br 9.6720447692 10.1996952792 31.0205881763
 Br 31.0633835487 27.8932942328 15.8921600671
 Br 30.935048589 22.7780653932 22.1932770066
 Br 10.3926121203 21.6500965012 31.0427807025
 Br 7.3043301439 15.8749952211 10.400858026
 Br 31.2289633791 15.6169984307 27.9439931704
 Br 12.8721832414 10.4583081007 21.965971798
 Br 25.107782875 15.982021645 10.2423924797
 Br 28.0457072324 16.4999676188 6.9182217638
 Br 31.1760793341 10.3953006174 27.6583870352
 Br 27.8941349222 18.9306770795 10.1991025178
 Br 9.9214388086 7.0054717623 27.9402300872
 Br 16.1306335228 9.2108298851 19.0119163862
 Br 16.2336962587 12.9530696373 21.1359122033
 Br 25.0366450263 10.0264575192 10.4847554927
 Br 12.9856143687 9.3200061517 9.4939550655
 Br 27.5808769207 9.8549621928 6.9272199728
 Br 27.9156196899 12.9153560838 10.1428617267
 Br 15.4440570834 7.1403429547 27.5593081988
 Br 10.0184354225 22.2205448456 12.9751371042
 Br 6.8570291037 28.1936353686 10.4089743802
 Br 10.4212703124 28.2641868689 6.908341485
 Br 10.4298829501 30.8716595483 10.5133775384
 Br 31.1660823768 27.6967158252 27.2755804916
 Br 18.9811805054 15.9814056752 10.4292445323
 Br 22.246609102 15.393919618 7.1815495907
 Br 21.9115764858 18.9557222306 9.2496116756
 Br 18.9886389604 10.3562602859 10.3922785145
 Br 22.1228126733 10.2934219541 7.2560498086
 Br 22.1260509721 13.016267566 10.6903407958
 Br 27.7978903785 6.8168455784 9.6397777112
 Br 8.4224963905 24.7592597591 15.9908139688
 Br 21.8276730085 6.9860998354 9.6453607817
 Br 16.576148199 10.4170918074 6.9911757143
 Br 15.7881119122 12.9809305547 10.1806720209
 Br 12.9208531151 22.2749469392 9.893475046
 Br 31.0439574084 27.540732389 10.1972156077
 Br 16.5471683982 24.7893405846 16.6484243112
 Br 31.0643537838 21.9272694182 15.4090926335
 Br 18.9668925024 27.8301308408 10.11693272
 Br 22.1302489274 27.6634587346 7.0546132049
 Br 22.1213257493 31.0363433046 9.2937343247
 Br 18.9731200994 22.0412139506 10.0529578875
 Br 21.9875335955 22.5501912233 6.9808626131
 Br 22.0656101112 24.9843916978 10.4909865138
 Br 25.1305140959 15.9141917864 15.7706304568
 Br 28.4531994344 15.9118873614 12.9376183849
 Br 28.0822649139 18.9137615386 15.8699043385
 Br 25.1840824955 10.2465703416 15.8359761597
 Br 28.5160354588 9.7108855357 13.0005922219
 Br 28.4275790482 12.9128049131 15.6882232388
 Br 27.8816654635 6.9646341234 16.6042394418
 Br 7.0877814062 16.2276482481 27.9196680483
 Br 16.7496471092 28.2647662794 30.9470077124
 Br 24.991037998 27.8668911283 10.2347628902
 Br 30.9600470738 22.5250420139 27.5653175564
 Br 24.9840655072 28.2708447827 15.7458026783
 Br 27.8925486462 27.6717714763 12.9020116207
 Br 28.3531352831 31.0032793085 15.7078690041
 Br 25.0545571263 21.8151024351 16.2802845439
 Br 27.6694068894 21.9295656762 12.9376313854
 Br 27.8843524502 24.9425815011 16.0395519921
 Br 25.120527623 16.3117832821 22.0788331411
 Br 27.9091410952 15.9771458119 18.9604831428
 Br 29.1644638957 19.1108542994 22.0359177736
 Br 25.0491796575 10.0446012382 22.1006984816
 Br 27.835795355 10.3861795438 19.004670053
 Br 27.8899682936 13.1553456433 22.1126433892
 Br 27.6833031967 27.5452279851 6.8836196181
 Br 27.872005558 30.9316702801 10.1564815541
 Br 28.2224395047 7.0635283293 22.1839590412
 Br 16.6332770248 6.9993139641 10.0189526128
 Br 25.0104730269 21.786659274 9.5728294169
 Br 9.5043469778 15.9780198105 6.9671629104
 Br 28.4217358847 21.9704046979 6.8834327571
 Br 13.0872245961 28.1088392866 28.0104649478
 Br 16.0765919391 27.317322511 24.9001707762
 Br 16.6482225058 30.9110999285 27.4178766941
 Br 25.0702087453 29.2247317097 22.0523925273
 Br 27.6319134608 27.9659012093 18.8561951266
 Br 28.6667684888 31.038091317 21.759958246
 Br 25.1403481655 21.0215552618 21.5627792746
 Br 28.53270422 21.7997691914 18.9295060172
 Br 27.369748268 24.9811958085 21.7864391433
 Br 25.1384702476 16.0085824436 27.5886236861
 Br 28.3366606147 16.3766943529 24.980587842
 Br 28.0708157446 19.1048595277 28.2573686864
 Br 25.0869156123 10.3044639737 27.5551764344
 Br 27.9829928563 10.3201957566 24.9484588665
 Br 27.9610944497 13.112368879 27.6279073082
 Br 27.6922256683 24.9010441375 10.0994482232
 Br 10.611841057 28.5568145125 24.8607628965
 Br 27.9761971342 7.095243202 27.6542477754
 Br 31.2197052088 16.0029937094 16.3152704469
 Br 10.4154941479 18.8988858356 10.2582979785
 Br 8.959936958 30.9654333288 28.1114065404
 Br 13.189401095 22.1214679327 27.9349296785
 Br 15.9857619611 22.5713298797 24.8956857235
 Br 16.0331017226 24.9789176403 28.7094138179
 Br 6.9189636759 21.3453549791 10.381575636
 Br 25.1750709815 28.4042493303 28.4284008014
 Br 27.702679904 27.9028062279 24.8628738346
 Br 28.3812781764 31.1831544216 27.3006368341
 Br 25.0932228246 21.9101894251 29.3966383033
 Br 27.6072704022 21.9431097051 24.9841128313
 Br 27.6881386768 25.1276251323 27.7117699574
 Br 7.0676322006 10.3419341699 15.9240222931
 Br 10.4907811214 9.9617085017 12.9032410039
 Br 27.866067715 15.5409353624 30.9877538614
 Br 10.5433690289 12.9371648016 15.919960119
 Br 27.9397412255 10.4174112652 30.9629187241
 Br 31.2450620731 9.9903482171 16.7319686003
 Br 9.393335544 6.9400585268 16.0156494888
 Br 7.1907178083 21.5575309945 27.7574037359
 Br 10.3869411313 21.8952858721 25.0144835215
 Br 15.6522637283 16.3646874888 30.8943384635
 Br 10.3505052364 25.0372838555 27.5535995012
 Br 15.371686345 9.9785780998 31.0711649861
 Br 7.1139194926 28.3287082946 21.739011664
 Br 28.6248277815 27.835171649 30.9094791781
 Br 10.1438238875 27.5100341255 18.9283006514
 Br 28.5260815591 22.9430192373 31.116567243
 Br 6.8923195463 28.4580744946 15.9150391167
 Br 6.9269889134 10.3782517806 10.3447675545
 Br 31.0378716972 22.0873514633 10.1013711934
 Br 9.2792813132 10.1126410496 6.9044936829
 Br 9.98378702 7.1337707146 21.9375050543
 Br 10.552966306 12.8276760964 9.9556654769
 Br 9.9437976161 21.3490503956 6.946612927
 Br 9.4567041475 24.8905251115 9.4660099222
 Br 10.2516703944 31.107410679 21.3622798277
 Br 10.0432763798 27.353665971 12.9251885497
 Br 10.3323491401 30.5717631075 15.8735085767
    &END
    &KIND BR
      ELEMENT  Br
    &END
    &KIND CS
      ELEMENT  Cs
    &END
    &KIND PB
      ELEMENT  Pb
    &END
    &TOPOLOGY
      &CENTER_COORDINATES
        CENTER_POINT  0.0 0.0 0.0
      &END
      COORD_FILE_FORMAT  OFF
    &END
  &END
&END

&GLOBAL
  PRINT_LEVEL  LOW
  PROJECT  cp2k
  RUN_TYPE  MD
&END

&MOTION
  &MD
    &BAROSTAT
      PRESSURE  1.01
      TIMECON  10000
    &END
    ENSEMBLE  NVT
    &PRINT
      &ENERGY
        &EACH
          MD  10
        &END
      &END
    &END
    STEPS  10000
    TEMPERATURE  300.0
    &THERMOSTAT
      &CSVR
        TIMECON  10000
      &END
      TYPE  csvr
    &END
    TIMESTEP  2.5
  &END
  &PRINT
    &CELL
      &EACH
        MD  10
      &END
    &END
    &FORCES
      &EACH
        MD  10
      &END
    &END
    &RESTART
      &EACH
        MD  10
      &END
    &END
    &TRAJECTORY
      &EACH
        MD  10
      &END
    &END
    &VELOCITIES
      &EACH
        MD  10
      &END
    &END
  &END
&END

