 # Version information for this restart file 
 # current date 2021-06-17 12:46:38.761
 # current working dir /user/ub2042/exercises/2_fitting/MM_MD_workdir/md_settings.005
 # Program compiled at                              Thu Apr 22 21:44:59 EDT 2021
 # Program compiled on                cpn-k07-07-02.compute.cbls.ccr.buffalo.edu
 # Program compiled for                                                    local
 # Source code revision number                                       git:36754bb
 &GLOBAL
   PRINT_LEVEL  LOW
   PROJECT_NAME cp2k
   RUN_TYPE  MD
 &END GLOBAL
 &MOTION
   &MD
     ENSEMBLE  NVT
     STEPS  10000
     TIMESTEP     2.4999999999999996E+00
     STEP_START_VAL  8000
     TIME_START_VAL     1.9999999999997544E+04
     ECONS_START_VAL    -1.5890036444644286E+01
     TEMPERATURE     3.0000000000000000E+02
     &BAROSTAT
       PRESSURE     1.0100000000000000E+00
       TIMECON     9.9999999999999982E+03
     &END BAROSTAT
     &THERMOSTAT
       TYPE  CSVR
       &CSVR
         TIMECON     9.9999999999999982E+03
         &THERMOSTAT_ENERGY
              -1.5794133895963836E-01
         &END THERMOSTAT_ENERGY
         &RNG_INIT
Wiener process for Thermostat # 1        1 F T F  -7.2409950450941327E-02        2449733240.0        1737660451.0        3785501763.0        2017621797.0        4094717736.0        3768323869.0             12345.0             12345.0             12345.0             12345.0             12345.0             12345.0             12345.0             12345.0             12345.0             12345.0             12345.0             12345.0
         &END RNG_INIT
       &END CSVR
     &END THERMOSTAT
     &AVERAGES  T
       &RESTART_AVERAGES
         ITIMES_START  1
         AVECPU     1.7452762406755980E-02
         AVEHUGONIOT     0.0000000000000000E+00
         AVETEMP_BARO     0.0000000000000000E+00
         AVEPOT    -1.6328476794116689E+01
         AVEKIN     5.2280808645230503E-01
         AVETEMP     2.6520407939002166E+02
         AVEKIN_QM     0.0000000000000000E+00
         AVETEMP_QM     0.0000000000000000E+00
         AVEVOL     6.7483345830911295E+06
         AVECELL_A     1.8897261328855691E+02
         AVECELL_B     1.8897261328855691E+02
         AVECELL_C     1.8897261328855691E+02
         AVEALPHA     9.0000000000000000E+01
         AVEBETA     9.0000000000000000E+01
         AVEGAMMA     9.0000000000000000E+01
         AVE_ECONS    -4.6475225601567836E+00
         AVE_PRESS     0.0000000000000000E+00
         AVE_PXX     0.0000000000000000E+00
       &END RESTART_AVERAGES
     &END AVERAGES
     &PRINT
       &ENERGY  SILENT
         &EACH
           MD  10
         &END EACH
       &END ENERGY
     &END PRINT
   &END MD
   &PRINT
     &TRAJECTORY  SILENT
       &EACH
         MD  10
       &END EACH
     &END TRAJECTORY
     &CELL  SILENT
       &EACH
         MD  10
       &END EACH
     &END CELL
     &VELOCITIES  SILENT
       &EACH
         MD  10
       &END EACH
     &END VELOCITIES
     &FORCES  SILENT
       &EACH
         MD  10
       &END EACH
     &END FORCES
     &RESTART  SILENT
       &EACH
         MD  10
       &END EACH
     &END RESTART
   &END PRINT
 &END MOTION
 &FORCE_EVAL
   METHOD  FIST
   &MM
     &FORCEFIELD
       VDW_SCALE14     1.0000000000000000E+00
       EI_SCALE14     1.0000000000000000E+00
       SHIFT_CUTOFF  T
       DO_NONBONDED  T
       IGNORE_MISSING_CRITICAL_PARAMS  T
       &SPLINE
         R0_NB     2.5000000000000000E-01
       &END SPLINE
       &NONBONDED
         &LENNARD-JONES
           ATOMS Br Br
           EPSILON     1.2630795322675199E+02
           SIGMA     3.6900000000000004E+00
         &END LENNARD-JONES
         &LENNARD-JONES
           ATOMS Cs Pb
           EPSILON     8.6920055954630968E+01
           SIGMA     3.6699999999999999E+00
         &END LENNARD-JONES
         &LENNARD-JONES
           ATOMS Cs Cs
           EPSILON     2.2644852172126850E+01
           SIGMA     4.3300000000000001E+00
         &END LENNARD-JONES
         &LENNARD-JONES
           ATOMS Pb Pb
           EPSILON     3.3363415533600227E+02
           SIGMA     5.9000000000000004E+00
         &END LENNARD-JONES
         &LENNARD-JONES
           ATOMS Br Cs
           EPSILON     5.3481070753900497E+01
           SIGMA     3.6300000000000003E+00
         &END LENNARD-JONES
         &LENNARD-JONES
           ATOMS Br Pb
           EPSILON     2.0528187276773045E+02
           SIGMA     2.9800000000000000E+00
         &END LENNARD-JONES
       &END NONBONDED
       &CHARGE
         ATOM Cs
         CHARGE     4.4453099999999995E-01
       &END CHARGE
       &CHARGE
         ATOM Pb
         CHARGE     8.8906199999999991E-01
       &END CHARGE
       &CHARGE
         ATOM Br
         CHARGE    -4.4453099999999995E-01
       &END CHARGE
     &END FORCEFIELD
     &POISSON
       PERIODIC  XYZ
       &EWALD
         EWALD_TYPE  SPME
         GMAX  62 62 62
         O_SPLINE  4
       &END EWALD
     &END POISSON
     &PRINT
       &FF_INFO  LOW
         SPLINE_INFO  F
         SPLINE_DATA  F
       &END FF_INFO
     &END PRINT
   &END MM
   &SUBSYS
     &CELL
       A     1.0000000000000001E+02    0.0000000000000000E+00    0.0000000000000000E+00
       B     0.0000000000000000E+00    1.0000000000000001E+02    0.0000000000000000E+00
       C     0.0000000000000000E+00    0.0000000000000000E+00    1.0000000000000001E+02
       PERIODIC  XYZ
       MULTIPLE_UNIT_CELL  1 1 1
     &END CELL
     &COORD
Cs   -3.8280405742733020E-01   -1.4625875356124907E+00   -5.4815967099504874E+00
Cs    5.4392080591582959E-02   -5.9742714459500732E+00   -5.0365750441128698E+00
Cs    1.0880451865225167E+00   -1.1524859338956890E+01   -4.3889806700994640E+00
Cs   -5.6411376534685607E+00   -7.2792961365671163E+00   -4.6814944561815679E+00
Br   -7.2023404248580416E+00   -1.4113386493685601E+01   -6.7773847536506340E+00
Br    1.1962722688680714E+01   -1.5118376158520777E+00   -8.3911822509050769E+00
Br   -3.4275011553105141E+00    2.5512940428783160E-01   -1.1147275342950561E+01
Cs   -1.3274911925092372E+00    5.4458609572217798E+00   -6.6654102857864528E+00
Cs    2.6522840877698056E-01   -3.1118115198117058E-01    8.1047798284769057E-01
Cs    3.5824483101075821E-01   -5.8618003265858771E+00    6.5737599257350143E-01
Br   -5.2992270863446755E+00   -4.2151946225394781E+00    3.6232714308788334E+00
Cs   -1.0723831639978293E+01   -5.2903315292487845E+00    1.1748402861318974E+01
Cs    1.3085899731612761E+01   -8.9156236190669933E+00   -6.0657971374398023E-01
Cs   -7.1406769181404313E+00    5.0344924848026702E+00    5.6613363853365284E-01
Cs   -2.6174416747386218E+00    1.1887832213458644E+01   -1.7274003701051437E+00
Cs   -1.0768980214458939E+00    6.0279699830753755E+00   -1.1782966911342543E+00
Cs    2.1930821457907698E-02    1.1589475533502849E+00    5.9108503955300895E+00
Cs    4.7606888614948328E-01   -5.1489597647742320E+00    6.3311026172801315E+00
Cs    1.7696630329314735E+00   -1.0930046363077505E+01    7.2705885050587025E+00
Cs   -5.0099371708166016E+00    6.1671806000565530E+00    1.0027941067183018E+01
Cs   -5.9956271441992905E+00   -2.0293339347246824E+00   -1.0391178906342104E+01
Cs   -5.3241006207050399E+00   -1.2794809712124518E+01   -4.1566773302479367E+00
Cs   -4.8991086002710471E+00   -1.7794276124442621E-01    6.2932797689601800E+00
Br   -1.9431753478408076E+00   -3.3319647541060773E+00    4.4244549630810143E-01
Cs   -3.2358361781244843E-01    7.0809302067987092E+00    4.5877609923681879E+00
Br    1.2096012036760774E+01   -7.9940314869946851E+00   -8.2451167266866996E+00
Cs    4.7142221313230653E-01   -3.9594016091923674E+00    1.1573113783929077E+01
Br   -2.2778772162714476E+00    8.6784026377122306E-02    3.3944065098653824E+00
Br   -8.5332756803327854E+00   -2.5242616117797003E+00    1.2150661323342501E+01
Cs    8.6804042551337908E+00    1.2624687358438367E+01   -7.4958257813240863E+00
Cs   -1.0490803298143483E+01   -6.4794476164778967E+00    7.1104048977914625E+00
Cs   -5.3890613337604325E+00   -5.8766501290133135E+00    6.5499350490870176E+00
Cs   -7.7527309309205252E+00    1.0048720812151096E+01   -6.8564963465318378E+00
Br   -1.0596333963654432E+01   -8.2961230363087388E+00    9.9996435588770254E+00
Br   -7.9980588948447151E+00   -8.9910101844056314E+00    7.5874370705823893E+00
Cs   -1.0314414601734125E+01   -7.5130116973882224E+00   -4.5189553444531159E+00
Cs   -6.9714489804801252E+00    4.0375323268049108E+00   -5.6367020440140845E+00
Br   -7.4053088787386931E+00   -5.8179912457559526E+00    9.3444234067938048E+00
Cs    1.0936254351408973E+01    9.5829431168924604E+00    9.3123024859491270E+00
Br   -1.1671424712411058E+01    7.8942201713143128E+00    8.5838716432766304E+00
Br   -5.4283580746722935E+00   -3.6634413882152090E+00   -2.4755280986919175E+00
Cs    9.8173358949260803E-01    2.1493014819976826E+00    1.1256338812554297E+01
Cs    1.0855044192591208E+01    6.8187312521002408E+00   -1.6418267791732135E+00
Cs   -1.0121681059882427E+01   -8.6302934844586083E+00   -1.0111636435882797E+01
Cs    1.1368218986553332E+01    2.2398914051308805E+00    5.1898197403738182E+00
Cs   -1.3814229688006597E+01    9.5386011208329897E+00   -7.7269278830060619E+00
Cs    1.2594832141152791E+01   -8.1841305205944419E+00    5.4825826500581165E+00
Cs    6.6945759229616053E+00   -6.3047427635479636E+00   -1.0222533577786887E+01
Cs    7.5650517969885609E+00   -8.8193267015236003E+00    5.9629830719203722E+00
Cs   -4.1020089705213252E+00   -1.1694078183789209E+01    1.6870893521006913E+00
Cs    7.4696434814362362E+00   -1.2235222936271892E+01   -1.0404901592500970E+01
Cs    1.1233480971212447E+01    6.9919265366927128E+00   -6.8185088824374871E+00
Cs    1.0810708865799732E+01    1.3383622004372077E+01    3.4459543139715243E+00
Cs    1.1323687486544266E+01    5.9746993595827087E+00   -1.2039724753193674E+01
Cs    2.5816416435266565E-01   -6.9161198853793868E+00   -1.0233955244352574E+01
Cs   -1.1755350990414577E+01   -1.9138574554856884E+00   -4.7660931284759416E+00
Cs    5.6502559257669045E+00   -3.2710114256068050E+00    1.2241254628738606E+01
Cs    1.3112546863339618E+01   -2.2270112010732834E+00    6.0459693758797890E+00
Cs   -4.3951665794746200E+00   -9.1380185520688215E+00    1.3571253902523916E+01
Cs   -5.5342141950392909E-01   -1.5587201471687715E+00   -1.1168298647494085E+01
Cs   -1.4456968720469938E+00    1.1249958204831609E+01    4.3619535082463647E+00
Cs   -1.5933939649516549E+00    3.0860052452733346E+00   -1.2617344623517006E+01
Cs    5.7408752051224372E+00    1.5700326524276595E-01   -6.8557657682805608E+00
Cs    6.4377247143947365E+00   -6.0323336361343403E+00   -5.2600996874948844E+00
Cs   -4.7379152321395663E+00   -1.0977443646419898E+01    7.7602082000411379E+00
Cs   -1.0437844345268502E+01   -6.1189607383491529E-01    6.8868152881617473E+00
Cs    5.7496906738984901E+00   -2.6418842727201413E+00   -1.2203642573311594E+01
Cs    4.3248449275157821E+00    9.1545375482458216E+00   -1.3994468395115165E+01
Cs   -2.0723675111416734E-01    7.3451062104271214E+00    1.0202580136803926E+01
Cs   -6.7671715204577261E+00    1.0981361832136507E+01    4.7749643219320941E+00
Cs    3.9505271678444447E+00    9.8921418422182423E+00   -7.6718381050877706E+00
Cs    4.7260850380803285E+00    5.4932242119487071E+00   -6.6588999581161543E+00
Cs    4.9255740319905161E+00    6.0045486034552986E-01   -6.3533003339931959E-01
Cs    6.5128670318328368E+00   -4.5864417581515893E+00    5.1172757602668728E-01
Cs    7.9000396822807666E+00   -9.3281054902029314E+00    3.3642310094666966E-01
Cs    5.6059156277149516E+00    4.8104525635230093E+00   -1.2383612099767321E+01
Cs   -5.2155524059831730E+00    5.9056799701085545E+00    5.2903885106327344E+00
Cs   -4.8793554345388959E+00   -7.7925827447315790E+00   -1.0285018825928889E+01
Cs    4.2653451223906451E+00    6.2252391185325378E+00   -1.4274382510660184E+00
Cs    6.0102317810987351E+00    1.4099483577962124E+00    5.5209345857572245E+00
Cs    7.2030810822375990E+00   -3.7742395034492042E+00    6.8665866030588969E+00
Cs   -6.5473939003334065E+00    1.0579523920257028E+01   -1.2705067751636934E+00
Cs    1.1431685074012151E+01    1.9280090535165890E+00   -3.1163245342416895E-01
Cs   -5.8397864194333007E+00   -7.9545318128822795E-01    9.2648473940452891E-01
Cs   -1.1438785851952657E+01    4.6271567854700306E+00    7.3680983612211257E+00
Cs   -4.4192611204574845E+00    6.6085711092846122E-01    1.1301426196800431E+01
Cs    4.2552590378358408E+00    1.2909160697061004E+01    3.8062527159330517E+00
Cs    5.7915264620822748E+00    7.2022934899531386E+00    4.1963191070706785E+00
Cs    6.4069204948340834E+00    2.7997386996063192E+00    1.1156579233715366E+01
Cs    3.9387824250985197E+00    1.1947046188564919E+01   -2.5234195163077242E+00
Cs    1.0255326140128769E+01    6.9746565779435288E-01   -6.4927511912216520E+00
Cs    1.1552276230946662E+01   -4.7871727258817689E+00   -5.9606009130532582E+00
Cs    7.3336095572172137E+00   -8.7261580016342553E+00    1.1732364475682424E+01
Cs    9.2319706563253359E+00    1.1950658617872106E+01   -2.2500314518263078E+00
Cs   -1.0007867510565832E+01    6.4750964462350991E-01    1.2501852350939272E+01
Cs   -8.3190447595092412E+00    3.3865934411440759E+00   -1.1157528256289325E+01
Cs   -1.3504464544925291E+01    9.4340724819202002E+00   -1.3638156914860139E-01
Cs   -5.3939973455596242E+00   -4.9417652501389151E+00    1.1907057138501548E+01
Cs    2.5502819882014909E+00   -1.0886080842948962E+01    1.2363971482513472E+01
Cs    5.6468235572784788E+00    8.8247935227938079E+00    9.6642720991855438E+00
Cs    1.2171495194748921E+01   -4.1903253847755435E+00   -3.2258954681981389E-01
Cs   -1.1336543829001538E+01   -1.6244933589320742E+00    7.6105650870750174E-01
Cs   -9.3658100767344070E+00    8.5465875624357857E+00   -1.2143631910831092E+01
Cs   -1.3037540857840652E+01    4.6615109241918624E+00    1.7944734815502356E-01
Cs   -9.7986968663518041E+00   -1.3011541207633007E+01   -4.4588126626217974E+00
Cs   -1.0603944777191629E+01   -7.5566597554387851E+00    5.1947135552190238E-01
Cs   -5.4967598692209885E+00   -6.6944822239048651E+00    1.0028148148569400E+00
Cs   -9.9870627790951936E+00   -1.1136876073358664E+01    8.3276075464107358E+00
Cs    1.1518625287604062E+01   -3.5036171771082105E+00    1.1517257029288393E+01
Cs    1.1287086466914493E+01    8.0143216646416420E+00    4.3675061945942470E+00
Cs   -1.3179131145168048E+01    3.3355619845832325E+00   -6.0658239273340246E+00
Cs   -6.2112601006543686E+00   -1.3612407463840361E+00   -4.7623051475723583E+00
Cs   -9.3585201793866535E+00   -1.2850259133311477E+01    1.8559853299179461E+00
Cs    1.1860512553582133E+01   -1.1910535041614189E+01   -5.2131558968943148E+00
Cs   -4.5336825543993067E+00   -1.3044086939213500E+01   -9.4003961353060692E+00
Cs   -1.6051007716994208E+00    9.5573435951977732E+00   -1.2223242598536320E+01
Cs    1.0887353434714111E+00   -1.2956505783318828E+01   -9.4944222598100101E+00
Cs   -1.5600612710607413E+00    1.1361354791499885E+01   -7.5127642385675601E+00
Cs   -6.7208915971822618E+00    1.2478123527145492E+01    1.0026738004655735E+01
Cs    1.7105865225731063E+00   -1.2274352202569315E+01    1.2170135577862470E-01
Cs   -1.0714828248097946E+01   -3.2074283704760966E+00   -1.0715644387593684E+01
Cs   -1.2836625062275511E+01    1.0064052309618871E+01    6.1638712371688040E+00
Cs    6.4034039265666811E+00   -1.0982882913981507E+01   -4.8453555905795378E+00
Cs    1.1658741866756598E+01    6.4209701847299655E-02   -1.0893718715257878E+01
Cs    5.4568080742216454E+00    1.3486721268693913E+01    8.6647002285536399E+00
Pb    3.2993994560794664E+00   -2.6574801055014068E+00   -2.6234529623993708E+00
Pb    3.9045827866291636E+00   -8.6941285163954038E+00   -2.3139719462554202E+00
Pb   -8.0512180472709218E+00   -4.0988426278621457E+00    3.6076507028924385E+00
Pb   -2.0507109053707664E+00   -9.3321838313595453E+00   -1.5399049800554994E+00
Pb    1.3409559247193148E+00    8.5242289176055230E+00   -4.5857570615873104E+00
Pb    2.2748945762684354E+00    2.8860558022627276E+00   -3.8218867080785000E+00
Pb    3.3127433793546830E+00   -2.0111087570353283E+00    3.2936502048849383E+00
Pb    4.0959864081023714E+00   -7.9362434023761299E+00    3.4861889613955599E+00
Pb   -4.1448599643690178E+00    8.5934364780492771E+00    1.6923220247580812E+00
Pb    1.6437383299878527E+00    9.4558821122045078E+00    1.4113778240487427E+00
Pb    2.6795588962584058E+00    3.5993883797372610E+00    1.9960104461334232E+00
Pb    3.6110397271138792E+00   -1.2314058990928616E+00    9.0916713643872207E+00
Pb    4.2834435248066756E+00   -7.1565783704583970E+00    9.3041513503721962E+00
Pb   -2.8595190727885638E+00    2.9529965991447855E+00    2.7236235165141540E+00
Pb    2.4196677620208229E+00    1.0674385624498958E+01    7.1902933973309047E+00
Pb    3.2167448914575032E+00    4.9393733768902850E+00    7.7259586771348587E+00
Pb   -1.9771388875077935E+00   -2.6274829845199568E+00    8.9376736511637187E+00
Pb   -7.6559532589489248E+00   -9.7723372419863299E+00    4.6080397252160727E+00
Pb   -9.6966629978607930E+00    1.6140673300909392E+00   -2.4187712422707630E+00
Pb   -2.6469842322813086E+00   -4.5312003679846393E+00   -7.9433350160321181E+00
Pb   -1.4777682963696921E+00   -9.3289636613857869E+00    4.0100370526308540E+00
Pb   -4.5215449428180152E+00    7.8643741817739201E+00   -4.0894094552417393E+00
Pb   -1.3552760635230587E+00   -8.3748419803484513E+00    1.0220716663712471E+01
Pb   -8.2039839290510024E+00   -4.3501564268485797E+00   -2.2658641071116188E+00
Pb   -8.0296289751643712E+00   -1.0436698973364981E+01   -1.4078645280820805E+00
Pb   -3.6116044803185812E+00    1.9848572621509786E+00   -3.0840004326167301E+00
Pb   -7.7245162581733391E+00   -8.6040942589259348E+00    1.0367173888825677E+01
Pb   -8.3639649365558668E+00   -5.1968776996071586E+00   -7.8728526019078071E+00
Pb    9.2190055212276913E+00   -2.9811010322739180E+00   -8.7296338080556666E+00
Pb    9.5834116952227717E+00   -8.9524743076522721E+00   -8.4069933302090405E+00
Pb   -2.1578402894215625E+00   -1.0240911723424283E+01   -7.0965013849794545E+00
Pb   -1.0419064052830194E+01    6.2109391907087375E+00   -8.8949630798055921E+00
Pb    3.5250606804737896E+00   -3.9684940723012336E+00   -8.4554092218935217E+00
Pb    3.5520129243990586E+00   -9.9084718409657597E+00   -8.0721718085363463E+00
Pb   -3.4277114151258830E+00    1.3922318521147057E+00   -8.5206519476216638E+00
Pb    1.3800531569966354E+00    7.4794984721169415E+00   -1.0071936390208613E+01
Pb    2.2497585093665626E+00    1.4876299550228083E+00   -9.4039184259146946E+00
Pb    9.0826919640868820E+00   -2.3675121506943428E+00   -2.8511135531938243E+00
Pb    9.6943431572565810E+00   -7.9821503335482928E+00   -2.8469459776116168E+00
Pb   -7.9478004062673548E+00   -2.7870222802301359E+00    9.4255577228153644E+00
Pb    7.3083312243509360E+00    8.5755995314408100E+00   -1.0878182438524421E+01
Pb   -9.4601607332985491E+00    2.8463285486710754E-01   -8.1645605412776217E+00
Pb   -3.0692000625495059E+00    9.5604881553590619E+00    7.9513349288748403E+00
Pb    7.1542414154653038E+00    9.0402928044385522E+00   -4.7520722356202816E+00
Pb    8.0515460644189645E+00    3.6361934783879031E+00   -3.8829823939243862E+00
Pb    8.9516909992406450E+00   -9.1907479787484736E-01    3.1189928569508325E+00
Pb    9.7955407231181990E+00   -6.6427502782033798E+00    3.1907101537598139E+00
Pb    8.1168816727907700E+00    2.7601330997534337E+00   -9.7520558499918195E+00
Pb   -2.3155210262616528E+00    3.4127278190216694E+00    8.2585180998525907E+00
Pb    7.4188175807213845E+00    1.0258509205683847E+01    9.0890472062519567E-01
Pb    8.4341009581823059E+00    4.7133639626364827E+00    1.7362914581411812E+00
Pb    9.2900731669006902E+00   -2.8810046621930147E-01    8.9790416590599555E+00
Pb    1.0290728905880997E+01   -6.2822819118427198E+00    9.1171882179653494E+00
Pb    8.3992178290857176E+00    1.1918352174197285E+01    6.5122727449734796E+00
Pb    9.2803805485923530E+00    5.3174710698642391E+00    7.5271938742264615E+00
Pb   -8.0595678987637189E+00    3.1838064534521950E+00    9.2474555039138817E+00
Pb   -2.4225709050020012E+00   -3.4582736171574919E+00    3.2416475123038340E+00
Pb   -1.0380397106913366E+01    7.4652808091650282E+00    2.9935882695660667E+00
Pb   -1.0546231672484689E+01    7.4019681319774824E+00   -3.0046066241642690E+00
Pb   -7.9421516974559880E+00   -1.1253453186426695E+01   -7.3649785288354099E+00
Pb   -4.8006730135727782E+00    7.0446609306314452E+00   -9.7231709518085623E+00
Pb   -8.9797060736761907E+00    1.7286513883099113E+00    3.5136394650232132E+00
Pb   -9.1459512747059950E+00    8.6971690332868441E+00    8.9217515909707181E+00
Pb   -2.6177746667755066E+00   -3.5096016028240804E+00   -2.3170731085254799E+00
Br    3.7404293577793157E-01   -3.0584095061350611E+00   -2.8008633086843702E+00
Br    3.4159420069855018E+00   -3.4058257071079847E+00   -5.4947621110315996E+00
Br    3.2117662710060468E+00    2.7778844577289635E-01   -3.3792073679797237E+00
Br    8.7422699997720610E-01   -8.8663453191163768E+00   -1.9953170328987582E+00
Br    3.5667167732068199E+00   -8.9413335854530462E+00   -5.2093945108795232E+00
Br    3.6948003106664045E+00   -5.6403121458843088E+00   -1.7227525203946599E+00
Br   -2.5810784160413238E+00   -4.4890086245352112E+00   -5.1651197720338429E+00
Br   -8.0799730121738502E+00   -3.5920614076982966E+00    6.5375913149922837E+00
Br   -3.1188435153939515E+00   -6.8643358469379856E-01   -2.2210826975647593E+00
Br    4.0564274850727218E+00   -1.1575354410553313E+01   -1.9982934012032489E+00
Br    1.1847033792524995E+01   -7.6466299964443241E-01    3.5476261310722652E+00
Br   -5.3199087554229552E+00   -9.8270909492460117E+00   -9.3318649028400080E-01
Br   -1.0899947223901782E+01   -4.3162016275406705E+00    3.4317984154978598E+00
Br   -7.8553284958192586E+00   -4.1762876826427417E+00    5.5890877541857642E-01
Br    1.2484739091846411E+01   -6.4327387737604944E+00    2.5235073534060488E+00
Br   -1.6444566027528824E+00    8.2988856329037528E+00   -4.2323347837938634E+00
Br    1.6056934292187099E+00    7.9082352986753168E+00   -7.3839352215668796E+00
Br    1.0049025551912858E+00    1.1177464141245377E+01   -5.2897915077772355E+00
Br   -7.0521366391130291E-01    2.6065931007485594E+00   -3.2680545091221482E+00
Br    2.6084498464534875E+00    2.1119222840779979E+00   -6.7135520361653960E+00
Br    1.3866825790446342E+00    5.6879711586056363E+00   -4.5092133984936948E+00
Br    2.9054674273264425E-01   -3.0234149193274624E+00    3.4643149216976861E+00
Br    2.5791073389270247E+00   -2.7285505783513671E+00    3.5137146859569834E-01
Br    3.0105588938624033E+00    8.6430414183129944E-01    2.3302527170613661E+00
Br    1.1179096471883776E+00   -8.1297510536407867E+00    4.4099864743647883E+00
Br    3.5338384871892972E+00   -8.9033969870936200E+00    7.2782931361010339E-01
Br    3.7477117346108417E+00   -5.0113103907130894E+00    3.2900128319265947E+00
Br   -7.6147868721221323E+00    6.5763004040361883E+00   -9.4918669968634308E+00
Br   -5.1239141944200570E+00    7.4640736410092003E+00   -1.2482532398757671E+01
Br    5.2800828602726542E+00   -1.0548314241386034E+01    4.1494026300584421E+00
Br   -4.9976229131920009E+00    9.9959280856985497E+00   -9.7987570460243116E+00
Br   -3.8425585639586184E+00    3.9615251384937347E+00   -9.6739961339297817E+00
Br   -8.7393883828759424E+00   -1.0180007116178369E+00    3.3693476131754845E+00
Br   -2.0822935035848058E+00   -9.5382616079773328E+00   -4.3062046512295762E+00
Br   -7.4360941122453088E+00    7.9148185670358107E+00    2.0895704737860021E+00
Br   -4.2759094269391857E+00    8.1369397197831095E+00   -1.0664754257901909E+00
Br   -4.7103671749815268E+00    1.1260751233118219E+01    1.6132674974743115E+00
Br   -9.7929965031906963E-01    8.7862424955648795E+00    1.8341504649951792E+00
Br    1.7078298012161168E+00    9.3997745818003402E+00   -1.6864716765330003E+00
Br    1.0292868319162747E+00    1.2093374897379503E+01    1.0419590424143306E+00
Br   -1.4457039645879709E-02    3.6413393639796308E+00    2.6394458481137963E+00
Br    1.9492606464962110E+00    3.2110766119174294E+00   -8.6980013996102357E-01
Br    2.3200924050855480E+00    6.3238637394881652E+00    1.5010219415965285E+00
Br    6.1692876903149796E-01   -1.7998640373907662E+00    9.0616563063034441E+00
Br    3.7133145943008028E+00   -1.3159464446236837E+00    6.0724477528274781E+00
Br    3.4377276503898608E+00    1.4392095102388032E+00    8.3230442161051013E+00
Br    1.4020088409339038E+00   -7.7125530542825231E+00    1.0392894154427431E+01
Br    4.0229063415276887E+00   -7.0677454430103248E+00    6.5244946605819338E+00
Br    3.8451931743075658E+00   -4.1032789438407598E+00    9.5521395156407252E+00
Br   -1.1957022784726442E+01    7.4012326378368531E-01    4.2877527567761939E+00
Br   -9.2194021422951611E+00    1.6810975255194396E+00    4.0391742321955082E-01
Br    4.4998954605916710E+00   -9.9387204476797226E+00    9.3305352276257203E+00
Br   -9.6850633231232788E+00    4.5003413665643484E+00    2.9026646066545103E+00
Br   -8.1050383303463569E+00    4.6191453211220201E-02    9.1865858605036266E+00
Br   -2.4744797583114160E+00   -6.2319172305502413E+00   -2.1208319220604479E+00
Br   -5.9118747646809897E+00    1.7095872692090601E+00    3.1653144715059747E+00
Br   -3.6967988599283514E+00    2.7221213591768123E+00    1.6896252379489919E-02
Br   -3.5620345124330175E+00    5.8373766960572793E+00    2.3356139246038432E+00
Br   -2.8817276414010234E-01    9.5294270257451998E+00    7.6085974858249745E+00
Br    1.7157985294218761E+00    9.9543207238481521E+00    4.3968515217895119E+00
Br    1.7338678460799195E+00    1.3216497702710392E+01    6.2724225375112361E+00
Br    4.6331585287522192E-01    4.2999682983788876E+00    7.4863149786061127E+00
Br    3.7662366988011575E+00    4.4743782834184893E+00    4.5895452436929736E+00
Br    3.2705405031494279E+00    7.7070904065968389E+00    7.4826643857870998E+00
Br   -4.8828422958360083E+00   -2.6738943164856290E+00    8.7948145506461142E+00
Br    2.7670427120525245E+00   -6.7013543404708575E-01    1.1829153310415952E+01
Br   -2.4833128041356582E+00   -2.7547327854539816E+00    6.2159835908528729E+00
Br   -2.0537340052144963E+00    6.9596889892281422E-01    8.6075962609502170E+00
Br   -2.2682346388455130E+00   -1.2144008731390123E+01   -1.2990970242664444E+00
Br    4.8445451180633867E+00   -6.8349161603534165E+00    1.2017872026911300E+01
Br   -1.2435682396525904E+01    6.9638909779547353E-01   -2.0270223148059419E+00
Br   -1.1288233164388009E+00   -1.1987527402279749E+01    2.9887438946486413E+00
Br   -1.0981205524502887E+01   -4.3331885612795986E+00   -1.6651244764872701E+00
Br    3.2129109216438727E+00    1.0694054155199685E+01    1.0189370228641357E+01
Br   -8.3811140277777465E+00   -5.0967162873316454E+00   -5.0874757564545288E+00
Br   -8.9398236776572766E+00   -1.2968103792365575E+00   -2.9101430711474556E+00
Br    3.4828893089291371E+00    4.6852131143850393E+00    1.0374833727075870E+01
Br   -7.2784115321189278E+00    8.0633255525836702E+00   -3.5455760500291427E+00
Br   -5.1311905550492396E+00    7.3073484404422580E+00   -6.7370934792936854E+00
Br   -4.3648841789325914E+00    1.1282787005969031E+01   -4.4118216553865048E+00
Br   -6.3086146199978606E+00    1.9596079543730409E+00   -2.5586369398043454E+00
Br   -1.0271266849040252E+01   -1.1097337527986822E+01    4.7398211702411368E+00
Br   -3.8665224279982442E+00    1.2588387162478278E+00   -5.7297289590749712E+00
Br   -5.3622435618232362E+00   -4.7263637743503937E+00   -7.8634166547300746E+00
Br   -2.6714434680290755E+00   -4.4420043318225586E+00   -1.0769418400036287E+01
Br   -2.6412188454820531E+00   -1.6923845364428738E+00   -7.7332871950625144E+00
Br   -1.9487755068461992E+00    3.7976804665590889E+00    1.1025868681080402E+01
Br   -4.6866826765626461E+00   -8.1515565012385114E+00    1.0183667922839669E+01
Br   -1.2317160025302689E+00   -9.6438960342062146E+00    6.9681585146547187E+00
Br   -1.4710576267082629E+00   -5.5275948558657122E+00    9.1872496586602903E+00
Br   -8.2592490181134028E+00   -9.5610836750207699E+00    1.7000279889082606E+00
Br   -8.2104369727068143E+00   -6.9443099875681735E+00    4.1884424528620272E+00
Br   -8.4602540535249773E+00    9.3726144411560153E+00    1.1835407999599887E+01
Br    1.0527880870768445E+01    1.0576233118902195E+01    4.6287773985301173E-01
Br   -7.5458316546248581E+00   -7.5687577924589791E+00    1.2910634554782911E+01
Br    1.0264025995211322E+01    1.0059747536607670E+01   -5.7854747550319630E+00
Br    1.1206772067701669E+01    4.9622141873878327E+00    1.5635246581814495E+00
Br   -6.6042246677961387E+00    3.5408911015611042E+00    1.1475796937151287E+01
Br   -1.1208880157600282E+01   -5.6141944162192328E+00   -8.0263614790369786E+00
Br    1.1953186979869784E+01    6.2419604513884314E-02    7.7547626655384763E+00
Br   -4.5204688144458567E+00   -8.9312711709724439E+00    4.4782627781759468E+00
Br    6.2824623085959646E+00   -3.0416818884362313E+00   -8.5924893037965475E+00
Br    1.0021137222901720E+01   -3.0125541230053745E+00   -1.1412383702652583E+01
Br    1.3048264880365620E+01   -5.2207037877774729E+00    8.8018653529643505E+00
Br    8.2893006101058262E+00   -5.5732347704043061E-02   -9.1037014246002137E+00
Br   -7.2630698209156863E+00   -1.1347205554644951E+01    1.0652058149484159E+01
Br   -1.7095507235292988E+00   -8.8687008899585784E+00    1.1968320945254287E+00
Br   -1.9698435520795143E+00   -6.1987974983884460E+00    4.3574116686358284E+00
Br    6.5753726515598965E+00   -9.3732412375368863E+00   -8.2589146106946050E+00
Br   -5.0757875052183543E+00   -1.0834867192036654E+01   -6.8190903983540192E+00
Br    8.5738381768272003E+00   -9.1116095059231288E+00   -1.1018719006153201E+01
Br    9.2993450183029509E+00   -6.0479138924989773E+00   -8.3044707372050848E+00
Br   -9.0490636202822183E-01   -1.0399498446634556E+01    1.2219478188904214E+01