 # Version information for this restart file 
 # current date 2021-06-17 12:46:21.356
 # current working dir /user/ub2042/exercises/2_fitting/MM_MD_workdir/md_settings.005
 # Program compiled at                              Thu Apr 22 21:44:59 EDT 2021
 # Program compiled on                cpn-k07-07-02.compute.cbls.ccr.buffalo.edu
 # Program compiled for                                                    local
 # Source code revision number                                       git:36754bb
 &GLOBAL
   PRINT_LEVEL  LOW
   PROJECT_NAME cp2k
   RUN_TYPE  MD
 &END GLOBAL
 &MOTION
   &MD
     ENSEMBLE  NVT
     STEPS  10000
     TIMESTEP     2.4999999999999996E+00
     STEP_START_VAL  7000
     TIME_START_VAL     1.7499999999998578E+04
     ECONS_START_VAL    -1.5890036444644286E+01
     TEMPERATURE     3.0000000000000000E+02
     &BAROSTAT
       PRESSURE     1.0100000000000000E+00
       TIMECON     9.9999999999999982E+03
     &END BAROSTAT
     &THERMOSTAT
       TYPE  CSVR
       &CSVR
         TIMECON     9.9999999999999982E+03
         &THERMOSTAT_ENERGY
              -1.4960487451235893E-01
         &END THERMOSTAT_ENERGY
         &RNG_INIT
Wiener process for Thermostat # 1        1 F T F  -9.6117049849395275E-01        4292059355.0        1034014718.0        2730869498.0        3644692507.0         585491445.0        2739155311.0             12345.0             12345.0             12345.0             12345.0             12345.0             12345.0             12345.0             12345.0             12345.0             12345.0             12345.0             12345.0
         &END RNG_INIT
       &END CSVR
     &END THERMOSTAT
     &AVERAGES  T
       &RESTART_AVERAGES
         ITIMES_START  1
         AVECPU     1.7462972323576548E-02
         AVEHUGONIOT     0.0000000000000000E+00
         AVETEMP_BARO     0.0000000000000000E+00
         AVEPOT    -1.6333220369758443E+01
         AVEKIN     5.1783049872009546E-01
         AVETEMP     2.6267910587428725E+02
         AVEKIN_QM     0.0000000000000000E+00
         AVETEMP_QM     0.0000000000000000E+00
         AVEVOL     6.7483345830910429E+06
         AVECELL_A     1.8897261328855717E+02
         AVECELL_B     1.8897261328855717E+02
         AVECELL_C     1.8897261328855717E+02
         AVEALPHA     9.0000000000000000E+01
         AVEBETA     9.0000000000000000E+01
         AVEGAMMA     9.0000000000000000E+01
         AVE_ECONS    -4.6219587238346245E+00
         AVE_PRESS     0.0000000000000000E+00
         AVE_PXX     0.0000000000000000E+00
       &END RESTART_AVERAGES
     &END AVERAGES
     &PRINT
       &ENERGY  SILENT
         &EACH
           MD  10
         &END EACH
       &END ENERGY
     &END PRINT
   &END MD
   &PRINT
     &TRAJECTORY  SILENT
       &EACH
         MD  10
       &END EACH
     &END TRAJECTORY
     &CELL  SILENT
       &EACH
         MD  10
       &END EACH
     &END CELL
     &VELOCITIES  SILENT
       &EACH
         MD  10
       &END EACH
     &END VELOCITIES
     &FORCES  SILENT
       &EACH
         MD  10
       &END EACH
     &END FORCES
     &RESTART  SILENT
       &EACH
         MD  10
       &END EACH
     &END RESTART
   &END PRINT
 &END MOTION
 &FORCE_EVAL
   METHOD  FIST
   &MM
     &FORCEFIELD
       VDW_SCALE14     1.0000000000000000E+00
       EI_SCALE14     1.0000000000000000E+00
       SHIFT_CUTOFF  T
       DO_NONBONDED  T
       IGNORE_MISSING_CRITICAL_PARAMS  T
       &SPLINE
         R0_NB     2.5000000000000000E-01
       &END SPLINE
       &NONBONDED
         &LENNARD-JONES
           ATOMS Br Br
           EPSILON     1.2630795322675199E+02
           SIGMA     3.6900000000000004E+00
         &END LENNARD-JONES
         &LENNARD-JONES
           ATOMS Cs Pb
           EPSILON     8.6920055954630968E+01
           SIGMA     3.6699999999999999E+00
         &END LENNARD-JONES
         &LENNARD-JONES
           ATOMS Cs Cs
           EPSILON     2.2644852172126850E+01
           SIGMA     4.3300000000000001E+00
         &END LENNARD-JONES
         &LENNARD-JONES
           ATOMS Pb Pb
           EPSILON     3.3363415533600227E+02
           SIGMA     5.9000000000000004E+00
         &END LENNARD-JONES
         &LENNARD-JONES
           ATOMS Br Cs
           EPSILON     5.3481070753900497E+01
           SIGMA     3.6300000000000003E+00
         &END LENNARD-JONES
         &LENNARD-JONES
           ATOMS Br Pb
           EPSILON     2.0528187276773045E+02
           SIGMA     2.9800000000000000E+00
         &END LENNARD-JONES
       &END NONBONDED
       &CHARGE
         ATOM Cs
         CHARGE     4.4453099999999995E-01
       &END CHARGE
       &CHARGE
         ATOM Pb
         CHARGE     8.8906199999999991E-01
       &END CHARGE
       &CHARGE
         ATOM Br
         CHARGE    -4.4453099999999995E-01
       &END CHARGE
     &END FORCEFIELD
     &POISSON
       PERIODIC  XYZ
       &EWALD
         EWALD_TYPE  SPME
         GMAX  62 62 62
         O_SPLINE  4
       &END EWALD
     &END POISSON
     &PRINT
       &FF_INFO  LOW
         SPLINE_INFO  F
         SPLINE_DATA  F
       &END FF_INFO
     &END PRINT
   &END MM
   &SUBSYS
     &CELL
       A     1.0000000000000001E+02    0.0000000000000000E+00    0.0000000000000000E+00
       B     0.0000000000000000E+00    1.0000000000000001E+02    0.0000000000000000E+00
       C     0.0000000000000000E+00    0.0000000000000000E+00    1.0000000000000001E+02
       PERIODIC  XYZ
       MULTIPLE_UNIT_CELL  1 1 1
     &END CELL
     &COORD
Cs    2.2026066249174212E-01    1.6276086650813715E-01   -5.3394086343067100E+00
Cs    2.8318175404242962E-01   -5.9947691182433633E+00   -4.7769064351206589E+00
Cs    1.2758251422131170E+00   -1.1844554500793535E+01   -4.4799497985652392E+00
Cs   -4.7870127040145354E+00   -7.0347755906635010E+00   -5.1467417291062798E+00
Br   -7.3461531994813178E+00   -1.3446526054504750E+01   -7.5569835506223457E+00
Br    1.1907621111419907E+01   -1.8228997821943964E+00   -1.0088043074111974E+01
Br   -3.8518254928002058E+00    1.1162016948733355E+00   -1.1378503478855286E+01
Cs   -5.8973406532696981E-01    4.8581649380845287E+00   -6.1241067806973657E+00
Cs   -2.3241748362027209E-01    1.2455576159898657E-01   -3.6753813108333006E-01
Cs    1.3117116213469743E-01   -5.8220202044361562E+00    6.2699122466574631E-01
Br   -5.2328846081546514E+00   -3.3901894322244437E+00    3.6552071998529923E+00
Cs   -7.3812798843697669E+00   -5.4478401878480227E+00    1.3865243273471718E+01
Cs    1.2765893275933776E+01   -9.5390290659516506E+00    8.0133614529684183E-01
Cs   -6.7395519284072014E+00    5.3996027839648510E+00   -1.9956252963708088E-01
Cs   -1.7248097463909509E+00    1.1086081581021380E+01   -5.6496949771873872E-01
Cs    4.6349128571370551E-02    6.0618572462289260E+00   -4.2862975109949114E-01
Cs    9.7488008973318752E-01    1.3326794533382271E+00    5.1937520601905680E+00
Cs    9.5899945943456211E-01   -4.6765318213736222E+00    6.2455809141533773E+00
Cs    1.7889911746271348E+00   -1.1253990547545532E+01    6.4756295967095019E+00
Cs   -6.5345191762380272E+00    6.4012747746502354E+00    1.0324710541836286E+01
Cs   -6.4986128553423859E+00   -1.3413677667387183E+00   -1.0407823873802055E+01
Cs   -4.4343876931530817E+00   -1.2455026074338425E+01   -4.4900111358777854E+00
Cs   -6.1398097272789949E+00   -1.0051843242584384E+00    5.9920591916053318E+00
Br   -2.8858798348312122E+00   -2.6111392694364417E+00    4.6169201134881888E-01
Cs    3.7022113498313769E-01    6.9881765941867506E+00    5.3324726891680907E+00
Br    1.2054552661645957E+01   -7.5261672774636770E+00   -7.8185624843668604E+00
Cs    8.8756033200233242E-01   -4.5320658242750609E+00    1.1211932491190550E+01
Br   -2.9627157359369289E+00    9.1436347726822229E-02    2.9397288796180012E+00
Br   -8.2576797942504818E+00   -2.4590714873381105E+00    1.2139570041446863E+01
Cs    9.0740341776812627E+00    1.2075689064352419E+01   -8.0275133965242862E+00
Cs   -1.0885002851398148E+01   -6.3172708640631559E+00    7.0295428375546107E+00
Cs   -5.3031005017500190E+00   -6.2717196858651922E+00    6.1357248728010489E+00
Cs   -7.6278184547528296E+00    9.3068226307798714E+00   -7.1993000503240649E+00
Br   -1.0017490230616398E+01   -9.8474047680576220E+00    9.1935491826103171E+00
Br   -7.5680233138961359E+00   -9.0466157751924090E+00    6.9317069382181469E+00
Cs   -1.1290230588433300E+01   -8.0888311633016308E+00   -5.3033637561948215E+00
Cs   -6.2511589774129321E+00    4.9245472891468758E+00   -6.5302246978947496E+00
Br   -7.9276838167081349E+00   -6.0155172015084517E+00    9.8400799534481518E+00
Cs    1.0683991245037380E+01    8.5251115326482996E+00    1.0311429797853478E+01
Br   -1.2525930032354392E+01    8.6338627842691764E+00    7.5803423879514025E+00
Br   -5.5124371258861764E+00   -3.8311668752593735E+00   -2.5615704411518476E+00
Cs   -1.0241300945034655E-01    8.1098426225886677E-01    1.0526938418392660E+01
Cs    1.0804668446042010E+01    7.6107692272533312E+00   -1.7022315683888594E+00
Cs   -1.1095153845142649E+01   -8.9212326447871249E+00   -9.9862331419491035E+00
Cs    1.1243983230345114E+01    1.8154511293978397E+00    5.3589061317052344E+00
Cs   -1.4167453448475676E+01    8.4926049657129639E+00   -6.4611548048143863E+00
Cs    1.2699402896112554E+01   -9.3287956483145678E+00    7.2250062645746533E+00
Cs    5.7352353882246598E+00   -6.7527768841881972E+00   -1.1531014700543452E+01
Cs    7.6667287334005287E+00   -9.7114759628450003E+00    6.6300372058950989E+00
Cs   -5.0245736265706853E+00   -1.1788232158421128E+01    1.6716296901615046E+00
Cs    7.5392055643516365E+00   -1.2290372664700209E+01   -8.8609151597383580E+00
Cs    1.0256891599018351E+01    6.0535123983764656E+00   -8.3873121143321558E+00
Cs    9.3849136363284487E+00    1.4003381481566503E+01    4.1271902165715169E+00
Cs    9.0081148191233069E+00    6.1894090784927052E+00   -1.3346926764475498E+01
Cs    5.0196233837413673E-01   -7.9276978843075483E+00   -1.0472141963029591E+01
Cs   -1.1866409190380516E+01   -2.6276073514247584E+00   -4.9057039897530421E+00
Cs    7.6628774886670303E+00   -2.6875549081024026E+00    1.2732456220350453E+01
Cs    1.2457635954221058E+01   -3.8834364497847838E+00    5.4341959642067810E+00
Cs   -3.6690184168574476E+00   -1.1823019465692120E+01    1.1387489488891411E+01
Cs   -1.2339452146240664E+00   -1.8313997619717215E+00   -1.1931682465975809E+01
Cs   -2.7757069294226860E-01    1.1982573565094293E+01    4.7342029040968940E+00
Cs   -1.5225820003579535E+00    3.9231316047373146E+00   -1.1795381943814453E+01
Cs    5.3133204053234415E+00    4.5294570923541277E-01   -6.1441285151983500E+00
Cs    6.2713033938159874E+00   -5.5219688475599220E+00   -4.9299301974658452E+00
Cs   -4.3834198603018626E+00   -1.1089246371154696E+01    6.8373482598268369E+00
Cs   -1.0783455808177852E+01   -4.0926503187532276E-01    5.8539526567886959E+00
Cs    5.2424172983094488E+00   -8.1338461068591672E-01   -1.1792641816193537E+01
Cs    3.6997722009243144E+00    1.1341307849878108E+01   -1.1811199194220361E+01
Cs   -2.7755752667765810E-01    7.5578108680443759E+00    1.0699504838085872E+01
Cs   -6.1903233572523515E+00    1.1930673987361903E+01    4.7908860466230498E+00
Cs    4.2444337336845930E+00    1.0698989449599765E+01   -6.9371255916363506E+00
Cs    5.4693209665614111E+00    5.0293252338120835E+00   -7.1497889057775250E+00
Cs    5.6836112829653080E+00    2.2116347729090727E-01   -5.9615453878054703E-01
Cs    5.9435447240299650E+00   -4.7402586524646821E+00    3.3723857040494692E-01
Cs    7.1470862490949907E+00   -1.0157846389928563E+01    1.1041688806691163E+00
Cs    3.4577484188173093E+00    4.4239179137010272E+00   -1.2538015742007559E+01
Cs   -6.4035304181557162E+00    5.8899484088995777E+00    5.4531521196450550E+00
Cs   -6.2970877735500714E+00   -7.6166582448576952E+00   -1.0968710063135187E+01
Cs    5.7132156026232739E+00    5.7609767356124530E+00   -6.5028975839442826E-01
Cs    6.2208506949972016E+00    1.3800566790882038E+00    5.6034969747568484E+00
Cs    7.4319897265352886E+00   -4.4356274038873273E+00    6.0083001372338201E+00
Cs   -6.7907742536739617E+00    1.0051470266075121E+01   -9.6004219178999661E-01
Cs    1.1573588807162420E+01    4.2454043453498169E-01   -1.4605920866018056E+00
Cs   -5.9935047200493408E+00    5.9133468015477447E-02    1.1810737615367328E+00
Cs   -1.2218629933667838E+01    5.4963704665333832E+00    6.2178130885280956E+00
Cs   -6.2112446561388923E+00    4.8441665142872298E-01    1.1462316578810059E+01
Cs    4.7564232084380631E+00    1.2809007343019060E+01    4.5315286180559529E+00
Cs    5.1625544867242699E+00    7.4122167909800982E+00    4.8319959772465584E+00
Cs    5.2525829381877660E+00    2.1285858876278079E+00    1.1310498021411785E+01
Cs    4.2720531162016648E+00    1.1206987962540071E+01   -1.2445130217243845E+00
Cs    1.1796154593543077E+01    7.4830180869310547E-01   -7.3233508511016412E+00
Cs    1.1434245929533295E+01   -4.7476325910288990E+00   -5.5592386241811260E+00
Cs    6.2055784855326079E+00   -7.2083559095201384E+00    1.3513207060892352E+01
Cs    1.0233490590500363E+01    1.2882185000090086E+01   -3.2212369406763908E+00
Cs   -1.1526433777257113E+01   -4.1199869691877450E-01    1.1042029039055631E+01
Cs   -7.0843107786483079E+00    3.8793891551991564E+00   -1.0983053090124207E+01
Cs   -1.1348234376310486E+01    1.0911998600614094E+01   -8.1402916375883105E-01
Cs   -4.3174150116299055E+00   -4.8527541474712574E+00    1.1926139545129473E+01
Cs    1.0823251141762182E+00   -9.4226807604879834E+00    1.2048861581504514E+01
Cs    6.2228720228541912E+00    7.7708781981739401E+00    9.4571292322719991E+00
Cs    1.1926830546681458E+01   -3.9800446454817249E+00    2.2072522054257845E-01
Cs   -1.1618306251068610E+01   -8.7431239765645163E-01    7.7222962693142427E-01
Cs   -7.2895009869535130E+00    8.7839712044497631E+00   -1.2097276035326523E+01
Cs   -1.2474695530025153E+01    3.9855526268915087E+00    3.0119141483591183E-01
Cs   -9.5935601109641890E+00   -1.4094547004707630E+01   -4.3677032602447445E+00
Cs   -1.1181374174659508E+01   -6.1972968996781539E+00    1.5754643253846514E+00
Cs   -4.6667140867729238E+00   -6.3314437533250763E+00    5.2743013843261299E-01
Cs   -8.9126984929517050E+00   -1.2345364217430916E+01    7.5381439856398735E+00
Cs    1.3177053511879086E+01   -3.5922051043925074E+00    1.0222709098233038E+01
Cs    1.0698372031625532E+01    7.9611582307583983E+00    3.5262785728917780E+00
Cs   -1.2129884176809281E+01    3.0491119752933091E+00   -5.2850512534351175E+00
Cs   -6.2204704732745579E+00   -1.0228203583760083E+00   -5.2752601988160785E+00
Cs   -1.0339581372487034E+01   -1.2596355014168514E+01    1.6056825869296778E+00
Cs    1.2413357678942072E+01   -9.8057657908220222E+00   -5.1311260120613937E+00
Cs   -4.9724282665528134E+00   -1.2721613633917086E+01   -9.8294675127329203E+00
Cs   -2.1018986245572102E+00    9.7820810978484349E+00   -1.1990377971785442E+01
Cs    6.8682308525904323E-01   -1.3148207110636024E+01   -9.0282015115411713E+00
Cs   -8.0553324640135249E-01    1.0617741556229417E+01   -6.2738002004260451E+00
Cs   -6.2538701031859825E+00    1.1915672812853540E+01    1.0065203065364207E+01
Cs    2.7579942497378529E-01   -1.1445675063105615E+01    7.3162276836647977E-01
Cs   -1.1056414083056536E+01   -2.6193795416676715E+00   -1.0362126063935627E+01
Cs   -1.1786167945549728E+01    1.1081492937293204E+01    5.2365631418630860E+00
Cs    7.9602150233919726E+00   -1.1421267250514090E+01   -4.3604109372205837E+00
Cs    1.0901359610550609E+01    3.3928287400976198E-01   -1.2063147475268286E+01
Cs    5.1192162063555928E+00    1.2380256986294510E+01    1.0419248394389980E+01
Pb    3.1007016443970299E+00   -2.8739083498737510E+00   -2.5789572297831969E+00
Pb    3.9572837380281314E+00   -8.6523653453391134E+00   -2.2357060119421917E+00
Pb   -8.3624051292581214E+00   -3.6206712921528164E+00    3.5435886231648306E+00
Pb   -2.1144906972389275E+00   -9.6076501178111382E+00   -2.0755295765668800E+00
Pb    1.9714497140723115E+00    8.4217397929081308E+00   -3.9362918447615844E+00
Pb    2.9387195072801013E+00    2.8753310815661970E+00   -3.3028052817498281E+00
Pb    3.3145343251404582E+00   -2.3546268043795262E+00    3.1597659367075410E+00
Pb    3.7000803915352711E+00   -8.2982573759208638E+00    3.4722557974643453E+00
Pb   -3.4120868868622511E+00    8.7843723934369216E+00    2.2604747344491458E+00
Pb    2.4184930029713798E+00    9.4673137036686796E+00    2.0675503821494043E+00
Pb    2.9476802855426381E+00    3.7011831212245458E+00    2.4602690605813300E+00
Pb    3.8004266362869821E+00   -1.5106405379897490E+00    8.8779040908024935E+00
Pb    4.3988730378756031E+00   -7.4355885815014418E+00    9.4021178078340277E+00
Pb   -3.0873896041525914E+00    2.8183779088850081E+00    3.0263791666768038E+00
Pb    2.4720935157304647E+00    1.0352824869321354E+01    8.0603695634530510E+00
Pb    2.7716456142758843E+00    4.4560693092088171E+00    8.2833774301253005E+00
Pb   -2.4165843790973685E+00   -2.0143189093666312E+00    9.2251302814805438E+00
Pb   -8.1405248781664561E+00   -9.2392073126848242E+00    3.9404416631297079E+00
Pb   -9.0429985081722375E+00    1.4802308167204641E+00   -2.4414154593393600E+00
Pb   -2.6388309878824225E+00   -4.5465440982541931E+00   -8.5112534238600919E+00
Pb   -2.0217434826395828E+00   -8.7195668145409950E+00    3.9870498495279438E+00
Pb   -4.0880713394346238E+00    8.1145294049316643E+00   -3.5738802333641311E+00
Pb   -1.7295454899548053E+00   -7.7881986012303130E+00    9.6301469145542651E+00
Pb   -8.4265928684875515E+00   -4.2261978684954693E+00   -2.1654473986523479E+00
Pb   -8.0193484639087913E+00   -9.9923655542950236E+00   -1.8110310561452581E+00
Pb   -3.1091093651909465E+00    2.5249960553695834E+00   -2.9216319548813545E+00
Pb   -7.4246235315181162E+00   -8.8157479972680886E+00    9.7733076903500908E+00
Pb   -8.5846057859279803E+00   -5.1286299126484929E+00   -7.9302678470909873E+00
Pb    9.0073354512624739E+00   -3.1044192920565128E+00   -9.4967820649305725E+00
Pb    9.3522462177331178E+00   -8.7273515025457638E+00   -8.2585256980560136E+00
Pb   -2.3260966513393218E+00   -1.0251608955353463E+01   -7.7544362411196239E+00
Pb   -1.0531988595964403E+01    6.3732467652907392E+00   -9.7039970851837545E+00
Pb    3.1165335647402008E+00   -3.5853331456375015E+00   -8.4654353953151666E+00
Pb    3.5595676317365932E+00   -9.3755457239821620E+00   -7.8212839984700588E+00
Pb   -3.4608393560259625E+00    1.5809227315639984E+00   -8.7414230774168971E+00
Pb    1.2266545129203541E+00    7.9155403164341953E+00   -9.7903663095009250E+00
Pb    2.2356381113393975E+00    2.1396731069236568E+00   -9.3110533152517156E+00
Pb    8.6267399221755614E+00   -2.5212046207158285E+00   -3.5427158200160211E+00
Pb    9.9682387079250372E+00   -7.9515002978227232E+00   -2.2031522706475424E+00
Pb   -8.3115763556969853E+00   -3.0938021281609962E+00    9.4097310657670672E+00
Pb    7.0316700358783439E+00    8.5942740866751812E+00   -1.0430550077567947E+01
Pb   -9.2917021296345457E+00    9.7377485100122207E-01   -8.1363464941179284E+00
Pb   -3.3579453592027235E+00    9.7395548508697249E+00    8.2473645015289403E+00
Pb    7.7220081182984028E+00    9.1080549727902973E+00   -4.5469302846912347E+00
Pb    8.8034526597156368E+00    3.0447867009813878E+00   -4.0200768791774513E+00
Pb    9.3150330983441716E+00   -1.5762147034104186E+00    2.4439289774835355E+00
Pb    9.8637037973118868E+00   -7.2677216478669928E+00    3.5175992765462172E+00
Pb    7.6660957953240025E+00    2.6236075170450275E+00   -9.9863539862565052E+00
Pb   -3.0803735883698224E+00    3.6943446510286377E+00    8.7846587276481394E+00
Pb    8.0848703883854025E+00    1.0645569814887597E+01    1.0829735083858369E+00
Pb    8.9246791662135756E+00    4.2304046101220729E+00    2.1779331666375112E+00
Pb    9.9667217496035754E+00   -1.3252059933952298E+00    8.7339456263809740E+00
Pb    1.0305304837807023E+01   -7.0394365314698986E+00    9.6699232232813372E+00
Pb    8.0344735000404910E+00    1.0906916572584569E+01    7.0576887492977693E+00
Pb    9.1446245075315247E+00    4.5312966155055374E+00    7.9218931347955133E+00
Pb   -9.1707200920490646E+00    3.1066650697867910E+00    8.7923400128208957E+00
Pb   -2.5078478866908993E+00   -2.7992848647568098E+00    3.3186436561420525E+00
Pb   -9.7388136589289402E+00    7.6677277199535849E+00    2.3371921939907545E+00
Pb   -9.7095795297738778E+00    7.0596736316699271E+00   -3.6906409707355046E+00
Pb   -8.5751847821967147E+00   -1.0966132783381820E+01   -7.5408474542217236E+00
Pb   -4.3827578116681734E+00    7.4902149203625967E+00   -9.5235408871808591E+00
Pb   -8.9535657534932458E+00    2.2534646585983626E+00    3.2831413593843233E+00
Pb   -9.5014063886899436E+00    8.9650180084742654E+00    8.2062998073952400E+00
Pb   -2.7997621122366034E+00   -3.2894051240692117E+00   -2.4677854156429855E+00
Br    3.1449840356378445E-01   -3.6962333582799349E+00   -2.2397860829420555E+00
Br    2.3339301979459157E+00   -3.2683947783313529E+00   -5.5363134576311515E+00
Br    2.9970447813278613E+00    1.1810383846525825E-01   -3.4106243507356959E+00
Br    6.1960374532615448E-01   -9.3720741388882587E+00   -2.2582435160516363E+00
Br    3.0007389535253788E+00   -8.8153722025021661E+00   -5.0400407844256678E+00
Br    3.6487585965894449E+00   -5.7665253013326829E+00   -2.2061053628990677E+00
Br   -3.0391412891328997E+00   -4.2949069317797770E+00   -5.2133244058954062E+00
Br   -7.5885224912442526E+00   -3.8566647916764247E+00    6.4368347155034442E+00
Br   -2.7635817049000067E+00   -2.9212821752920876E-01   -2.9430277510492275E+00
Br    4.7803972883897945E+00   -1.1426514287980643E+01   -2.9509417273065939E+00
Br    1.1897263230758725E+01   -1.1897930136820800E+00    1.6966346602197830E+00
Br   -4.8917277142627418E+00   -9.8710651607252800E+00   -1.9683120082213053E+00
Br   -1.1277154602584682E+01   -3.2344879320867843E+00    3.4881214764051420E+00
Br   -8.4443963481813515E+00   -3.8118957890041014E+00    7.1387309362430873E-01
Br    1.2697284915313316E+01   -8.5862142199420326E+00    4.0731166992994030E+00
Br   -1.2393693976621825E+00    8.4715860539072754E+00   -3.6675689729214946E+00
Br    1.4866951674109232E+00    7.5582947050945037E+00   -6.6456640915025895E+00
Br    2.1732278345445790E+00    1.1070917006135797E+01   -4.5723119669781163E+00
Br   -3.8429615081070612E-01    2.5558938751894149E+00   -3.1831827556589594E+00
Br    2.5417649186628468E+00    2.8301745880455487E+00   -6.2261852168941125E+00
Br    1.7924541671307626E+00    5.5725824043236267E+00   -3.4689139700221574E+00
Br    2.7372479009267137E-01   -2.5635242776696678E+00    2.9288433203532493E+00
Br    3.7631674605236096E+00   -2.3703123664949146E+00    2.4007247677127624E-01
Br    3.3680953824216702E+00    5.8341432195887710E-01    2.6552321723217740E+00
Br    7.1562934684662249E-01   -8.4533041163206857E+00    3.7533432495990864E+00
Br    3.4767183492651195E+00   -7.8916362109643359E+00    5.9651789323212001E-01
Br    3.3644582331550263E+00   -5.1905893718018028E+00    3.5598018282555057E+00
Br   -7.0677984408525800E+00    6.9973363718128851E+00   -9.3486357360976040E+00
Br   -4.5110654753980430E+00    7.3565514254157192E+00   -1.2537037151860563E+01
Br    3.4254150606558098E+00   -1.0941577797769916E+01    2.4983460576688556E+00
Br   -5.1209512559388530E+00    1.0244493733480693E+01   -9.7909507957047790E+00
Br   -4.0096920798074285E+00    4.5455923832092209E+00   -8.9408051960673625E+00
Br   -8.4226981429242578E+00   -5.7828165996759984E-01    3.6511307298014928E+00
Br   -2.2164993981027226E+00   -9.6500503712151087E+00   -4.9272102716702495E+00
Br   -6.2478189721376314E+00    8.0616269004638195E+00    1.9446484549906906E+00
Br   -3.6718675168755475E+00    8.5365966893984435E+00   -3.7264008818183408E-01
Br   -3.8561308072907554E+00    1.1761385914229493E+01    2.3139682047050938E+00
Br   -4.9655769543631317E-01    9.2907708545871071E+00    2.3215787632079645E+00
Br    1.7084366329004679E+00    8.8777690655054489E+00   -6.6207516396067700E-01
Br    2.7968770525395010E+00    1.2372417892002781E+01    2.0444792454335676E+00
Br   -5.5063498303835688E-02    3.4169004479208787E+00    2.3197045612256573E+00
Br    2.8854987559101133E+00    3.7575904611261430E+00   -6.0556837654370199E-01
Br    3.0592414347261041E+00    6.7006778169747250E+00    2.2437323949493502E+00
Br    4.4448845410690679E-01   -1.9865191617375413E+00    8.9487519634888173E+00
Br    3.5490877552750026E+00   -1.7825113004381559E+00    6.1292659632356727E+00
Br    2.8547659881941461E+00    1.1707993810188995E+00    8.6131159613726549E+00
Br    1.4945042823832504E+00   -7.5767893482889210E+00    9.1726887709039655E+00
Br    4.6537114798197665E+00   -8.4104731820141083E+00    6.4870663077263693E+00
Br    3.9314287703736057E+00   -4.4479780873001653E+00    8.7071577573717391E+00
Br   -1.1846395297349726E+01    1.4654431309494829E+00    3.3069567301545688E+00
Br   -8.6515794330135112E+00    1.9828709097389285E+00    6.9252436679522400E-01
Br    3.9973587462076821E+00   -1.0142710706082271E+01    1.0444709119450412E+01
Br   -9.7727542911885852E+00    4.8039512445137316E+00    1.9294366801749938E+00
Br   -8.1559075374190400E+00   -2.7138230840034239E-01    8.4386309067134260E+00
Br   -2.1521791106242567E+00   -6.1843413018760769E+00   -1.7729281945405475E+00
Br   -5.8375346483257777E+00    2.5159172484979435E+00    3.5828587580196554E+00
Br   -2.8868645859842084E+00    2.8547621410635569E+00    1.8933611031274236E-01
Br   -3.6602930260388709E+00    5.7778949079298343E+00    3.3356350110786264E+00
Br   -4.0617561996254675E-01    1.0153006019214809E+01    8.4977504747839472E+00
Br    2.4232975342220766E+00    1.0030865649831156E+01    4.7424296340986691E+00
Br    3.1712127847419089E+00    1.3237926649512071E+01    7.8019857818374438E+00
Br    2.1995044016796569E-02    3.8948174658209105E+00    8.2968262917679816E+00
Br    2.5668438084621124E+00    4.7336367744612922E+00    5.1480441292191141E+00
Br    2.6988825000881826E+00    7.7214586071269178E+00    7.8010562326312538E+00
Br   -5.4997632062167980E+00   -2.4871061132778247E+00    9.5530723784754752E+00
Br    3.6489895533330001E+00   -1.8084878456432025E+00    1.1666666707358983E+01
Br   -2.2317137286936966E+00   -2.5715474540462835E+00    6.2144810605393559E+00
Br   -3.5633896677745618E+00    4.8964110130628752E-01    9.3269264347464418E+00
Br   -2.1804553858266429E+00   -1.2270360276716419E+01   -2.0962493504348960E+00
Br    3.2768130163599127E+00   -6.7909422145370621E+00    1.1994005428585938E+01
Br   -1.1900200047270861E+01    9.3008941308090387E-01   -1.9714580878291283E+00
Br   -2.4809473484169633E+00   -1.1537133360533144E+01    3.8550615516067168E+00
Br   -1.1532032540813120E+01   -4.9396383507026460E+00   -2.1274499573542158E+00
Br    2.9832462894692959E+00    9.8232539948411759E+00    1.0647463805077239E+01
Br   -8.8030955897691285E+00   -4.8456698258124646E+00   -5.2743782418334604E+00
Br   -9.2317987429051751E+00   -1.5115218573194036E+00   -2.4414438610295792E+00
Br    2.7883663348825602E+00    4.6392234295448844E+00    1.1026733644789152E+01
Br   -6.7971892853526779E+00    7.1990152510716676E+00   -3.9653574036337207E+00
Br   -4.2959181197741696E+00    8.0541289217284326E+00   -6.5711125204761114E+00
Br   -4.6244935485712357E+00    1.0701415441672006E+01   -3.4652701480790560E+00
Br   -6.2013485420664596E+00    1.6472886276337262E+00   -2.2873815221791434E+00
Br   -1.1052422138764587E+01   -9.0087522590565587E+00    4.0534358072521455E+00
Br   -3.8054277746758509E+00    2.4202109460487793E+00   -5.9885735363079080E+00
Br   -5.6781915534140959E+00   -4.6028509681331125E+00   -8.2976300371053480E+00
Br   -2.6234272926455611E+00   -4.8441076731412283E+00   -1.1482104637990801E+01
Br   -2.8103264413588773E+00   -1.3784821158157536E+00   -8.9777797936783568E+00
Br   -1.9237410898186686E+00    3.9861361327336660E+00    1.1384849230752677E+01
Br   -4.6193356473486515E+00   -8.3473670096456054E+00    9.4180652187798160E+00
Br   -1.9628801919069085E+00   -8.2702562376800390E+00    6.8745092399034782E+00
Br   -2.1999936875211206E+00   -5.0301043005263342E+00    9.5124666324073957E+00
Br   -7.9540409717256217E+00   -9.9790474739300272E+00    1.1358660006563550E+00
Br   -8.1822844143493700E+00   -6.4471360272922480E+00    3.9241470326124483E+00
Br   -8.9880416936849326E+00    9.8550224968596112E+00    1.0983257485125774E+01
Br    1.0895056633992677E+01    1.0488037973318814E+01    1.0225279378493521E+00
Br   -6.8721094628811663E+00   -8.5885542415820826E+00    1.2918190587110324E+01
Br    1.0375829556970434E+01    9.9694576688572010E+00   -4.8185618064345306E+00
Br    1.1792562874015843E+01    4.6873134873484990E+00    2.5960747834536742E+00
Br   -8.8951482615470923E+00    2.4426075401117426E+00    1.1523998374556570E+01
Br   -1.1539847593398731E+01   -5.1376929880426525E+00   -7.9902499551043125E+00
Br    1.2474761124888234E+01   -1.6252861039393769E+00    7.5755718411796478E+00
Br   -4.9722584141301844E+00   -8.7003173781454564E+00    3.6251623012929213E+00
Br    5.7681110828521849E+00   -3.3626300221005909E+00   -7.8078536846991700E+00
Br    8.0275198464960162E+00   -3.7735268209260240E+00   -1.2102827959637638E+01
Br    1.3010963705444075E+01   -7.1128999191027065E+00    9.5064991904796052E+00
Br    7.9357617358203960E+00   -3.9651021164493194E-01   -9.9057442888735547E+00
Br   -6.3020586029416883E+00   -1.1345157961932427E+01    9.5457459684842867E+00
Br   -2.3322554705874161E+00   -8.9893613416077098E+00    1.0229451125621019E+00
Br   -2.1440066333466414E+00   -5.6192911280929216E+00    3.1518150613711002E+00
Br    6.2744030862511364E+00   -9.1625289471566962E+00   -7.6318571997713649E+00
Br   -5.2967940657016799E+00   -1.0316234566402287E+01   -7.7490041655384276E+00
Br    8.1567699306849484E+00   -9.5860758903147900E+00   -1.0975212734241650E+01
Br    8.9403026434846264E+00   -5.9049462738181226E+00   -8.9985223597792654E+00
Br   -9.4231140756840570E-01   -1.0567623466249850E+01    9.6716508595429556E+00