 # Version information for this restart file 
 # current date 2021-06-17 12:44:54.223
 # current working dir /user/ub2042/exercises/2_fitting/MM_MD_workdir/md_settings.005
 # Program compiled at                              Thu Apr 22 21:44:59 EDT 2021
 # Program compiled on                cpn-k07-07-02.compute.cbls.ccr.buffalo.edu
 # Program compiled for                                                    local
 # Source code revision number                                       git:36754bb
 &GLOBAL
   PRINT_LEVEL  LOW
   PROJECT_NAME cp2k
   RUN_TYPE  MD
 &END GLOBAL
 &MOTION
   &MD
     ENSEMBLE  NVT
     STEPS  10000
     TIMESTEP     2.4999999999999996E+00
     STEP_START_VAL  2000
     TIME_START_VAL     4.9999999999997863E+03
     ECONS_START_VAL    -1.5890036444644286E+01
     TEMPERATURE     3.0000000000000000E+02
     &BAROSTAT
       PRESSURE     1.0100000000000000E+00
       TIMECON     9.9999999999999982E+03
     &END BAROSTAT
     &THERMOSTAT
       TYPE  CSVR
       &CSVR
         TIMECON     9.9999999999999982E+03
         &THERMOSTAT_ENERGY
              -4.7953234602563066E-02
         &END THERMOSTAT_ENERGY
         &RNG_INIT
Wiener process for Thermostat # 1        1 F T F  -4.1316006610438311E-01        3467588906.0        2335825785.0        3211720173.0        1531220123.0        1256874348.0        2092146405.0             12345.0             12345.0             12345.0             12345.0             12345.0             12345.0             12345.0             12345.0             12345.0             12345.0             12345.0             12345.0
         &END RNG_INIT
       &END CSVR
     &END THERMOSTAT
     &AVERAGES  T
       &RESTART_AVERAGES
         ITIMES_START  1
         AVECPU     1.7553943172562866E-02
         AVEHUGONIOT     0.0000000000000000E+00
         AVETEMP_BARO     0.0000000000000000E+00
         AVEPOT    -1.6358084218528731E+01
         AVEKIN     4.8387956329165821E-01
         AVETEMP     2.4545686542305779E+02
         AVEKIN_QM     0.0000000000000000E+00
         AVETEMP_QM     0.0000000000000000E+00
         AVEVOL     6.7483345830898648E+06
         AVECELL_A     1.8897261328855916E+02
         AVECELL_B     1.8897261328855916E+02
         AVECELL_C     1.8897261328855916E+02
         AVEALPHA     9.0000000000000000E+01
         AVEBETA     9.0000000000000000E+01
         AVEGAMMA     9.0000000000000000E+01
         AVE_ECONS    -4.0096042370498175E+00
         AVE_PRESS     0.0000000000000000E+00
         AVE_PXX     0.0000000000000000E+00
       &END RESTART_AVERAGES
     &END AVERAGES
     &PRINT
       &ENERGY  SILENT
         &EACH
           MD  10
         &END EACH
       &END ENERGY
     &END PRINT
   &END MD
   &PRINT
     &TRAJECTORY  SILENT
       &EACH
         MD  10
       &END EACH
     &END TRAJECTORY
     &CELL  SILENT
       &EACH
         MD  10
       &END EACH
     &END CELL
     &VELOCITIES  SILENT
       &EACH
         MD  10
       &END EACH
     &END VELOCITIES
     &FORCES  SILENT
       &EACH
         MD  10
       &END EACH
     &END FORCES
     &RESTART  SILENT
       &EACH
         MD  10
       &END EACH
     &END RESTART
   &END PRINT
 &END MOTION
 &FORCE_EVAL
   METHOD  FIST
   &MM
     &FORCEFIELD
       VDW_SCALE14     1.0000000000000000E+00
       EI_SCALE14     1.0000000000000000E+00
       SHIFT_CUTOFF  T
       DO_NONBONDED  T
       IGNORE_MISSING_CRITICAL_PARAMS  T
       &SPLINE
         R0_NB     2.5000000000000000E-01
       &END SPLINE
       &NONBONDED
         &LENNARD-JONES
           ATOMS Br Br
           EPSILON     1.2630795322675199E+02
           SIGMA     3.6900000000000004E+00
         &END LENNARD-JONES
         &LENNARD-JONES
           ATOMS Cs Pb
           EPSILON     8.6920055954630968E+01
           SIGMA     3.6699999999999999E+00
         &END LENNARD-JONES
         &LENNARD-JONES
           ATOMS Cs Cs
           EPSILON     2.2644852172126850E+01
           SIGMA     4.3300000000000001E+00
         &END LENNARD-JONES
         &LENNARD-JONES
           ATOMS Pb Pb
           EPSILON     3.3363415533600227E+02
           SIGMA     5.9000000000000004E+00
         &END LENNARD-JONES
         &LENNARD-JONES
           ATOMS Br Cs
           EPSILON     5.3481070753900497E+01
           SIGMA     3.6300000000000003E+00
         &END LENNARD-JONES
         &LENNARD-JONES
           ATOMS Br Pb
           EPSILON     2.0528187276773045E+02
           SIGMA     2.9800000000000000E+00
         &END LENNARD-JONES
       &END NONBONDED
       &CHARGE
         ATOM Cs
         CHARGE     4.4453099999999995E-01
       &END CHARGE
       &CHARGE
         ATOM Pb
         CHARGE     8.8906199999999991E-01
       &END CHARGE
       &CHARGE
         ATOM Br
         CHARGE    -4.4453099999999995E-01
       &END CHARGE
     &END FORCEFIELD
     &POISSON
       PERIODIC  XYZ
       &EWALD
         EWALD_TYPE  SPME
         GMAX  62 62 62
         O_SPLINE  4
       &END EWALD
     &END POISSON
     &PRINT
       &FF_INFO  LOW
         SPLINE_INFO  F
         SPLINE_DATA  F
       &END FF_INFO
     &END PRINT
   &END MM
   &SUBSYS
     &CELL
       A     1.0000000000000001E+02    0.0000000000000000E+00    0.0000000000000000E+00
       B     0.0000000000000000E+00    1.0000000000000001E+02    0.0000000000000000E+00
       C     0.0000000000000000E+00    0.0000000000000000E+00    1.0000000000000001E+02
       PERIODIC  XYZ
       MULTIPLE_UNIT_CELL  1 1 1
     &END CELL
     &COORD
Cs   -6.3305703808152569E-01   -7.3820315070758302E-01   -5.8092804953977764E+00
Cs    1.9946026835350056E-01   -6.3496833295589763E+00   -6.1925765748421764E+00
Cs    1.5337269184370024E+00   -1.1497815696979941E+01   -5.5271567466172531E+00
Cs   -5.9097025995175425E+00   -6.1728862374492275E+00   -5.0941001773025061E+00
Br   -7.8548968570766382E+00   -1.2413249342228241E+01   -7.1079945871209835E+00
Br    1.1722124590581434E+01   -2.8156080764907765E+00   -9.6268821684674251E+00
Br   -3.0720032414592287E+00    2.6109202108090930E+00   -1.2277272033748787E+01
Cs    6.7276650394111714E-01    5.2100349337510563E+00   -6.2582728995548118E+00
Cs    3.1995278506374153E-01   -1.8273468152634612E-01    1.2177884892477275E-01
Cs   -2.1942660748840145E-01   -5.2892468712098379E+00    4.1371928897061322E-01
Br   -5.8869966166634420E+00   -2.5676744807280421E+00    3.6025549695282866E+00
Cs   -9.6816050286084554E+00   -6.5466822808089571E+00    1.2460737021959497E+01
Cs    1.2022166318689980E+01   -1.1046183632233754E+01    5.7019513769641061E-01
Cs   -5.8539149939344401E+00    5.4197618131645369E+00    9.6804321612564206E-02
Cs   -9.3827947437415446E-02    1.0695773859086271E+01    3.0723923077237376E-02
Cs   -3.2729961715715594E-01    5.4137980659185905E+00   -8.2375544885558302E-02
Cs    6.4563683896849944E-01   -1.8588844045412678E-01    6.4616700683093296E+00
Cs    2.2186144119057191E-01   -5.7592094374639986E+00    5.7951016320376025E+00
Cs   -5.6195313081474341E-01   -1.1293254409633741E+01    6.8030691036715796E+00
Cs   -5.3577631311949165E+00    6.1539340202547299E+00    1.1520105107344751E+01
Cs   -5.9575440888069107E+00   -7.9994807447925975E-01   -1.1336912121416027E+01
Cs   -4.9516774958254741E+00   -1.1685803418094263E+01   -5.3100116208439472E+00
Cs   -6.0229555723721715E+00    7.6949895170893667E-01    5.8263020949497317E+00
Br   -3.1889002994281408E+00   -2.7886233675997922E+00    9.4547032090042935E-02
Cs   -1.3768016483461596E+00    6.2387374157613742E+00    6.1193312899618908E+00
Br    1.1855677000182160E+01   -8.7506397591126763E+00   -1.0180937557301181E+01
Cs    5.1304060160250997E-01   -5.8949616955002995E+00    1.1476152127171616E+01
Br   -2.5461963806827597E+00   -3.7348756733745475E-01    2.4233705499158984E+00
Br   -9.5244829145015313E+00   -3.2827514104863926E+00    1.1940338815358453E+01
Cs    1.1332300762396960E+01    1.1303894150927103E+01   -6.7350211224107444E+00
Cs   -1.0855880305493473E+01   -6.6445454309180008E+00    6.8371238113148118E+00
Cs   -5.0337232345054943E+00   -5.1568365751203675E+00    5.9703680841151030E+00
Cs   -6.0201203381890220E+00    1.1332859119874749E+01   -6.3368759090218028E+00
Br   -1.1215291708572050E+01   -9.4614079528652155E+00    9.3555832203428597E+00
Br   -8.3556660367053617E+00   -9.2672199000052409E+00    6.3908759427018271E+00
Cs   -1.1180763996105746E+01   -6.2193924081010277E+00   -5.7141250152262018E+00
Cs   -5.5640047874653753E+00    5.8238583873636012E+00   -6.1389260148627542E+00
Br   -8.3366398307048595E+00   -6.3694526291407536E+00    9.3049452636158847E+00
Cs    1.1839049976170632E+01    6.7962885716006509E+00    1.0296930995441100E+01
Br   -1.1827086883868473E+01    9.0053205406950916E+00    8.8404494497142956E+00
Br   -5.9350107970295571E+00   -3.4249419038091675E+00   -2.8274107455726232E+00
Cs   -6.1315417261471473E-02   -5.2627233069209456E-01    1.1372315957283000E+01
Cs    1.1299508051933422E+01    5.6113187866473773E+00   -1.0991142918368180E+00
Cs   -1.0241089274111474E+01   -6.9780829089544234E+00   -1.1685886127936266E+01
Cs    1.1820523976844996E+01    4.0510305798084473E-01    5.0799572620709927E+00
Cs   -1.1162475859785738E+01    1.1587544888303420E+01   -6.3623832979844686E+00
Cs    1.1356476727816194E+01   -1.0485314334534042E+01    7.0471137401520947E+00
Cs    6.6440265257149456E+00   -5.6765985746320942E+00   -1.0948693055051006E+01
Cs    6.5288781704441003E+00   -1.0791891383920085E+01    6.2201981457032725E+00
Cs   -5.9870246146769155E+00   -1.2230387434090071E+01    7.2083046195024159E-01
Cs    5.6132183127791979E+00   -1.1160390564300172E+01   -1.1217695385924330E+01
Cs    1.0932795486134095E+01    6.1633342077976225E+00   -6.4207088654649276E+00
Cs    1.1642509177632128E+01    1.1791897364115577E+01    5.4268535648622729E+00
Cs    1.1316049819435683E+01    6.5409598862450533E+00   -1.2359467055097420E+01
Cs    7.6494777460920108E-02   -4.9070359212277594E+00   -1.1374778995501478E+01
Cs   -1.1609235119811766E+01   -2.5814503569848685E-01   -5.2099886402904287E+00
Cs    5.2406140455823769E+00   -5.3125722866715144E+00    1.1266622116437723E+01
Cs    1.1576276175965551E+01   -4.8934329514663304E+00    5.9154637623460582E+00
Cs   -1.1892233528952820E+01   -1.1292587646360410E+01    1.2105931485272466E+01
Cs   -2.7278635967963615E-03   -5.0457387585385827E-01   -1.0910597368454619E+01
Cs   -1.2387609482269697E+00    1.1823670254264576E+01    4.4241970696367252E+00
Cs   -1.0994452325238356E-01    5.2896463665295101E+00   -1.1552019393071616E+01
Cs    6.2031195581667111E+00    9.2646407763068295E-01   -6.6296555377215549E+00
Cs    6.5906867626559560E+00   -5.6306768964262526E+00   -5.7929800721857605E+00
Cs   -5.6705693238958910E+00   -1.1162227314437963E+01    5.9303552942231628E+00
Cs   -1.1546225010586253E+01   -1.0005202685626280E+00    6.0674085725371292E+00
Cs    5.4491179342690046E+00    1.4243840582384018E-01   -1.2700406869862869E+01
Cs    5.7044542814578980E+00    1.1576295049597707E+01   -1.1713805142224340E+01
Cs    3.8614928249105346E-01    6.0045534944874026E+00    1.1315459683864777E+01
Cs   -6.5001677996783016E+00    1.1319582394633429E+01    5.3876616212261572E+00
Cs    5.6825074091372452E+00    1.1559794975286307E+01   -6.4230098424342614E+00
Cs    5.7381713178846327E+00    6.1168902513700978E+00   -6.2981709183471279E+00
Cs    5.9977235651447103E+00   -1.4194513262609071E-01    3.6915692723143595E-01
Cs    5.9318047982631823E+00   -6.1133898783510432E+00   -2.1224123185459703E-01
Cs    6.3443314120792405E+00   -1.1687402131399033E+01   -4.7592826951411515E-01
Cs    5.8274455039067785E+00    5.2588543778617991E+00   -1.2004329769259542E+01
Cs   -6.1421027975392759E+00    5.9254333424020658E+00    6.4647578436021433E+00
Cs   -5.5498911266832121E+00   -7.2477894176759463E+00   -1.1371694316524181E+01
Cs    5.8845329254475951E+00    6.2584970126379940E+00    7.2316391404950622E-02
Cs    6.0518391215942016E+00    4.2745029738990509E-01    5.7281251951873609E+00
Cs    6.3665878634678963E+00   -4.7593995060046934E+00    6.2761239535627933E+00
Cs   -6.6147591760371274E+00    1.1502742796625538E+01   -5.7100584883067651E-01
Cs    1.1223568589056098E+01    1.3109919214931312E-02   -1.9144381256802531E-01
Cs   -5.5383305371614364E+00   -5.5876187336340866E-01    1.8528989178595215E-01
Cs   -1.1665804184823029E+01    4.9327697067845175E+00    6.1987646117147115E+00
Cs   -5.5011821643238337E+00    2.0316603600123675E-01    1.1302327510192672E+01
Cs    5.8491487797222197E+00    1.1677966648415756E+01    5.9233136037859735E+00
Cs    6.2121014280643481E+00    6.0328378240327858E+00    4.8705351529342078E+00
Cs    7.1472036747641239E+00    1.2785334657079734E+00    1.1554357028368846E+01
Cs    5.5838265787858443E+00    1.1453919498829265E+01    3.6194078020139520E-01
Cs    1.1079443757187160E+01    4.8294967776292452E-01   -5.6132954531665806E+00
Cs    1.1892269826405345E+01   -4.7060887364996180E+00   -5.7769167350544066E+00
Cs    6.5385886753884899E+00   -1.0464011175049169E+01    1.2138086489044561E+01
Cs    1.1338306420187044E+01    1.1327572088003382E+01   -8.4005431395997698E-01
Cs   -1.1382785106025104E+01   -2.2901887526293094E-01    1.0558733337020492E+01
Cs   -6.5086955228700996E+00    4.7521681877668067E+00   -1.2441610787030481E+01
Cs   -1.1409656858852575E+01    1.1475595563062283E+01   -1.4342946539316154E-01
Cs   -5.0151249693785624E+00   -5.3128603969125505E+00    1.1857436932428730E+01
Cs   -5.1745586773764494E+00   -1.1491469507895165E+01    1.1371577162063863E+01
Cs    5.7173521947796884E+00    6.6552543872605128E+00    1.0722265038774353E+01
Cs    1.1339996114232953E+01   -5.3591368396454948E+00    6.8701118789253487E-02
Cs   -1.1234878682440399E+01    3.7041244061245804E-01   -5.2368372318652501E-01
Cs   -6.2278125999621947E+00    1.1435818283048659E+01   -1.1216178815176425E+01
Cs   -1.1386491436871873E+01    5.4230158800138790E+00    1.2907502773240401E-01
Cs   -1.1146366047694166E+01   -1.2385900917139981E+01   -4.8964685768404301E+00
Cs   -1.1666709958239011E+01   -6.0387193629452813E+00    2.9861874921477782E-01
Cs   -6.1976631400030007E+00   -5.8030028441410764E+00    1.9026345519248192E-01
Cs   -1.1343089957743146E+01   -1.0921072110588360E+01    6.5422431373816883E+00
Cs    1.1586582621204652E+01   -5.4837246908982742E+00    1.1145516972331968E+01
Cs    1.1550366144648665E+01    6.3990925645649117E+00    5.1606007420559683E+00
Cs   -1.2097697548215196E+01    5.9923490643784572E+00   -6.1568432501615060E+00
Cs   -6.0452858066693533E+00    3.7788134059330639E-02   -5.5952904005462569E+00
Cs   -1.0591611171082349E+01   -1.1711193427818733E+01    7.2868517509946240E-01
Cs    1.2339123449745545E+01   -1.1532217730582946E+01   -1.1204853352683601E+01
Cs   -9.5187371788994337E+00   -1.2883207036062439E+01   -1.0225579786959347E+01
Cs   -5.3145768910861113E-01    1.0541490725727874E+01   -1.2040732272313736E+01
Cs   -3.1321066560665473E-01   -1.1955329824591743E+01   -1.0985808115172661E+01
Cs    2.3712965068699819E-02    1.1037870475779425E+01   -6.2649229576942593E+00
Cs   -7.6737420438129655E+00    1.2197113728538964E+01    1.0912505965276443E+01
Cs    8.4252759376978770E-01   -1.1616650032916871E+01   -1.3334693093031477E-01
Cs   -1.2862613549547047E+01    1.1740521064633673E+00   -1.1399272880913252E+01
Cs   -1.2037308132190583E+01    1.0542114319083593E+01    5.7057561195675124E+00
Cs    6.7135197659653674E+00   -1.1241664997925243E+01   -5.7951805813123434E+00
Cs    1.0791149912939130E+01   -5.3892921243165648E-01   -1.1971825048361008E+01
Cs    1.8241347417249609E-01    1.0663049724958380E+01    1.1861158218518019E+01
Pb    3.1360739121163350E+00   -2.8810861331857378E+00   -2.6387294854602703E+00
Pb    3.5646652078994698E+00   -8.6018121166084569E+00   -2.7123437012271117E+00
Pb   -8.8139301903850598E+00   -3.0223611173697287E+00    3.2324555407027975E+00
Pb   -2.5037201174618056E+00   -9.4299729898278191E+00   -2.4873822763065303E+00
Pb    2.8143695848160055E+00    8.8353317638645805E+00   -3.3413580027511989E+00
Pb    3.0835210805861690E+00    3.0134669288415776E+00   -3.2328758526812464E+00
Pb    3.1684384178280118E+00   -3.3469955461679484E+00    3.1967795979817808E+00
Pb    3.3454841946289466E+00   -9.2053601684421871E+00    3.2616621203199139E+00
Pb   -3.0358718997123453E+00    8.5418413664738324E+00    2.5886929571546515E+00
Pb    2.9556159830640745E+00    8.9276574799298487E+00    2.7261522585227951E+00
Pb    3.0235004559335739E+00    2.9145570476184521E+00    2.6356202937914808E+00
Pb    3.3867750183045540E+00   -2.8447055694830463E+00    8.9840600961999719E+00
Pb    3.1829653472955033E+00   -8.9552076974764603E+00    9.1390862036546476E+00
Pb   -2.9189823986908241E+00    2.6161994131705502E+00    2.8245130574515200E+00
Pb    2.9785158702476835E+00    8.9069146941981341E+00    8.8644499432121009E+00
Pb    2.9889424192459160E+00    3.0071832758294068E+00    8.3594038265187667E+00
Pb   -2.5919579403562083E+00   -3.0555851127918250E+00    8.8573796410638295E+00
Pb   -8.5927550514304336E+00   -9.0461146910172285E+00    3.4126671770683208E+00
Pb   -8.7399752373803636E+00    2.9577892989187111E+00   -2.9695181112497946E+00
Pb   -2.9919247723709286E+00   -3.3982171874650242E+00   -8.5022929738163970E+00
Pb   -2.9436019949194563E+00   -8.8621168029311370E+00    3.2765274567577740E+00
Pb   -3.3662501589886049E+00    9.0226178621907920E+00   -3.4843626885406254E+00
Pb   -2.7834905164711463E+00   -8.8677805000293723E+00    9.2953135136325553E+00
Pb   -8.9120010437057928E+00   -3.1145920309151167E+00   -2.6101097719958166E+00
Pb   -8.4558675740100249E+00   -8.7481651394358924E+00   -2.4225052608674162E+00
Pb   -2.8666034957018343E+00    2.8805880883785679E+00   -3.0352436632083521E+00
Pb   -8.4432141188283065E+00   -9.1768139051803050E+00    9.4140893127715302E+00
Pb   -8.7069225731674695E+00   -3.8090542288881322E+00   -8.6087646505730824E+00
Pb    8.9566226545565417E+00   -2.7087760360510234E+00   -8.8038975708170355E+00
Pb    9.2167312157913184E+00   -8.7363497040493669E+00   -8.8369591715110030E+00
Pb   -2.6836980952797997E+00   -9.0006010404466821E+00   -8.1744849565268698E+00
Pb   -9.3267368837318188E+00    8.5675178689863358E+00   -9.1499163459841171E+00
Pb    3.1999331849798121E+00   -2.9312285032860657E+00   -8.5988861541162631E+00
Pb    3.0680707492014387E+00   -8.9045101644011542E+00   -8.6254154700714576E+00
Pb   -3.4455217700272884E+00    2.4733403151375906E+00   -9.3133361046835574E+00
Pb    2.7600142240636711E+00    8.6477607110913475E+00   -9.2733070991114381E+00
Pb    2.7231622227874133E+00    2.6966586663150593E+00   -8.9235209358621663E+00
Pb    8.9216710070172862E+00   -2.6558912186104360E+00   -3.1316902456816220E+00
Pb    9.4904664464370754E+00   -8.6593799963651943E+00   -2.6630905563760714E+00
Pb   -8.5229970896576841E+00   -3.1906390371587330E+00    8.9893510682810174E+00
Pb    8.5026979729023839E+00    8.8239977426301408E+00   -9.3948766222575575E+00
Pb   -9.3136501231117421E+00    2.6175111143624474E+00   -9.0202502545231340E+00
Pb   -3.2637904496610672E+00    9.3172217334374672E+00    8.4544677499812764E+00
Pb    9.0097309496279419E+00    9.2655676653852517E+00   -3.4431475892493388E+00
Pb    8.6765432286714308E+00    3.0246258778934640E+00   -3.3448311774075346E+00
Pb    8.9202305504764645E+00   -2.6830791158264731E+00    2.9524932940646016E+00
Pb    9.3216524884964524E+00   -8.2752334000839571E+00    3.2457288481728943E+00
Pb    8.9320233284677943E+00    3.3017105882814031E+00   -9.1674012549782713E+00
Pb   -3.0908451215287291E+00    3.0157708285336731E+00    8.5685517929541994E+00
Pb    9.1305649644106239E+00    8.9102451737833075E+00    2.4003455927700554E+00
Pb    8.7596063870929619E+00    3.0559387771007058E+00    2.4165916692528646E+00
Pb    9.2280121691885224E+00   -2.0081122803228482E+00    8.7498718579636563E+00
Pb    8.8678995125314000E+00   -7.8889065870329871E+00    9.0701851489339873E+00
Pb    9.0020013291224732E+00    9.5247643220940894E+00    8.7469316574664369E+00
Pb    9.0930874162156048E+00    3.7290519246174352E+00    8.3899287964578768E+00
Pb   -8.7890655741384727E+00    2.8585502531726172E+00    8.9334306281136602E+00
Pb   -3.0180532362757075E+00   -3.0645664045526737E+00    3.0311589456683961E+00
Pb   -9.0552867203852081E+00    8.5644655066138160E+00    2.9529478643681855E+00
Pb   -9.2629395559021575E+00    8.9433869786250888E+00   -3.2973477114792060E+00
Pb   -8.9166424377771758E+00   -9.6209218258486704E+00   -8.1145977362699160E+00
Pb   -3.2194445492785659E+00    8.1433493494955123E+00   -9.2672326607007349E+00
Pb   -8.6844065527419847E+00    2.8322663488653288E+00    2.8533070717559577E+00
Pb   -8.9305844499825255E+00    8.7465396631115286E+00    8.7763662899338080E+00
Pb   -2.9079613959093829E+00   -2.9998460653235779E+00   -2.7168396719451215E+00
Br    4.5071158752241630E-02   -2.6069714631780005E+00   -2.1459811311360006E+00
Br    3.6442562691578084E+00   -2.9846469849772013E+00   -5.4676020751854093E+00
Br    2.7174585710956580E+00    4.1017039848883947E-02   -2.1489100744736866E+00
Br    2.4692654424537006E-01   -9.4225781462869271E+00   -2.6389525920932564E+00
Br    2.9809562505430196E+00   -8.6338435289876827E+00   -5.6769979589888244E+00
Br    2.8765617991911014E+00   -5.7801443369022998E+00   -2.9293707958116117E+00
Br   -2.8190961937174612E+00   -3.7078195207488469E+00   -5.6708121048745221E+00
Br   -8.6651836803976927E+00   -3.5408814562640978E+00    6.2198056785713067E+00
Br   -3.2396571870675830E+00   -1.8003493549746077E-01   -3.1844071172318373E+00
Br    3.8394034408348290E+00   -1.1316180403883868E+01   -2.8372589795506657E+00
Br    1.1740878757997953E+01   -2.2365551851134096E+00    2.6258344798687085E+00
Br   -5.8298188424700355E+00   -8.2354524127131601E+00   -2.1008899620475154E+00
Br   -1.1570191745501324E+01   -2.3975319247170388E+00    2.8414267118499685E+00
Br   -8.5508203559952332E+00   -3.3891632990181342E+00    2.8412895167965574E-01
Br    1.2071581820917796E+01   -8.4621329712112452E+00    2.8482855906092217E+00
Br   -6.4226352793192054E-01    9.5761362181990233E+00   -3.5311166429508711E+00
Br    2.5669788398508984E+00    8.7013673732971633E+00   -6.1534910365262672E+00
Br    3.0545395729119931E+00    1.1642467807362266E+01   -3.8925642584105438E+00
Br    1.6406421714568364E-02    2.6036665605924876E+00   -3.5744309603791735E+00
Br    2.8147626660513860E+00    2.7055383832218034E+00   -5.9603113513809651E+00
Br    2.8117477904021557E+00    5.9180154773298055E+00   -3.7768441347279209E+00
Br    2.6928829219745515E-01   -3.1508325420092591E+00    3.4411154424001471E+00
Br    2.9692698053125000E+00   -2.8190013538608105E+00    3.8631274578881403E-01
Br    2.4430475861386252E+00    9.5931065677133734E-02    2.7282210544545618E+00
Br    3.6023925018373405E-02   -8.7232254555204616E+00    3.4731973597678061E+00
Br    2.9734945223716047E+00   -8.8013080129012842E+00    7.0229579148842744E-02
Br    3.2875659707993941E+00   -6.2475307051905267E+00    3.3839268696136910E+00
Br   -6.1038077158556412E+00    8.0249400439582637E+00   -9.2458744157605395E+00
Br   -2.1340024527856403E+00    7.8976412834093566E+00   -1.2236088334638254E+01
Br    3.6396324914597149E+00   -1.1727219668600297E+01    1.8019064888442222E+00
Br   -3.5037628543003803E+00    1.1113703847436881E+01   -9.4840826118639932E+00
Br   -3.4835990866566897E+00    5.4586633170285648E+00   -9.3052804390933428E+00
Br   -8.5178995880499340E+00    4.2782697380619190E-02    3.6038264628599017E+00
Br   -3.0054174843449397E+00   -8.9475624360519976E+00   -5.3307009314116680E+00
Br   -5.8803774072494468E+00    7.7894002791340968E+00    2.4428767673631162E+00
Br   -3.2006148182370806E+00    8.8931600715608443E+00   -4.9750152554485150E-01
Br   -3.9169861104305976E+00    1.1263885085996538E+01    2.5552080478768717E+00
Br   -8.0193582368264359E-03    9.1550274504235762E+00    2.6921963117906107E+00
Br    2.7442650800963553E+00    7.9983186033261395E+00   -3.2639611555824233E-01
Br    2.9723065017096579E+00    1.1781427833727642E+01    2.0668182937871817E+00
Br   -3.6878059989892659E-02    2.9148560057501136E+00    2.6848813024574114E+00
Br    3.0004008622060483E+00    3.3252998330171426E+00   -4.4635250394569237E-01
Br    3.2534198027395220E+00    6.0006045506711452E+00    2.8045431957242015E+00
Br    1.4581851101795695E-01   -2.8046570634761161E+00    8.4632163180624627E+00
Br    3.8862505347896099E+00   -2.6169064207779424E+00    6.0930058443112740E+00
Br    2.7595265434663356E+00    6.4987664735607659E-02    8.8957174548019768E+00
Br    1.6930660226004163E-01   -8.9862183071092705E+00    9.1832351515364650E+00
Br    3.5107014441651523E+00   -9.3258373090311135E+00    6.1863096417024765E+00
Br    3.1457596170514277E+00   -5.8240761550462299E+00    8.6947520704620285E+00
Br   -1.1553513711906191E+01    2.6779353815988238E+00    3.0241004574359627E+00
Br   -9.0835389685301671E+00    3.0063981209196275E+00   -1.6475270394257177E-01
Br    4.3110204126071618E+00   -1.1522889788164154E+01    9.1019951709442140E+00
Br   -8.9587815772755643E+00    5.7292705644907320E+00    2.8908600842296579E+00
Br   -8.7910420003470033E+00   -1.0770799939871968E-01    8.6605291927809098E+00
Br   -2.5699652210112820E+00   -5.9391559475742213E+00   -2.1346218739630887E+00
Br   -5.6452613236759959E+00    2.4545659853878288E+00    2.6893477559005947E+00
Br   -2.6601924312228866E+00    2.9438469362512159E+00   -4.4528069913453497E-02
Br   -2.2352707816177957E+00    5.9679424970186234E+00    2.9047699672863145E+00
Br   -2.3273863032339856E-01    9.0768726247582041E+00    8.6043435299544928E+00
Br    3.1197199606847663E+00    9.4158150735706432E+00    6.0694389536632194E+00
Br    2.5472802183388694E+00    1.1818381331215539E+01    9.1836998225033408E+00
Br   -3.3512383477215232E-02    3.0001174936477684E+00    8.1315046824118298E+00
Br    3.0919297389285934E+00    2.2419170351970261E+00    5.7444996955857226E+00
Br    2.8490405942753383E+00    6.0503944997289771E+00    8.0321876193607764E+00
Br   -5.7924791127244371E+00   -2.6759510298498199E+00    9.8321169145514382E+00
Br    2.3725102033732801E+00   -3.2798517900002833E+00    1.1621910960313391E+01
Br   -2.7656707392415827E+00   -3.0348294765053252E+00    5.8996172558814539E+00
Br   -2.9319696733070177E+00   -8.6936523667705393E-02    9.0206444763188429E+00
Br   -2.7074294057623924E+00   -1.2293456568312996E+01   -3.1421978627758484E+00
Br    3.6431119192616794E+00   -8.1668802141756913E+00    1.1908831933181650E+01
Br   -1.1609958135793212E+01    2.7176859595911851E+00   -3.1368631832107687E+00
Br   -2.8251110639295067E+00   -1.1925780449195912E+01    3.7297458125018439E+00
Br   -1.1629424668789483E+01   -2.9024327039194042E+00   -2.9470388712071816E+00
Br    2.8206588069563616E+00    8.4495704773953513E+00    1.1716326615328466E+01
Br   -8.4772863065913953E+00   -3.6510467016888999E+00   -5.6112290748729787E+00
Br   -8.3136232875172613E+00   -1.7844869944763242E-01   -2.5720426113995507E+00
Br    2.7580963241109662E+00    3.3074852365789971E+00    1.1461948638639923E+01
Br   -6.3027096429590737E+00    8.7960619103041271E+00   -3.0958106418674687E+00
Br   -3.4667415995729924E+00    8.4563175600766947E+00   -6.2594233788703395E+00
Br   -3.8188409524287534E+00    1.2188966060004049E+01   -3.4376222671038481E+00
Br   -5.8691638015147216E+00    3.2805767309656924E+00   -2.4641448157193699E+00
Br   -1.1169053704215679E+01   -8.7592710009935058E+00    4.0044173806934635E+00
Br   -3.3532783564627135E+00    2.4725533858745576E+00   -5.9243287570621090E+00
Br   -5.8240952021697465E+00   -4.0724560972952890E+00   -8.7000436712283236E+00
Br   -2.1420988419944886E+00   -2.7448804763060859E+00   -1.1255225213943849E+01
Br   -3.4100600681678253E+00   -3.5504721530269079E-01   -8.2861881895058147E+00
Br   -2.5705455744675278E+00    3.6000829458594148E+00    1.1579908400024172E+01
Br   -5.5612084458187869E+00   -9.0850623086943845E+00    9.3797657121011966E+00
Br   -3.2247559426445878E+00   -8.9334833382731063E+00    6.1980913773983364E+00
Br   -2.4709872573857834E+00   -5.8460109667331857E+00    8.6827897995045848E+00
Br   -8.8956314878752103E+00   -8.9736417420565591E+00    5.9261324884713806E-01
Br   -9.0039503364143414E+00   -6.0263808461072346E+00    2.9002106978212119E+00
Br   -8.1379813723359558E+00    8.7861891214312564E+00    1.1538221497255838E+01
Br    1.1706931884048787E+01    9.0591216210143166E+00    1.7013892685413055E+00
Br   -8.5728879664896276E+00   -9.6291392367329163E+00    1.2291046511840317E+01
Br    1.1420097113992211E+01    8.5441897932222091E+00   -2.7657686048531573E+00
Br    1.1752544283530135E+01    3.1105435133997754E+00    1.6084919297262268E+00
Br   -8.7853885973065822E+00    2.3316676891100960E+00    1.1842407449390539E+01
Br   -1.1408715714381854E+01   -3.8488343898362238E+00   -7.7824538799906779E+00
Br    1.2130503895093149E+01   -2.8586135881262686E+00    8.2700245417104075E+00
Br   -5.8953045267044466E+00   -8.6734183457301857E+00    3.4325713757121306E+00
Br    5.9586486058216446E+00   -2.5220700031126282E+00   -8.8616101558703928E+00
Br    7.8677982017989754E+00   -2.0842786169558605E+00   -1.1771398939042415E+01
Br    1.1904214319843266E+01   -7.4638907961816345E+00    8.5880085840023686E+00
Br    9.2789342526094600E+00    4.7222293336374233E-01   -8.5879724316856905E+00
Br   -8.6981977711617748E+00   -1.2110040741356753E+01    9.5959968013597923E+00
Br   -3.0667610149476308E+00   -9.3547877976785649E+00    3.6198033498905779E-01
Br   -2.5947998903016658E+00   -5.9736229129924698E+00    3.5796989625735494E+00
Br    6.0475363679831489E+00   -8.2183439716016125E+00   -8.3135203271699467E+00
Br   -5.5108032292596132E+00   -8.2765622301769604E+00   -8.3475817619946326E+00
Br    8.2253932085621102E+00   -8.9389645085259968E+00   -1.1957665650952007E+01
Br    9.1033754725323170E+00   -5.7831179772590238E+00   -8.2866304654834213E+00
Br   -2.8700317354102389E+00   -1.1676132111019733E+01    8.9839836351927271E+00