 # Version information for this restart file 
 # current date 2021-06-17 12:44:36.595
 # current working dir /user/ub2042/exercises/2_fitting/MM_MD_workdir/md_settings.005
 # Program compiled at                              Thu Apr 22 21:44:59 EDT 2021
 # Program compiled on                cpn-k07-07-02.compute.cbls.ccr.buffalo.edu
 # Program compiled for                                                    local
 # Source code revision number                                       git:36754bb
 &GLOBAL
   PRINT_LEVEL  LOW
   PROJECT_NAME cp2k
   RUN_TYPE  MD
 &END GLOBAL
 &MOTION
   &MD
     ENSEMBLE  NVT
     STEPS  10000
     TIMESTEP     2.4999999999999996E+00
     STEP_START_VAL  1000
     TIME_START_VAL     2.5000000000000191E+03
     ECONS_START_VAL    -1.5890036444644286E+01
     TEMPERATURE     3.0000000000000000E+02
     &BAROSTAT
       PRESSURE     1.0100000000000000E+00
       TIMECON     9.9999999999999982E+03
     &END BAROSTAT
     &THERMOSTAT
       TYPE  CSVR
       &CSVR
         TIMECON     9.9999999999999982E+03
         &THERMOSTAT_ENERGY
              -1.8316325160729507E-02
         &END THERMOSTAT_ENERGY
         &RNG_INIT
Wiener process for Thermostat # 1        1 F T F   1.0152681475302341E+00        4151329329.0        2923023059.0        3467513410.0         632595511.0         113404566.0        2008274716.0             12345.0             12345.0             12345.0             12345.0             12345.0             12345.0             12345.0             12345.0             12345.0             12345.0             12345.0             12345.0
         &END RNG_INIT
       &END CSVR
     &END THERMOSTAT
     &AVERAGES  T
       &RESTART_AVERAGES
         ITIMES_START  1
         AVECPU     1.7477638914016984E-02
         AVEHUGONIOT     0.0000000000000000E+00
         AVETEMP_BARO     0.0000000000000000E+00
         AVEPOT    -1.6365411325942102E+01
         AVEKIN     4.7949139277224867E-01
         AVETEMP     2.4323088469903431E+02
         AVEKIN_QM     0.0000000000000000E+00
         AVETEMP_QM     0.0000000000000000E+00
         AVEVOL     6.7483345830898909E+06
         AVECELL_A     1.8897261328856308E+02
         AVECELL_B     1.8897261328856308E+02
         AVECELL_C     1.8897261328856308E+02
         AVEALPHA     9.0000000000000000E+01
         AVEBETA     9.0000000000000000E+01
         AVEGAMMA     9.0000000000000000E+01
         AVE_ECONS    -3.9343891055236075E+00
         AVE_PRESS     0.0000000000000000E+00
         AVE_PXX     0.0000000000000000E+00
       &END RESTART_AVERAGES
     &END AVERAGES
     &PRINT
       &ENERGY  SILENT
         &EACH
           MD  10
         &END EACH
       &END ENERGY
     &END PRINT
   &END MD
   &PRINT
     &TRAJECTORY  SILENT
       &EACH
         MD  10
       &END EACH
     &END TRAJECTORY
     &CELL  SILENT
       &EACH
         MD  10
       &END EACH
     &END CELL
     &VELOCITIES  SILENT
       &EACH
         MD  10
       &END EACH
     &END VELOCITIES
     &FORCES  SILENT
       &EACH
         MD  10
       &END EACH
     &END FORCES
     &RESTART  SILENT
       &EACH
         MD  10
       &END EACH
     &END RESTART
   &END PRINT
 &END MOTION
 &FORCE_EVAL
   METHOD  FIST
   &MM
     &FORCEFIELD
       VDW_SCALE14     1.0000000000000000E+00
       EI_SCALE14     1.0000000000000000E+00
       SHIFT_CUTOFF  T
       DO_NONBONDED  T
       IGNORE_MISSING_CRITICAL_PARAMS  T
       &SPLINE
         R0_NB     2.5000000000000000E-01
       &END SPLINE
       &NONBONDED
         &LENNARD-JONES
           ATOMS Br Br
           EPSILON     1.2630795322675199E+02
           SIGMA     3.6900000000000004E+00
         &END LENNARD-JONES
         &LENNARD-JONES
           ATOMS Cs Pb
           EPSILON     8.6920055954630968E+01
           SIGMA     3.6699999999999999E+00
         &END LENNARD-JONES
         &LENNARD-JONES
           ATOMS Cs Cs
           EPSILON     2.2644852172126850E+01
           SIGMA     4.3300000000000001E+00
         &END LENNARD-JONES
         &LENNARD-JONES
           ATOMS Pb Pb
           EPSILON     3.3363415533600227E+02
           SIGMA     5.9000000000000004E+00
         &END LENNARD-JONES
         &LENNARD-JONES
           ATOMS Br Cs
           EPSILON     5.3481070753900497E+01
           SIGMA     3.6300000000000003E+00
         &END LENNARD-JONES
         &LENNARD-JONES
           ATOMS Br Pb
           EPSILON     2.0528187276773045E+02
           SIGMA     2.9800000000000000E+00
         &END LENNARD-JONES
       &END NONBONDED
       &CHARGE
         ATOM Cs
         CHARGE     4.4453099999999995E-01
       &END CHARGE
       &CHARGE
         ATOM Pb
         CHARGE     8.8906199999999991E-01
       &END CHARGE
       &CHARGE
         ATOM Br
         CHARGE    -4.4453099999999995E-01
       &END CHARGE
     &END FORCEFIELD
     &POISSON
       PERIODIC  XYZ
       &EWALD
         EWALD_TYPE  SPME
         GMAX  62 62 62
         O_SPLINE  4
       &END EWALD
     &END POISSON
     &PRINT
       &FF_INFO  LOW
         SPLINE_INFO  F
         SPLINE_DATA  F
       &END FF_INFO
     &END PRINT
   &END MM
   &SUBSYS
     &CELL
       A     1.0000000000000001E+02    0.0000000000000000E+00    0.0000000000000000E+00
       B     0.0000000000000000E+00    1.0000000000000001E+02    0.0000000000000000E+00
       C     0.0000000000000000E+00    0.0000000000000000E+00    1.0000000000000001E+02
       PERIODIC  XYZ
       MULTIPLE_UNIT_CELL  1 1 1
     &END CELL
     &COORD
Cs    5.1418368276296489E-01   -4.5017453479440472E-01   -5.3350156139070943E+00
Cs   -1.2517670453283861E-01   -5.6306022219702596E+00   -5.4143243944896149E+00
Cs    2.8760238546501110E-01   -1.1698153026908312E+01   -5.4502802351172175E+00
Cs   -6.0135937097163135E+00   -5.7002776443892005E+00   -6.6722675799640845E+00
Br   -8.5799622046417898E+00   -1.2113096269194836E+01   -7.4256298994934671E+00
Br    1.1567731887541136E+01   -2.7029508521506393E+00   -8.6981115885183300E+00
Br   -2.9362116257461257E+00    1.9097759390167226E+00   -1.1844546154000835E+01
Cs   -1.2313598615124541E-01    5.5637208133454736E+00   -5.7532205978013318E+00
Cs    2.0801117597710003E-01    1.4846923165571685E-01    1.5782519786312649E-01
Cs    2.2268659818869002E-01   -5.7552974700134749E+00    2.8819311469742770E-01
Br   -6.4441473677408698E+00   -3.2562107242979450E+00    2.7405858833517476E+00
Cs   -1.0232069714685805E+01   -5.8587196094534084E+00    1.2247524030210093E+01
Cs    1.1148486749535392E+01   -1.1944882045446219E+01    3.3455314924679586E-01
Cs   -5.6535582363054706E+00    5.3748567839059715E+00    6.1248521204428086E-02
Cs    4.9468858182030451E-01    1.1312441250664286E+01   -6.2794550617551625E-01
Cs   -2.6961032487215192E-01    5.4312265366120744E+00    2.5330551532760148E-02
Cs    7.0545945885073902E-01    1.6788132846751968E-02    6.0436523492288057E+00
Cs    9.6834102946390402E-02   -5.5791910754271550E+00    5.8505233446196980E+00
Cs    3.5610557073512605E-01   -1.1087727213985650E+01    6.0453452198764124E+00
Cs   -5.7466297065866678E+00    6.4770176004122222E+00    1.1687598383917127E+01
Cs   -4.9651572389260714E+00   -8.7171140461464702E-01   -1.1595092571597792E+01
Cs   -5.5274654447811624E+00   -1.1200575949762406E+01   -6.0283662683480692E+00
Cs   -5.0336147349755009E+00    5.1086382959893151E-01    5.9605779162959651E+00
Br   -3.4273870413150762E+00   -2.5736657406071530E+00   -2.7960134658923175E-01
Cs   -3.6771110338210927E-01    6.1214317178412481E+00    5.7892383214670051E+00
Br    1.1825506082055568E+01   -8.9800433570848295E+00   -8.4796677606763193E+00
Cs    1.6374116963974814E-01   -5.7253511297635757E+00    1.1428139013674858E+01
Br   -2.6559769274637923E+00    2.5109061059680354E-01    2.9317952237927516E+00
Br   -8.2346314825450460E+00   -3.0487675687039153E+00    1.2020342567134904E+01
Cs    1.0361452512293729E+01    1.2493556737923484E+01   -6.4308442304433200E+00
Cs   -1.0444190077932275E+01   -6.0076072921549519E+00    6.0443253410055311E+00
Cs   -5.5015775066982693E+00   -5.7006363019857389E+00    6.2517658967044722E+00
Cs   -6.5870546066667961E+00    1.0948806131855783E+01   -6.3019132176700561E+00
Br   -1.1192302298381922E+01   -9.0786130359412418E+00    9.1461247473979324E+00
Br   -8.9412158473695325E+00   -9.0689190866174485E+00    5.4833449276772166E+00
Cs   -1.1437246954449186E+01   -6.5304414029374680E+00   -5.4317712055384488E+00
Cs   -6.9528914968362967E+00    5.6858361780973405E+00   -6.4860753994056433E+00
Br   -8.1881467212878540E+00   -6.1071350368786526E+00    9.0249984865019623E+00
Cs    1.1046535117155965E+01    6.1649675070866339E+00    1.2038352957245078E+01
Br   -1.1499650630521181E+01    9.1785776479173187E+00    7.8794569313282112E+00
Br   -5.9590229822642025E+00   -3.5316771689820987E+00   -3.3707945204764895E+00
Cs    4.6804752375405195E-01    9.2328942717117590E-01    1.1853485393883753E+01
Cs    1.1505393685242709E+01    5.4962363378830759E+00   -7.3420260333656960E-04
Cs   -1.1228197908517524E+01   -6.2445875265604389E+00   -1.1009767183667792E+01
Cs    1.2044720313844820E+01    4.1685856977344093E-01    5.6527720644317121E+00
Cs   -1.1402498071173532E+01    1.0650770174651971E+01   -6.1487508285752055E+00
Cs    1.1404811507677598E+01   -1.1288244620525738E+01    6.8086836004474591E+00
Cs    5.1025521079199088E+00   -6.0935210517036120E+00   -1.1941272094396961E+01
Cs    5.8358082340247721E+00   -1.1361558057102979E+01    5.9504597246186997E+00
Cs   -5.7504956613998459E+00   -1.1852528706798925E+01   -2.0491370089720173E-01
Cs    6.2054629350964499E+00   -1.1503748497481734E+01   -1.1399229966659798E+01
Cs    1.1579885334770461E+01    6.2215199627550106E+00   -5.8419277964585348E+00
Cs    1.1637029331986740E+01    1.1720035840153360E+01    5.9340906616315303E+00
Cs    1.1191541567120940E+01    5.4535734013628501E+00   -1.1745448205136208E+01
Cs    1.0703392617322932E-01   -6.2211200687062949E+00   -1.0868592587084638E+01
Cs   -1.2216438587566490E+01   -1.7399875122249162E+00   -6.3443877905013828E+00
Cs    6.2332241664211514E+00   -5.4667120180588498E+00    1.1413975458665089E+01
Cs    1.1792378774103389E+01   -5.9247364898134718E+00    6.5843401352691897E+00
Cs   -1.0959418387949798E+01   -1.1450922031546593E+01    1.1758321739851688E+01
Cs    2.2115229914848919E-02    1.0358628123242719E-01   -1.1118536675706000E+01
Cs    1.5932793945389823E-01    1.2671257952400076E+01    6.6336604376741608E+00
Cs    2.3269117031177206E-02    5.8067632093176371E+00   -1.1299721207233286E+01
Cs    6.2789764724855264E+00   -2.5235907375855282E-01   -5.8634479922463187E+00
Cs    5.5470435400283904E+00   -6.2681256341613150E+00   -6.2061390492285540E+00
Cs   -5.2149829537493684E+00   -1.1910481340136727E+01    6.4223693597218663E+00
Cs   -1.1202160479068439E+01   -2.5808817475394491E-01    6.4048919976798757E+00
Cs    6.1769111213167118E+00   -1.3368289905710382E-01   -1.1436832580729906E+01
Cs    5.5772835285004509E+00    1.1070896364191915E+01   -1.1516707619699392E+01
Cs    3.0035830574169320E-01    6.5029883574955178E+00    1.1345323929069719E+01
Cs   -5.3676075457452121E+00    1.1613791514545422E+01    5.9945991676819075E+00
Cs    5.2552183357129971E+00    1.0911350476498223E+01   -5.5080680188984585E+00
Cs    5.8959478223265025E+00    5.3478701085709961E+00   -6.2106384078538666E+00
Cs    6.3358464305445024E+00    1.8401534827085647E-02   -5.5255305847097791E-01
Cs    6.0208185837905299E+00   -5.4650027655915885E+00   -1.7787407706512018E-01
Cs    6.0808705407096619E+00   -1.1036908775064777E+01    1.6329841626145652E-01
Cs    5.7711174855530176E+00    5.8519592003025442E+00   -1.1763547503770042E+01
Cs   -6.3215935292216967E+00    6.3551780673446663E+00    5.8134700510493822E+00
Cs   -5.6045195406917196E+00   -6.9118647641325008E+00   -1.2414516902611403E+01
Cs    5.7734386445705148E+00    6.5731618098849260E+00    2.4839518813646908E-01
Cs    6.4745812209864511E+00    2.2022164113408033E-01    6.1560787316478800E+00
Cs    6.1922163997666715E+00   -5.4300330183916223E+00    5.7058534435616739E+00
Cs   -6.2500185034851645E+00    1.0960327074425502E+01   -8.1115375707106685E-01
Cs    1.1360562832087405E+01    2.3804935818526191E-01    5.4652886223418773E-01
Cs   -6.1690127807693420E+00    4.2144183501396391E-02   -3.0374805467145174E-02
Cs   -1.1735893049554891E+01    6.1751848102720945E+00    5.8504442159679133E+00
Cs   -4.9787127342306698E+00   -2.1515716903619037E-01    1.1864358662815050E+01
Cs    5.4616778922974172E+00    1.2428806264781867E+01    6.6690143937459574E+00
Cs    5.9154964723336381E+00    6.0383822642503642E+00    5.9534138127136629E+00
Cs    6.5124359841291746E+00    6.9188411796077087E-01    1.1233086120301241E+01
Cs    5.8261848400478602E+00    1.1334454839410675E+01   -5.6335237636738603E-02
Cs    1.1329311366950032E+01   -1.0006648003382959E+00   -6.1929299336551562E+00
Cs    1.2099023642649945E+01   -6.4871353157848590E+00   -6.3503454546778144E+00
Cs    5.9534992568593728E+00   -1.1178124072742275E+01    1.1045546298207720E+01
Cs    1.1884660728595993E+01    1.0988932029535327E+01   -1.8496935034624645E-01
Cs   -9.9552079754186220E+00   -1.0028366928842082E-01    1.2360289230627924E+01
Cs   -6.2936676485082126E+00    5.1774738594839720E+00   -1.1475357879968859E+01
Cs   -1.1559758399019861E+01    1.1220881806384815E+01   -4.6583029402318088E-01
Cs   -5.5657929301263005E+00   -5.4496514581541851E+00    1.1162721426442847E+01
Cs   -5.2888773766121222E+00   -1.1115306231825564E+01    1.1635978243106218E+01
Cs    6.2207470784141821E+00    7.2113915038671665E+00    1.1310831025384097E+01
Cs    1.1101709391252459E+01   -5.8968450980054410E+00   -1.0385367749910575E+00
Cs   -1.1610654119207817E+01   -6.2744481056860069E-01   -1.9511020141497046E-01
Cs   -6.3964918466509957E+00    1.1207879770296993E+01   -1.1616429272896292E+01
Cs   -1.1345509697815018E+01    5.3065845747615086E+00    3.7910792856220010E-01
Cs   -1.1578398864780645E+01   -1.1361092925101167E+01   -6.1613091566838545E+00
Cs   -1.1711614662190497E+01   -5.8472154816788509E+00    7.2392823605211198E-01
Cs   -5.5937361054845640E+00   -6.0318870855765052E+00   -4.7088656536614820E-01
Cs   -1.1446027197213315E+01   -1.1478734116285244E+01    6.8662813270555789E+00
Cs    1.1525702087116946E+01   -6.1389465003079984E+00    1.1926994733450037E+01
Cs    1.0956042327845701E+01    6.1366579405293162E+00    5.4678790324028412E+00
Cs   -1.1491240469654485E+01    4.4765531693935712E+00   -5.6639677635268058E+00
Cs   -6.0919343510380184E+00   -8.7076955436983280E-02   -5.7157830877594584E+00
Cs   -1.0745202299922820E+01   -1.1858759873704100E+01   -3.3902133439019139E-01
Cs    1.2298284279823077E+01   -1.1708666080714611E+01   -1.0321663183952801E+01
Cs   -1.0894553559950632E+01   -1.1569768832376329E+01   -1.2842538317334487E+01
Cs   -3.8853914253549882E-01    1.1229975990787455E+01   -1.1103657549452707E+01
Cs    1.4583254230934437E-01   -1.1033953584534448E+01   -1.0760527214055362E+01
Cs   -7.1415901898568790E-01    1.0860743344487936E+01   -5.8397718095068294E+00
Cs   -1.1678959259767128E+01    1.0892395589326586E+01    1.0893519529266943E+01
Cs    8.0110515364260337E-01   -1.1383565331870878E+01    4.7281834815760793E-01
Cs   -1.2173882968667993E+01    3.8617176620212879E-01   -1.1285342184794063E+01
Cs   -1.0674698989275415E+01    1.1919520203582817E+01    5.4106684532924625E+00
Cs    6.0660393868007842E+00   -1.2356333831885930E+01   -4.7641360279249909E+00
Cs    1.1443896663538506E+01   -1.0815211256860242E+00   -1.1712040705923537E+01
Cs    7.8988543475873119E-01    1.1458267983226682E+01    1.1898495907104067E+01
Pb    3.0075119133555042E+00   -2.8311040999813435E+00   -2.9666823540642144E+00
Pb    3.1587432880358013E+00   -8.5759443437884126E+00   -2.6892393922061606E+00
Pb   -9.2102703563300121E+00   -2.9636042478139011E+00    2.7096220502302835E+00
Pb   -2.6850444913965235E+00   -9.0626530351051304E+00   -3.0446561943757069E+00
Pb    2.6870414539501009E+00    8.7490392106423300E+00   -2.8569147721213910E+00
Pb    3.1192187873311066E+00    3.0324878054407751E+00   -3.3784710207602298E+00
Pb    3.3985805571068894E+00   -2.4862634808679340E+00    2.9251086054437776E+00
Pb    3.2369813187068743E+00   -8.4295195236873237E+00    2.9582756910498769E+00
Pb   -2.9506322474853919E+00    9.3486276053185957E+00    3.0058170771433415E+00
Pb    2.9553253383678260E+00    8.9829504985864528E+00    3.0853905725664537E+00
Pb    3.1239099951789608E+00    3.2210390399033404E+00    2.8356418187436994E+00
Pb    3.0785304108839031E+00   -2.6304406307925219E+00    9.0070936959406716E+00
Pb    3.0628191597085537E+00   -8.5068079054939343E+00    8.9515467029789750E+00
Pb   -2.9346255992921622E+00    2.9252770824750591E+00    3.1568443325863034E+00
Pb    3.1371541182857396E+00    9.3582120837625844E+00    8.8300846525804566E+00
Pb    2.9821979241004053E+00    3.1205308639655138E+00    8.9135633051034304E+00
Pb   -2.7685347849672106E+00   -2.6554929991095584E+00    8.5855335080919417E+00
Pb   -8.2508934429886711E+00   -8.7595558219078651E+00    2.7310180425171104E+00
Pb   -8.7114320535281990E+00    2.7134873345591224E+00   -2.9567944001605726E+00
Pb   -2.8579748137355812E+00   -3.0929449590904787E+00   -9.1248538910519876E+00
Pb   -2.4613353465062029E+00   -8.9664646955113003E+00    3.2093148513999377E+00
Pb   -3.1487861361046976E+00    8.4925909020782555E+00   -3.0311663771213468E+00
Pb   -2.7056865322213088E+00   -8.4437654758802800E+00    8.8766114517034520E+00
Pb   -9.0389290421809907E+00   -3.3465131761923579E+00   -3.0046987177239957E+00
Pb   -8.5101552346085647E+00   -8.9371857831340851E+00   -3.0338088122988931E+00
Pb   -2.9646581117860662E+00    2.7546612467670681E+00   -2.7289755835302638E+00
Pb   -8.4455222421854703E+00   -8.8318220767412630E+00    8.6802922059138474E+00
Pb   -9.0248197048727778E+00   -3.2815158541757645E+00   -9.4231493759101141E+00
Pb    8.8400587208247021E+00   -3.0609812490844672E+00   -9.1779880114624071E+00
Pb    8.8637365362426603E+00   -8.9707888563231002E+00   -9.2295766494400375E+00
Pb   -2.7162898596759888E+00   -8.8520610447754180E+00   -8.6279101226503094E+00
Pb   -8.9052924618937936E+00    8.5299291886910069E+00   -9.1675909187251712E+00
Pb    2.8349149547965293E+00   -2.9469966030249757E+00   -8.8449564983490543E+00
Pb    3.0696084145794154E+00   -8.5032929733165741E+00   -8.5871125823857639E+00
Pb   -3.0646586109748184E+00    2.7535279422772168E+00   -9.1132836060965854E+00
Pb    2.7197428942652109E+00    8.8141101680133769E+00   -8.6554053340128512E+00
Pb    2.8135582162838126E+00    2.9237396485132856E+00   -9.3047648660529134E+00
Pb    8.9256832443196163E+00   -3.0136022234689581E+00   -3.1890733839252059E+00
Pb    9.0165459229009706E+00   -8.9553468083668619E+00   -3.0216777571789182E+00
Pb   -8.5843700639361185E+00   -3.0611170723041434E+00    9.1788050673505452E+00
Pb    9.2524086391776503E+00    8.7677155303815226E+00   -9.1668044651296832E+00
Pb   -9.0357717493680241E+00    2.4357308286394774E+00   -8.8663146184907244E+00
Pb   -2.9763002621670216E+00    9.3075024122175307E+00    9.1313239482845496E+00
Pb    8.6703168489365705E+00    8.8887287893385754E+00   -3.2988784588218798E+00
Pb    9.0048508087941102E+00    3.0518376052929175E+00   -3.0140835466625830E+00
Pb    9.1609727993239662E+00   -2.6851226471865379E+00    2.8076589791669613E+00
Pb    9.0553238818368236E+00   -8.4830979091404952E+00    3.0785584338514642E+00
Pb    9.0567708886315970E+00    3.0095583965138850E+00   -9.0484886930288049E+00
Pb   -3.0215985377341705E+00    3.3773633882050489E+00    9.0872526802965865E+00
Pb    8.7964749321510158E+00    9.3592894232296988E+00    2.6874393394566272E+00
Pb    8.8807839015194663E+00    3.2069920782583843E+00    3.0073977393458642E+00
Pb    9.0602284368070904E+00   -2.8065736894557651E+00    8.7291871688963756E+00
Pb    8.9166165308532612E+00   -8.7210166298043497E+00    8.7428194144189550E+00
Pb    8.9287218211927701E+00    9.2117511626936892E+00    8.7446277488119151E+00
Pb    9.1684460908156140E+00    3.2231983328292784E+00    8.7665089057199523E+00
Pb   -8.7966451514517239E+00    3.1089791041573451E+00    9.2863858498683527E+00
Pb   -2.7703472864172496E+00   -2.8123182407668228E+00    2.6946693424356836E+00
Pb   -8.8700232156757934E+00    9.2425287448831579E+00    2.5759118453975089E+00
Pb   -8.9297288185567893E+00    8.4464632161698781E+00   -3.1303965859862943E+00
Pb   -8.4100900630529374E+00   -9.7560741335272798E+00   -8.9460937236233615E+00
Pb   -3.2463015699970397E+00    8.4216998593685179E+00   -8.8644990141288869E+00
Pb   -8.9934339996891897E+00    2.9150152728346357E+00    3.0128941398895090E+00
Pb   -8.7052256194271127E+00    8.9469835526733679E+00    8.6061570917951205E+00
Pb   -3.0016791127772744E+00   -3.3869112399338510E+00   -3.0117955904193319E+00
Br    5.8008705402570492E-02   -3.0345101459913120E+00   -2.7100972445755693E+00
Br    3.1414166944943744E+00   -2.7713784171908129E+00   -6.0632506149233336E+00
Br    3.2526853624934460E+00    2.1230508731508290E-02   -3.2356054161024086E+00
Br    1.2867740584846432E-01   -9.1302583932876615E+00   -2.5647481461722306E+00
Br    2.8602973742759747E+00   -8.6681356914576586E+00   -5.7602493403361610E+00
Br    2.7244981199969391E+00   -5.8151282090291971E+00   -3.0787795255975916E+00
Br   -2.6614927112876763E+00   -3.2842499271831498E+00   -5.7771016665236328E+00
Br   -8.4807259835481794E+00   -3.0930096382975072E+00    6.0315836396563620E+00
Br   -3.0300015409753613E+00   -2.4656953470408424E-01   -2.9554496173207911E+00
Br    3.0317090166722718E+00   -1.1728085574305315E+01   -2.9986937429985687E+00
Br    1.2022821753559191E+01   -2.2643334104370765E+00    2.9195493102086854E+00
Br   -5.5807097007504032E+00   -8.5249462199486299E+00   -2.8145658089906473E+00
Br   -1.1830873873808263E+01   -3.5794285134167958E+00    3.7229019644335977E+00
Br   -9.7054990890721378E+00   -3.3133345945179169E+00   -6.8992955488958230E-02
Br    1.1783763794933471E+01   -9.2321512233981071E+00    3.1399801054923828E+00
Br   -4.4176491511219156E-02    8.8586284830712057E+00   -3.0011820251564805E+00
Br    2.1252893718294041E+00    9.4754103078501348E+00   -6.0295836630984656E+00
Br    3.0912792142084826E+00    1.1743683992958463E+01   -2.5442520024668682E+00
Br   -8.7683945725843399E-02    2.6735009976982660E+00   -2.7728471368599141E+00
Br    2.7206602578617431E+00    3.0198103326676531E+00   -6.2779678772218004E+00
Br    3.2684321687908509E+00    6.1055928176382874E+00   -3.5566406046814909E+00
Br    1.8649153427815740E-01   -2.6853954118025758E+00    2.5071322199372124E+00
Br    3.3330145031372695E+00   -2.9489190013969075E+00    7.1997230973376000E-02
Br    3.3977830763996546E+00    3.5052567707173676E-01    2.5895118458349637E+00
Br    4.0400112609348515E-01   -9.0037698853041839E+00    3.4264138213741639E+00
Br    3.0236635717911122E+00   -8.5317639996467189E+00    6.0666703687170247E-02
Br    3.2260204341479248E+00   -5.5590841783660263E+00    2.7985270217945208E+00
Br   -6.2164472741245422E+00    8.3257833345288184E+00   -8.4692672178346697E+00
Br   -3.5930316654367287E+00    9.3105944450377969E+00   -1.1533445952053084E+01
Br    3.3906813208286004E+00   -1.1413873724818771E+01    2.8594549712332129E+00
Br   -3.1619336393153437E+00    1.1278850728046278E+01   -8.7169609855338042E+00
Br   -3.2066699590533010E+00    5.7317085977831983E+00   -9.7435564404668114E+00
Br   -9.3201950500604926E+00    1.9673192009701766E-02    2.5894568276654466E+00
Br   -3.0198255257752411E+00   -8.7953338287150071E+00   -5.7933455380635737E+00
Br   -5.9190858159047144E+00    9.5250294678108673E+00    2.6623008625287534E+00
Br   -3.1839144419382386E+00    8.8581466468177563E+00   -6.5072772562391509E-02
Br   -2.8546112659510734E+00    1.2046058879097236E+01    3.7298237583893803E+00
Br   -1.1997711769434911E-01    9.2644250028145123E+00    2.8992663780426509E+00
Br    2.5991931583449088E+00    8.1691067839983891E+00    1.6603476760317973E-01
Br    2.7825081410464079E+00    1.1824419652966482E+01    1.9589033529413098E+00
Br    3.4342605873123676E-02    3.1441626379538992E+00    3.2411854025971074E+00
Br    2.8767403706648320E+00    3.1105698164687183E+00   -1.4808015291420421E-01
Br    3.0194642298325824E+00    6.2060761307289249E+00    3.2288981078518559E+00
Br    2.7356848769400449E-01   -2.6145430393164526E+00    8.6606890574767981E+00
Br    2.9747076129937513E+00   -2.6103322788570678E+00    5.8000885257276655E+00
Br    3.1350221210459166E+00    1.4206610154659607E-01    9.1913723566093513E+00
Br    1.4498314258793660E-01   -7.9737224743318134E+00    8.9908724728044600E+00
Br    3.1588843737539110E+00   -8.5840337340718769E+00    5.8631090232538829E+00
Br    3.1522991308051300E+00   -5.7151760454235125E+00    8.4557928879819340E+00
Br   -1.1694373629201138E+01    3.5542867575738910E+00    3.2286689502556181E+00
Br   -8.8407194012801735E+00    2.8812874635316663E+00   -9.0525786756536816E-02
Br    3.1593335680273649E+00   -1.1388314120890053E+01    9.0118456263952567E+00
Br   -8.5227023699371127E+00    5.8618995492171742E+00    2.8294847391827500E+00
Br   -8.9708718255636555E+00    1.8858237282602086E-01    8.9723071200420392E+00
Br   -2.5616894387351410E+00   -6.2635769960410972E+00   -2.5914076495172340E+00
Br   -6.1378985371025729E+00    2.4389203435335594E+00    2.9069100033598754E+00
Br   -2.5342234424246577E+00    2.9104556373015757E+00    3.4904839069606813E-01
Br   -2.9802258596521454E+00    5.7619053713870585E+00    2.8988274101146225E+00
Br    2.2717483619265991E-01    9.2196278721457254E+00    9.3147346951579326E+00
Br    3.2205709675824132E+00    9.3546522991500574E+00    5.8256658884936261E+00
Br    3.0168869685066055E+00    1.2180624110682386E+01    8.9990631120554205E+00
Br    6.4829055216494832E-02    3.0337885084813974E+00    9.1856645278147404E+00
Br    3.4885163554606313E+00    2.8953916886431506E+00    5.9767829176388112E+00
Br    2.5334628094603335E+00    6.1372653021243000E+00    8.0463820250110558E+00
Br   -5.6384731722330352E+00   -3.0518098211445146E+00    9.1237497061376551E+00
Br    3.2975746166398081E+00   -3.6434181343416321E+00    1.1815983150387025E+01
Br   -3.1280309445457193E+00   -2.5335068262461564E+00    5.8137365665165195E+00
Br   -2.8622691194335204E+00    2.9579401635691849E-01    8.9050319142308574E+00
Br   -3.6294981149468826E+00   -1.1835491738715170E+01   -3.0453720734838554E+00
Br    3.3322315565038720E+00   -8.2569350667288592E+00    1.1789890148767308E+01
Br   -1.1610502672349803E+01    1.6232060877953907E+00   -3.0590410025678607E+00
Br   -2.5260133637780537E+00   -1.1899286399727346E+01    3.8188276473020779E+00
Br   -1.2253352710775019E+01   -3.5937351174550174E+00   -3.4085648668626845E+00
Br    3.2230536045241793E+00    8.5674497974559802E+00    1.1520950258905231E+01
Br   -9.1912820790570375E+00   -3.8017118668619672E+00   -5.9284602109271374E+00
Br   -8.8410440462282747E+00   -3.1457627988290721E-01   -2.8918810844492011E+00
Br    3.0840212153652438E+00    3.4069433597046013E+00    1.1908630594276472E+01
Br   -5.9569952869461300E+00    8.5334486052408174E+00   -3.1772765139245114E+00
Br   -2.5880298791266583E+00    8.0777720509335253E+00   -6.0558117841814409E+00
Br   -3.1542341101689040E+00    1.1415950467026310E+01   -3.3885941029257669E+00
Br   -5.8045726264505886E+00    2.4146353901104214E+00   -2.8627914825223515E+00
Br   -1.1539281561832690E+01   -1.0125392425552795E+01    2.4583356037534170E+00
Br   -2.7562263926929358E+00    3.2743529748806957E+00   -6.1429683591947741E+00
Br   -5.8086296350320827E+00   -2.6672511673877342E+00   -8.6958832144556855E+00
Br   -3.6057159431052739E+00   -3.7050912224852093E+00   -1.1804234255612254E+01
Br   -2.8559906289183385E+00   -7.2461744075013559E-02   -8.8744666071241074E+00
Br   -3.0589793961063103E+00    2.4333679077298105E+00    1.1605744681358665E+01
Br   -5.5958745132400622E+00   -8.5524202106562566E+00    8.4647040720965059E+00
Br   -2.3661917546345888E+00   -9.1938756401725445E+00    6.1208228362795563E+00
Br   -2.7191546721144890E+00   -5.4196938767269538E+00    8.2821435455339270E+00
Br   -8.2096403580352906E+00   -9.1835631772971045E+00   -1.8571427448239106E-01
Br   -8.7398993602871844E+00   -5.8273598808720131E+00    3.1826756099675171E+00
Br   -8.9539640917694729E+00    9.0026257086979271E+00    1.1379938135533937E+01
Br    1.2128618178858014E+01    9.0073689763349929E+00    2.9553706929571901E+00
Br   -8.3933970510485736E+00   -8.6569244169786081E+00    1.1591155362047928E+01
Br    1.1428493504961281E+01    8.8256873798290023E+00   -3.2060091862954723E+00
Br    1.1605266354523133E+01    3.3820712522701846E+00    2.3509096486864745E+00
Br   -8.1841379882534113E+00    2.5532129546688740E+00    1.2167719835148269E+01
Br   -1.1769314808585131E+01   -3.5452285397916867E+00   -8.9663750413184324E+00
Br    1.1936042621331639E+01   -3.2906300517552003E+00    8.3578939389268747E+00
Br   -5.3075080230803175E+00   -8.2837456597906165E+00    3.2950485926715443E+00
Br    5.6252610787864086E+00   -3.5533200483406384E+00   -9.0732577690100857E+00
Br    8.4583071665496607E+00   -2.8035008622456088E+00   -1.2152885072165956E+01
Br    1.1523899385277518E+01   -8.0485209344416617E+00    8.9808562597512527E+00
Br    8.6656129501104235E+00    7.7994633496455509E-02   -9.3713877923010465E+00
Br   -8.7949699285339040E+00   -1.2054731498185042E+01    8.7442464334662322E+00
Br   -2.1976000934888091E+00   -9.1868171470185356E+00    5.1072253899921338E-01
Br   -2.0194818354108959E+00   -5.8657595265612859E+00    2.9281169105098628E+00
Br    6.0144734488109730E+00   -8.1339925037328857E+00   -9.1250319782223457E+00
Br   -5.5597999004686276E+00   -9.2430637903407309E+00   -8.9545363752530989E+00
Br    9.0985226490064353E+00   -9.4822751316160190E+00   -1.1856300865447626E+01
Br    9.0959433984629374E+00   -5.9024005561381800E+00   -9.3538590176344645E+00
Br   -3.0616908863265038E+00   -1.1466461835373829E+01    9.1530399346743447E+00