 # Version information for this restart file 
 # current date 2021-06-17 12:47:13.117
 # current working dir /user/ub2042/exercises/2_fitting/MM_MD_workdir/md_settings.005
 # Program compiled at                              Thu Apr 22 21:44:59 EDT 2021
 # Program compiled on                cpn-k07-07-02.compute.cbls.ccr.buffalo.edu
 # Program compiled for                                                    local
 # Source code revision number                                       git:36754bb
 &GLOBAL
   PRINT_LEVEL  LOW
   PROJECT_NAME cp2k
   RUN_TYPE  MD
 &END GLOBAL
 &MOTION
   &MD
     ENSEMBLE  NVT
     STEPS  10000
     TIMESTEP     2.4999999999999996E+00
     STEP_START_VAL  9970
     TIME_START_VAL     2.4924999999995514E+04
     ECONS_START_VAL    -1.5890036444644286E+01
     TEMPERATURE     3.0000000000000000E+02
     &BAROSTAT
       PRESSURE     1.0100000000000000E+00
       TIMECON     9.9999999999999982E+03
     &END BAROSTAT
     &THERMOSTAT
       TYPE  CSVR
       &CSVR
         TIMECON     9.9999999999999982E+03
         &THERMOSTAT_ENERGY
              -2.0294409123331469E-01
         &END THERMOSTAT_ENERGY
         &RNG_INIT
Wiener process for Thermostat # 1        1 F T F   2.7653048661578805E-01        4127636088.0        4103140563.0        2040976024.0         115846524.0         859054296.0        2160992230.0             12345.0             12345.0             12345.0             12345.0             12345.0             12345.0             12345.0             12345.0             12345.0             12345.0             12345.0             12345.0
         &END RNG_INIT
       &END CSVR
     &END THERMOSTAT
     &AVERAGES  T
       &RESTART_AVERAGES
         ITIMES_START  1
         AVECPU     1.7451115108423055E-02
         AVEHUGONIOT     0.0000000000000000E+00
         AVETEMP_BARO     0.0000000000000000E+00
         AVEPOT    -1.6320555764066185E+01
         AVEKIN     5.3256745808985395E-01
         AVETEMP     2.7015470130584725E+02
         AVEKIN_QM     0.0000000000000000E+00
         AVETEMP_QM     0.0000000000000000E+00
         AVEVOL     6.7483345830912264E+06
         AVECELL_A     1.8897261328855686E+02
         AVECELL_B     1.8897261328855686E+02
         AVECELL_C     1.8897261328855686E+02
         AVEALPHA     9.0000000000000000E+01
         AVEBETA     9.0000000000000000E+01
         AVEGAMMA     9.0000000000000000E+01
         AVE_ECONS    -4.6515777115611820E+00
         AVE_PRESS     0.0000000000000000E+00
         AVE_PXX     0.0000000000000000E+00
       &END RESTART_AVERAGES
     &END AVERAGES
     &PRINT
       &ENERGY  SILENT
         &EACH
           MD  10
         &END EACH
       &END ENERGY
     &END PRINT
   &END MD
   &PRINT
     &TRAJECTORY  SILENT
       &EACH
         MD  10
       &END EACH
     &END TRAJECTORY
     &CELL  SILENT
       &EACH
         MD  10
       &END EACH
     &END CELL
     &VELOCITIES  SILENT
       &EACH
         MD  10
       &END EACH
     &END VELOCITIES
     &FORCES  SILENT
       &EACH
         MD  10
       &END EACH
     &END FORCES
     &RESTART  SILENT
       &EACH
         MD  10
       &END EACH
     &END RESTART
   &END PRINT
 &END MOTION
 &FORCE_EVAL
   METHOD  FIST
   &MM
     &FORCEFIELD
       VDW_SCALE14     1.0000000000000000E+00
       EI_SCALE14     1.0000000000000000E+00
       SHIFT_CUTOFF  T
       DO_NONBONDED  T
       IGNORE_MISSING_CRITICAL_PARAMS  T
       &SPLINE
         R0_NB     2.5000000000000000E-01
       &END SPLINE
       &NONBONDED
         &LENNARD-JONES
           ATOMS Br Br
           EPSILON     1.2630795322675199E+02
           SIGMA     3.6900000000000004E+00
         &END LENNARD-JONES
         &LENNARD-JONES
           ATOMS Cs Pb
           EPSILON     8.6920055954630968E+01
           SIGMA     3.6699999999999999E+00
         &END LENNARD-JONES
         &LENNARD-JONES
           ATOMS Cs Cs
           EPSILON     2.2644852172126850E+01
           SIGMA     4.3300000000000001E+00
         &END LENNARD-JONES
         &LENNARD-JONES
           ATOMS Pb Pb
           EPSILON     3.3363415533600227E+02
           SIGMA     5.9000000000000004E+00
         &END LENNARD-JONES
         &LENNARD-JONES
           ATOMS Br Cs
           EPSILON     5.3481070753900497E+01
           SIGMA     3.6300000000000003E+00
         &END LENNARD-JONES
         &LENNARD-JONES
           ATOMS Br Pb
           EPSILON     2.0528187276773045E+02
           SIGMA     2.9800000000000000E+00
         &END LENNARD-JONES
       &END NONBONDED
       &CHARGE
         ATOM Cs
         CHARGE     4.4453099999999995E-01
       &END CHARGE
       &CHARGE
         ATOM Pb
         CHARGE     8.8906199999999991E-01
       &END CHARGE
       &CHARGE
         ATOM Br
         CHARGE    -4.4453099999999995E-01
       &END CHARGE
     &END FORCEFIELD
     &POISSON
       PERIODIC  XYZ
       &EWALD
         EWALD_TYPE  SPME
         GMAX  62 62 62
         O_SPLINE  4
       &END EWALD
     &END POISSON
     &PRINT
       &FF_INFO  LOW
         SPLINE_INFO  F
         SPLINE_DATA  F
       &END FF_INFO
     &END PRINT
   &END MM
   &SUBSYS
     &CELL
       A     1.0000000000000001E+02    0.0000000000000000E+00    0.0000000000000000E+00
       B     0.0000000000000000E+00    1.0000000000000001E+02    0.0000000000000000E+00
       C     0.0000000000000000E+00    0.0000000000000000E+00    1.0000000000000001E+02
       PERIODIC  XYZ
       MULTIPLE_UNIT_CELL  1 1 1
     &END CELL
     &COORD
Cs   -3.2442133843665111E-01   -7.4698306465578090E-01   -5.9332518873811164E+00
Cs    3.0271779234353458E-01   -7.0400435386986393E+00   -5.3418798214341745E+00
Cs    1.4421029555145348E+00   -1.2435353306805677E+01   -3.7158286477361266E+00
Cs   -5.7865218032743888E+00   -8.2858232618409815E+00   -3.9912067806682590E+00
Br   -7.1053694876168514E+00   -1.4171350178723436E+01   -4.9805694438869335E+00
Br    1.1068188193210382E+01   -2.0058227990584263E+00   -8.8888693006877979E+00
Br   -3.8621983392438639E+00   -3.4504379221549492E-01   -1.1753967155277001E+01
Cs   -8.1490911246137887E-01    4.3496098428835186E+00   -6.1139987338271427E+00
Cs   -1.6374383499944661E-01    4.5505417281331917E-01   -1.6237047052821660E-01
Cs    9.8004108409964230E-01   -4.6812179942017229E+00    9.1730440282056325E-01
Br   -5.1993985974584724E+00   -3.6901098039711457E+00    4.1616271930270416E+00
Cs   -8.9815909389546960E+00   -5.1278311886162165E+00    1.3320341104116803E+01
Cs    1.3093119421654086E+01   -9.8132509705563997E+00    5.0054957685269375E-01
Cs   -7.5975311676079533E+00    5.1151990892687333E+00   -5.6986901772420784E-01
Cs   -3.0612380917318718E+00    1.1555491538178609E+01   -2.4193515938837855E+00
Cs   -1.3219973105232885E+00    6.6030330122904140E+00   -1.0434771931987903E+00
Cs    4.7385011712899006E-01    8.7197760187550621E-01    5.4669660276480148E+00
Cs    8.5864789698498578E-01   -4.7151657627945163E+00    6.4507329734660122E+00
Cs    3.4488591049464712E+00   -1.0643146942386805E+01    6.6586736207113528E+00
Cs   -5.5810383267398356E+00    7.0960926916361551E+00    1.0226826899951414E+01
Cs   -6.2649019196057321E+00   -2.9264936537703359E+00   -1.1565519428873296E+01
Cs   -3.9436491953165000E+00   -1.3728292673882754E+01   -2.6260299589731626E+00
Cs   -4.5097639599259409E+00   -2.6900154246829633E-01    6.3665261326970422E+00
Br   -2.7997029491222558E+00   -3.6550010952970169E+00    9.4250379601917678E-01
Cs   -1.7199075238023931E+00    7.7601152515854581E+00    4.6316093267931979E+00
Br    1.1838387460883832E+01   -8.0891670766660351E+00   -8.7967113848532765E+00
Cs    1.9978502037131800E+00   -2.5025405087735435E+00    1.2348602028396201E+01
Br   -2.2509488258607058E+00    2.2931832699509361E-01    3.4993739463749156E+00
Br   -6.9752785944179339E+00   -2.4557503952971000E+00    1.2905699366123999E+01
Cs    8.6036393825945066E+00    1.2890632184633450E+01   -8.6420471137105235E+00
Cs   -1.0345019269017646E+01   -6.4276494040648036E+00    7.9089500343732277E+00
Cs   -4.1281927066433806E+00   -5.4258621826116196E+00    7.5159669008484942E+00
Cs   -8.2023371891505352E+00    9.0163908982712595E+00   -7.5823204989761530E+00
Br   -9.4798372596731770E+00   -8.8403410408963801E+00    1.0981907130451516E+01
Br   -6.5497529761445534E+00   -9.5637412958292742E+00    8.2641308116035699E+00
Cs   -1.1097181921475975E+01   -8.9797242891935305E+00   -4.9383991312640987E+00
Cs   -7.1154181108633328E+00    4.2009059332565446E+00   -6.4782058853586877E+00
Br   -6.7017535431735826E+00   -5.8071520261633598E+00    1.0155497993960173E+01
Cs    1.0924337265319839E+01    1.0390861597867934E+01    8.8033709753293756E+00
Br   -1.2592360678436144E+01    8.0152480021105301E+00    7.0751917727382754E+00
Br   -5.4942425671488797E+00   -3.8405061684940272E+00   -1.7407388948524360E+00
Cs    1.9538264374127834E+00    2.6506976010493992E+00    1.1232291801868621E+01
Cs    9.9865368163943788E+00    8.4774708068798166E+00   -1.7448387673022956E+00
Cs   -1.0439918587472961E+01   -9.6564072171297717E+00   -9.6659060499422367E+00
Cs    1.2947175609429436E+01    3.0552863682734217E+00    4.0542892928000551E+00
Cs   -1.2702846271055295E+01    8.6845839304376238E+00   -7.1193647809229539E+00
Cs    1.4073661711756978E+01   -8.0486751936327163E+00    6.2997666840248563E+00
Cs    5.7666044786863795E+00   -6.2446778118049391E+00   -1.1496821012895461E+01
Cs    8.9289161507817969E+00   -8.4211600441483405E+00    6.8938534370882909E+00
Cs   -3.7676742928377576E+00   -1.1963507420258621E+01    2.1365699853108642E+00
Cs    6.9408850733921463E+00   -1.2320021419820929E+01   -9.3917228350136543E+00
Cs    1.0189897187440335E+01    6.1115296555598873E+00   -7.3483062751316668E+00
Cs    7.8561895187944968E+00    1.4654210821678069E+01    3.1235035072820518E+00
Cs    1.0569252352828348E+01    6.7590361669987180E+00   -1.2416184723054579E+01
Cs    7.8216484102776786E-03   -8.3111217895431615E+00   -1.0002598882700868E+01
Cs   -1.2004066303202153E+01   -2.4070406551014134E+00   -4.0627091675170499E+00
Cs    8.6169089387442650E+00   -2.7041401813096226E+00    1.0940728740272853E+01
Cs    1.2465447128872896E+01   -2.3710537720378575E+00    5.3173606727608771E+00
Cs   -3.8853688548518095E+00   -1.1729249883786741E+01    1.1896967570439653E+01
Cs   -7.2539989262002613E-02   -2.7157233898656679E+00   -1.0675952663789737E+01
Cs   -1.8527219760103046E+00    1.2434613975429578E+01    4.1472610705915818E+00
Cs   -1.6756526150513245E+00    2.4171100177482816E+00   -1.2762962060652830E+01
Cs    5.5878232435139816E+00    6.8928099115802477E-01   -6.2050068063342882E+00
Cs    5.5124994509349703E+00   -6.3810304102626167E+00   -5.1358150342222588E+00
Cs   -3.4821636243867071E+00   -1.0397018943788675E+01    8.2942477623673092E+00
Cs   -1.0159614047488324E+01   -1.9876228307319713E-01    7.5574545001257984E+00
Cs    5.0469301501736181E+00   -1.0402665049787332E+00   -1.2059992012724587E+01
Cs    6.0309797356784012E+00    1.2095926531851184E+01   -1.4050358897424159E+01
Cs    8.3744173957983559E-01    7.4481098131395944E+00    1.0521319785977015E+01
Cs   -7.6080678603704186E+00    1.1012597078122203E+01    4.5314880656761307E+00
Cs    3.4263986862019853E+00    1.0637131658916855E+01   -8.2480562357570566E+00
Cs    4.1964594867768277E+00    5.8533721026611492E+00   -7.1169310944495630E+00
Cs    5.4098345808492612E+00    1.0918718170087867E+00   -8.9173939470185626E-01
Cs    6.5076229797251806E+00   -4.0489522572587155E+00   -1.4228528262260461E-02
Cs    7.3490416510165728E+00   -9.6239887441469314E+00    1.3324000206223519E+00
Cs    3.7726596543164987E+00    3.7312473280719112E+00   -1.2940504676825046E+01
Cs   -6.7114934571111364E+00    5.7640795396141531E+00    5.2028270365074443E+00
Cs   -4.7637892404814117E+00   -9.1806511788455225E+00   -9.3206021631024623E+00
Cs    3.7154758825653844E+00    7.0774437364318308E+00   -1.5186015654670268E+00
Cs    5.5739114232612650E+00    2.5634269066018880E+00    5.8480299287515667E+00
Cs    7.4827199157094633E+00   -3.3998285701815711E+00    6.0379900078393325E+00
Cs   -8.3326834668137941E+00    1.0140343272874702E+01   -2.0630269347671955E+00
Cs    1.0961947501770231E+01    2.7217997101258318E+00   -1.1016732219248411E+00
Cs   -5.9358501655859506E+00   -1.0972537854472102E+00    3.3678798928658055E-01
Cs   -1.1518929692336380E+01    4.5473299318602534E+00    6.6015894635827301E+00
Cs   -3.5094149286557785E+00    1.5072500452493676E+00    1.3505585284714394E+01
Cs    2.8696167827572907E+00    1.2828317051465383E+01    3.5824227287488459E+00
Cs    5.3149843084568573E+00    8.2330067249172778E+00    4.0399563421212186E+00
Cs    7.1667960787254685E+00    3.2107991019250561E+00    1.0691267620410853E+01
Cs    4.0214719689266847E+00    1.1779331035018552E+01   -2.2150350421308227E+00
Cs    1.0089621523976422E+01    7.1632540067967398E-01   -6.2085602517521483E+00
Cs    1.1828232138653432E+01   -4.7659438248929575E+00   -7.4957957955881751E+00
Cs    8.3633732916215280E+00   -8.7291517264933614E+00    1.2335380066109185E+01
Cs    8.4924177037805713E+00    1.3463132056412913E+01   -2.8451470850409928E+00
Cs   -9.0063461142956776E+00    2.2259936954902995E-01    1.2260575801618748E+01
Cs   -7.6264813522683319E+00    2.5077009361732236E+00   -1.1675730946056069E+01
Cs   -1.3801335510432381E+01    8.5220383084356186E+00   -8.7062882931142060E-01
Cs   -3.2121559536119180E+00   -5.1161100100909600E+00    1.2596529426273692E+01
Cs    1.7226060243053551E+00   -1.0404888772895911E+01    1.2885692755444316E+01
Cs    5.4000839749635121E+00    9.0175899648311191E+00    9.0208045090426943E+00
Cs    1.1632551543349615E+01   -3.2847256888629395E+00   -4.8405774176457211E-01
Cs   -1.1149857613580867E+01   -2.6154128589346963E+00    2.2475512329412131E+00
Cs   -8.4105203514244202E+00    7.3021412940610091E+00   -1.2982926591282402E+01
Cs   -1.2958990695445546E+01    2.9367562440930142E+00    1.5032979074929331E+00
Cs   -1.0136745250559999E+01   -1.3593767054439805E+01   -3.0734569975569075E+00
Cs   -9.5554703868782713E+00   -7.5149111515335765E+00    2.5598885860727449E+00
Cs   -4.6123966533926994E+00   -7.3324545515107769E+00    2.2095943268800786E+00
Cs   -9.2368307628805262E+00   -1.1547955008110796E+01    8.7204696353101543E+00
Cs    1.2615352348176232E+01   -1.2258868920197119E+00    1.0633204929989144E+01
Cs    1.0062594293820235E+01    9.2338743325221913E+00    4.2687833792937786E+00
Cs   -1.2688723325049017E+01    2.6593534251345181E+00   -4.9927489879341387E+00
Cs   -6.6262208693713562E+00   -1.9542597532083643E+00   -4.7036234806964075E+00
Cs   -9.0405803720577307E+00   -1.3731763867331134E+01    3.0263239231920229E+00
Cs    1.2587785680935626E+01   -1.0448150259549900E+01   -6.1027535222805129E+00
Cs   -4.6829396951404210E+00   -1.4518971330768698E+01   -7.7425280233229339E+00
Cs   -1.9354171744981501E+00    8.0217937849441299E+00   -1.3642067970875429E+01
Cs    9.4385988574663637E-01   -1.3867706907315824E+01   -8.7585891373232680E+00
Cs   -1.7879943055042300E+00    9.2628849591705844E+00   -8.1027311971952773E+00
Cs   -6.8074665005735637E+00    1.2407179306018378E+01    9.1634930764440359E+00
Cs    2.0781145980352984E+00   -1.1392625296059901E+01    1.8375356488047530E+00
Cs   -1.1734077877379001E+01   -3.8367993871641821E+00   -9.8846915313499721E+00
Cs   -1.2494533371174267E+01    1.0305221533406275E+01    4.5851735334019601E+00
Cs    7.3874382514172474E+00   -1.0943764143215382E+01   -3.9980331684214758E+00
Cs    1.0637026297807431E+01    3.4630661787306910E-01   -1.2117610860663401E+01
Cs    4.4999665939020739E+00    1.3887919911364492E+01    9.5420150863250655E+00
Pb    2.9845290197757639E+00   -3.1133316577038364E+00   -2.8533151023290904E+00
Pb    3.9875691862428417E+00   -8.6525620119782491E+00   -1.5217857954122860E+00
Pb   -7.9621411566688183E+00   -4.0481512222084657E+00    4.5921421385718171E+00
Pb   -1.6482355220560898E+00   -9.8030456138710882E+00   -7.3022677150155768E-01
Pb    1.2648217546962366E+00    8.7845366909814189E+00   -4.7224885189143651E+00
Pb    2.1142094571759347E+00    3.0487215004901178E+00   -4.0309620071012198E+00
Pb    3.6206123873625500E+00   -1.7464697845757280E+00    2.7292561295086513E+00
Pb    4.6341757336043541E+00   -7.3435422503054530E+00    4.0666649399386365E+00
Pb   -4.6056499716394583E+00    9.0236349131294293E+00    1.1535387342013823E+00
Pb    1.1473955871459274E+00    9.5715045553900051E+00    1.1528853846385614E+00
Pb    2.5605831824688403E+00    3.9027694278647935E+00    1.8522904157629274E+00
Pb    4.3200629369797703E+00   -9.2015749739808428E-01    8.7014249489654549E+00
Pb    5.1216488748884785E+00   -6.6562624403690052E+00    9.7730730373716845E+00
Pb   -3.0870255491787497E+00    2.8715007648815805E+00    2.5887051571537962E+00
Pb    1.6125188233474170E+00    1.0819371559742947E+01    7.1157863913777017E+00
Pb    3.0567213776904896E+00    5.2782060217512212E+00    7.4128555231793696E+00
Pb   -1.3931135740844647E+00   -1.3543839602431273E+00    9.3789068625050849E+00
Pb   -6.8738164813574674E+00   -9.6888441875853442E+00    5.4651464317659650E+00
Pb   -9.3402510152485796E+00    1.0424516524909528E+00   -2.5426741010177332E+00
Pb   -2.7930473948492129E+00   -5.5405323627849565E+00   -7.8211175435127931E+00
Pb   -9.3193865712382429E-01   -8.5207586755923348E+00    4.9733223328020388E+00
Pb   -4.7519263397411331E+00    7.3298106496786364E+00   -4.5125712741737658E+00
Pb   -8.1222757143526203E-01   -7.6945433492904796E+00    1.0588587161032981E+01
Pb   -8.5110743328562108E+00   -4.8616917150111325E+00   -1.4517487624094505E+00
Pb   -7.5931837377632050E+00   -1.0600917471907302E+01   -4.2761655316905034E-01
Pb   -3.7267882691996079E+00    1.8373098855442109E+00   -3.1209041612935562E+00
Pb   -6.7595291641867599E+00   -8.5595942664276254E+00    1.1501043897713059E+01
Pb   -8.6443376799902438E+00   -6.1393641589175063E+00   -7.5751761912371842E+00
Pb    8.5184934240276391E+00   -2.9134870441218998E+00   -9.3608103362921824E+00
Pb    9.0450009201363155E+00   -8.8125425962506210E+00   -8.3731793539665915E+00
Pb   -2.0359305881045708E+00   -1.1567834776091717E+01   -6.4027206026094925E+00
Pb   -1.0513467793232836E+01    5.2209951778452854E+00   -9.5037244600455555E+00
Pb    3.0375291445876149E+00   -4.2084726567274471E+00   -8.4816015219464305E+00
Pb    3.4840169762659641E+00   -1.0330784754896449E+01   -7.1586405310317938E+00
Pb   -3.9264861679857535E+00    4.5859004401645237E-01   -8.8733510220247958E+00
Pb    1.2242211460022048E+00    6.9509010014803625E+00   -1.0655937916779086E+01
Pb    1.9843974858107081E+00    1.2962027536818723E+00   -9.6052722630502387E+00
Pb    8.6423975605781589E+00   -1.9145562232510669E+00   -3.6056266211953942E+00
Pb    9.8735166485936610E+00   -8.1061622805175819E+00   -2.3003283726559567E+00
Pb   -6.9816345563861937E+00   -2.9625263957222083E+00    1.0261958455695265E+01
Pb    7.1884158868836003E+00    8.8017780167010109E+00   -1.0817343684655405E+01
Pb   -9.6552282247966996E+00   -2.9293214208040735E-01   -8.3155445711560514E+00
Pb   -4.2081720298889600E+00    1.0161600196026976E+01    7.0975800015178399E+00
Pb    7.1547525475326648E+00    9.8520220257420377E+00   -4.9249930809984717E+00
Pb    7.9497909952965387E+00    4.0442714111121152E+00   -3.8224730145736951E+00
Pb    9.1023180482582724E+00   -3.5392726164239591E-01    2.1243066620665072E+00
Pb    1.0568194712102768E+01   -6.1761234084205006E+00    3.0618082602170547E+00
Pb    7.7590964710667389E+00    2.9884851233678251E+00   -1.0053301169198846E+01
Pb   -2.8417800547675265E+00    4.3902025635238715E+00    7.9876643355642862E+00
Pb    7.1015928204705867E+00    1.1050901519230431E+01    7.9892618498843759E-01
Pb    8.5619314326620870E+00    5.5230377021305062E+00    1.7219624444264141E+00
Pb    1.0072784226635189E+01    6.3123813644563553E-01    7.9344897807333270E+00
Pb    1.1271218104036361E+01   -5.5876312350341619E+00    8.8426905693722162E+00
Pb    7.3453752164780033E+00    1.2069424088966651E+01    6.6846243048278335E+00
Pb    8.8386048768566940E+00    6.2472265886912126E+00    7.6049283341853027E+00
Pb   -8.1726387395448867E+00    2.7191652285450965E+00    9.2933910094945418E+00
Pb   -2.3153842888544189E+00   -2.9386664116483758E+00    3.7359545895016950E+00
Pb   -1.0377362407887038E+01    7.1735269316617414E+00    1.7961916991250679E+00
Pb   -1.0872397453388812E+01    6.7260427123095621E+00   -3.8843694229149004E+00
Pb   -8.0464663587115268E+00   -1.1818068159698692E+01   -6.3030833324639168E+00
Pb   -4.6728921716695853E+00    6.1496776647974718E+00   -1.0145126772845153E+01
Pb   -8.7368303981276423E+00    1.5746577913618329E+00    3.4326961528365447E+00
Pb   -9.7828866586613401E+00    8.3545876007823310E+00    7.5673754941440317E+00
Pb   -2.6615534291655023E+00   -4.0586273079584281E+00   -2.1757568586454252E+00
Br    1.8145570369437519E-01   -3.7270958528252804E+00   -2.4406204351237148E+00
Br    2.5240819461507287E+00   -3.4780391853021864E+00   -5.5605170719540125E+00
Br    2.7674065327729660E+00    9.4336164852139415E-02   -3.2369960282616179E+00
Br    1.3330491307838466E+00   -1.0125081834162593E+01   -1.2355040344590915E+00
Br    3.5316911841575678E+00   -9.7294922790297171E+00   -4.1753358431325500E+00
Br    3.7956195135815927E+00   -6.0485107625462620E+00   -2.6145881785103264E+00
Br   -2.9028999445336425E+00   -4.8076244172449965E+00   -4.8543783846306630E+00
Br   -7.0095087537478156E+00   -3.4369647540485841E+00    7.1862091419287397E+00
Br   -3.1532849872667970E+00   -1.0715426338908958E+00   -2.6790272254937326E+00
Br    5.1393074717775553E+00   -1.1178665773094211E+01   -9.7001082378286907E-01
Br    1.1824193612414446E+01    2.7399532887758699E-01    1.7234706421613413E+00
Br   -4.7220415210209952E+00   -9.8396229088073639E+00   -7.6629448403631595E-01
Br   -1.0821947896532413E+01   -4.8081143058785782E+00    4.7547897847456078E+00
Br   -7.7132494389255344E+00   -4.2724014004357871E+00    1.7032473108545052E+00
Br    1.3153630566566891E+01   -5.1116294985493624E+00    2.7718687431837319E+00
Br   -1.8552295365678155E+00    8.0256802599201169E+00   -4.6515095701725020E+00
Br    1.5151980990136742E+00    7.8500190026479961E+00   -7.8153809876427722E+00
Br   -1.5103656932549520E-01    1.1166993567178295E+01   -5.3127818723371654E+00
Br   -6.6862540750186350E-01    1.9734458853207923E+00   -3.4321119998591385E+00
Br    1.8010930594279766E+00    2.1604886106988253E+00   -6.7788538729694787E+00
Br    1.6919659253491854E+00    5.9883441543812443E+00   -4.5571887107781892E+00
Br    9.7518829185122202E-01   -2.6789540001240786E+00    3.5412411751435915E+00
Br    3.3449238958610978E+00   -2.5798862623031837E+00   -9.1355154056159640E-02
Br    2.6058991594310559E+00    9.6635052982335223E-01    1.7181545203933888E+00
Br    1.9122335062517772E+00   -7.5822138975884048E+00    5.2559486223582228E+00
Br    3.3664106773725924E+00   -7.7794336803984283E+00    1.1309031499121363E+00
Br    4.7709642438747952E+00   -4.7316236074093849E+00    3.2679123702206918E+00
Br   -7.5287656183095768E+00    5.1828489902235919E+00   -9.6535047315029487E+00
Br   -4.9616811709784363E+00    5.5106733544401081E+00   -1.2809716714770810E+01
Br    5.2736964757615858E+00   -1.0196851947254657E+01    3.7972474661250626E+00
Br   -4.8291237475742301E+00    8.9479072873689454E+00   -1.1299013727277199E+01
Br   -3.7175168917394461E+00    3.1306860907497067E+00   -1.0094548453994657E+01
Br   -8.8958158119903690E+00   -1.3733889666687094E+00    4.1806649396667064E+00
Br   -2.1715420684347673E+00   -9.9407787252638951E+00   -3.8230209720730768E+00
Br   -7.6544124468550958E+00    8.1270427266859677E+00    1.1144713177478274E+00
Br   -4.5180932753162111E+00    8.1186661947477816E+00   -1.7767688469916292E+00
Br   -5.6238173287563118E+00    1.1162974834675152E+01   -2.9710981968764555E-01
Br   -1.7520198639051647E+00    8.9447122930603005E+00    1.1674441936649325E+00
Br    1.1830443624284839E+00    8.6935652096146967E+00   -1.5433321643473146E+00
Br    6.0503982238821341E-01    1.2589779629958675E+01    7.1991018526423001E-01
Br   -3.4064045792547182E-01    3.2932157305203713E+00    2.2092094224622576E+00
Br    2.1267587126469669E+00    3.3421269325902352E+00   -9.3728395754293825E-01
Br    1.3393335732178000E+00    6.5276145992929635E+00    9.6969800263113859E-01
Br    1.3594072957256687E+00   -8.0568097741554978E-01    9.1942585074033829E+00
Br    3.8127831450482943E+00   -1.4115938908538954E+00    5.7131153754507089E+00
Br    3.7944918675448558E+00    2.7730297841870750E+00    8.4407821528918809E+00
Br    2.1445139689895876E+00   -7.7088456314508997E+00    9.9829331976461368E+00
Br    5.6649399124390092E+00   -6.3834308809666860E+00    6.6314646971235538E+00
Br    4.3240394596770750E+00   -3.6803685288175556E+00    9.4296182632250733E+00
Br   -1.2077942177794094E+01    1.0279320675957109E+00    4.5894839992891781E+00
Br   -9.1703718349389458E+00    1.2278302925610809E+00    4.7318824146707639E-01
Br    6.3702319385007691E+00   -9.8102421506901507E+00    9.2615862971546008E+00
Br   -1.0358055067897068E+01    4.1850567619677124E+00    2.8558913228462552E+00
Br   -7.1617073280635983E+00    6.1883963869352812E-02    9.0009358617780730E+00
Br   -1.5730571680302050E+00   -6.6185909104045679E+00   -5.3186109858372133E-01
Br   -6.0046295973556552E+00    1.6389724283415339E+00    3.1550647925787012E+00
Br   -3.1817931343270764E+00    2.3807645076437112E+00   -1.9606433209400462E-01
Br   -4.4370029601467698E+00    6.0840276271658640E+00    2.3787129090211852E+00
Br   -1.3725301828831096E+00    1.0596390311571176E+01    6.8561152080061314E+00
Br    9.8104966151627881E-01    9.8457999753584691E+00    4.3724223673984879E+00
Br    5.5253468142524853E-01    1.3546075211644277E+01    6.0287528420666172E+00
Br    1.6791073788653310E-01    4.3776947277009253E+00    8.0125471760498357E+00
Br    2.9545957162950800E+00    4.4812415928988987E+00    4.7299107368379794E+00
Br    2.3614182147304468E+00    8.0578374240412654E+00    7.6399460478618648E+00
Br   -4.0737873393692361E+00   -2.7608203288572879E+00    9.7325769678738840E+00
Br    4.4139035692156749E+00    4.1957741338080355E-02    1.1752750283712610E+01
Br   -1.5676510418942737E+00   -2.1897737178356365E+00    6.5367423721626929E+00
Br   -1.9790728889490730E+00    1.1579338279632523E+00    8.2762443348271439E+00
Br   -1.3688731075984593E+00   -1.2640673458485031E+01   -9.4218375346236993E-01
Br    5.2563791548557770E+00   -7.5435439270870113E+00    1.2449006613734349E+01
Br   -1.2125417212240219E+01    8.7816745095568960E-01   -2.2258469724391503E+00
Br    2.1552487257420885E-01   -1.1107575434411007E+01    5.2037393122322877E+00
Br   -1.1167357826378025E+01   -5.5328745507948005E+00   -1.0734921713791292E+00
Br    2.2759419675215762E+00    1.0994397913871774E+01    1.0112272000057498E+01
Br   -8.5867012946971251E+00   -5.8439824507534937E+00   -4.4857414731719638E+00
Br   -9.2788124126350375E+00   -2.2729462004681440E+00   -1.6885038295583736E+00
Br    3.7417831966244641E+00    5.8827167511805962E+00    1.0284354956469631E+01
Br   -7.9587687407473586E+00    7.0092880954477002E+00   -3.6401270544818050E+00
Br   -4.4940454017372931E+00    6.3680934914697094E+00   -7.2443634917677233E+00
Br   -5.3138460852240295E+00    1.0022093807982300E+01   -5.6578879041941024E+00
Br   -6.3493226131769953E+00    9.0581569401771211E-01   -2.6667503128572836E+00
Br   -9.8541194961435181E+00   -9.6558071831539234E+00    5.6455646507318917E+00
Br   -4.5582639797300635E+00    1.7315514817889912E+00   -6.0877238999992986E+00
Br   -5.3553136926513512E+00   -6.5525008023053823E+00   -7.4603783426186450E+00
Br   -2.9975702493287626E+00   -6.2523492361910806E+00   -1.0609551229651776E+01
Br   -2.9285486582531433E+00   -2.2785884795884241E+00   -7.9576680777784290E+00
Br   -2.6306641102037869E+00    5.3668990795778795E+00    1.0767972674863980E+01
Br   -3.8807629385587488E+00   -8.4920561673695545E+00    1.1188111734293404E+01
Br   -1.5226302056816940E+00   -7.7679905434754950E+00    7.8555592542923867E+00
Br   -6.1110764484339031E-01   -4.7603169903006775E+00    1.0491271057178848E+01
Br   -6.9289807838946009E+00   -9.9855145057825911E+00    2.1587073734329891E+00
Br   -7.2148768077052736E+00   -6.8247767604512761E+00    4.7830883442097507E+00
Br   -8.0530263005935865E+00    9.0032388433736621E+00    9.9781590209026962E+00
Br    9.5537413912040723E+00    1.2096975517293123E+01    9.5560546401631682E-02
Br   -6.6269973827713429E+00   -7.6331120707364519E+00    1.4280672093168427E+01
Br    9.7611118684741776E+00    1.0747885264269549E+01   -4.6310423465031949E+00
Br    1.1492972764439896E+01    5.2325097252589732E+00    1.9249266136023908E+00
Br   -7.1718022797279000E+00    2.8298629278201930E+00    1.2145380596751027E+01
Br   -1.1724700198965408E+01   -6.7101821389880580E+00   -7.2224453397389761E+00
Br    1.2381229451516706E+01    1.1667328267908168E+00    6.6561117351016614E+00
Br   -3.7230366288015437E+00   -9.2686983432887544E+00    4.8368475838648504E+00
Br    5.4804518465911256E+00   -3.2363030107916013E+00   -8.9943418587877879E+00
Br    7.9460362625473744E+00   -3.0007731750760636E+00   -1.2166919431241395E+01
Br    1.3811590618756975E+01   -4.6329263355476700E+00    8.0200638418992245E+00
Br    8.4037954798410528E+00    2.6203961528911368E-01   -9.3940825285285250E+00
Br   -6.8944068994445651E+00   -1.1627221240677672E+01    1.1312573350784341E+01
Br   -1.1382926592918485E+00   -9.5053507014154235E+00    2.0655401500766066E+00
Br   -1.7588907852448450E+00   -5.6334501904197340E+00    4.2945370225889938E+00
Br    6.2180242126378404E+00   -9.7923851040163292E+00   -7.0872932987395156E+00
Br   -5.0021378456990941E+00   -1.1555504038547216E+01   -6.5272563302021034E+00
Br    7.6497520434746589E+00   -8.8173155287856702E+00   -1.0860066157609802E+01
Br    8.5815998097154704E+00   -5.6439200069996671E+00   -8.2857854061933960E+00
Br   -8.1849214420485461E-01   -1.0541143132246148E+01    1.0260957065081538E+01