 # Version information for this restart file 
 # current date 2021-06-17 12:47:13.283
 # current working dir /user/ub2042/exercises/2_fitting/MM_MD_workdir/md_settings.005
 # Program compiled at                              Thu Apr 22 21:44:59 EDT 2021
 # Program compiled on                cpn-k07-07-02.compute.cbls.ccr.buffalo.edu
 # Program compiled for                                                    local
 # Source code revision number                                       git:36754bb
 &GLOBAL
   PRINT_LEVEL  LOW
   PROJECT_NAME cp2k
   RUN_TYPE  MD
 &END GLOBAL
 &MOTION
   &MD
     ENSEMBLE  NVT
     STEPS  10000
     TIMESTEP     2.4999999999999996E+00
     STEP_START_VAL  9980
     TIME_START_VAL     2.4949999999995503E+04
     ECONS_START_VAL    -1.5890036444644286E+01
     TEMPERATURE     3.0000000000000000E+02
     &BAROSTAT
       PRESSURE     1.0100000000000000E+00
       TIMECON     9.9999999999999982E+03
     &END BAROSTAT
     &THERMOSTAT
       TYPE  CSVR
       &CSVR
         TIMECON     9.9999999999999982E+03
         &THERMOSTAT_ENERGY
              -2.0336748731587251E-01
         &END THERMOSTAT_ENERGY
         &RNG_INIT
Wiener process for Thermostat # 1        1 F T F   1.0571577890008135E+00        2254892290.0        3032320490.0        1438837230.0         879273700.0         502542477.0        1398262910.0             12345.0             12345.0             12345.0             12345.0             12345.0             12345.0             12345.0             12345.0             12345.0             12345.0             12345.0             12345.0
         &END RNG_INIT
       &END CSVR
     &END THERMOSTAT
     &AVERAGES  T
       &RESTART_AVERAGES
         ITIMES_START  1
         AVECPU     1.7450233802403802E-02
         AVEHUGONIOT     0.0000000000000000E+00
         AVETEMP_BARO     0.0000000000000000E+00
         AVEPOT    -1.6320513878376115E+01
         AVEKIN     5.3262079247884286E-01
         AVETEMP     2.7018175616191809E+02
         AVEKIN_QM     0.0000000000000000E+00
         AVETEMP_QM     0.0000000000000000E+00
         AVEVOL     6.7483345830912264E+06
         AVECELL_A     1.8897261328855686E+02
         AVECELL_B     1.8897261328855686E+02
         AVECELL_C     1.8897261328855686E+02
         AVEALPHA     9.0000000000000000E+01
         AVEBETA     9.0000000000000000E+01
         AVEGAMMA     9.0000000000000000E+01
         AVE_ECONS    -4.6516171098642927E+00
         AVE_PRESS     0.0000000000000000E+00
         AVE_PXX     0.0000000000000000E+00
       &END RESTART_AVERAGES
     &END AVERAGES
     &PRINT
       &ENERGY  SILENT
         &EACH
           MD  10
         &END EACH
       &END ENERGY
     &END PRINT
   &END MD
   &PRINT
     &TRAJECTORY  SILENT
       &EACH
         MD  10
       &END EACH
     &END TRAJECTORY
     &CELL  SILENT
       &EACH
         MD  10
       &END EACH
     &END CELL
     &VELOCITIES  SILENT
       &EACH
         MD  10
       &END EACH
     &END VELOCITIES
     &FORCES  SILENT
       &EACH
         MD  10
       &END EACH
     &END FORCES
     &RESTART  SILENT
       &EACH
         MD  10
       &END EACH
     &END RESTART
   &END PRINT
 &END MOTION
 &FORCE_EVAL
   METHOD  FIST
   &MM
     &FORCEFIELD
       VDW_SCALE14     1.0000000000000000E+00
       EI_SCALE14     1.0000000000000000E+00
       SHIFT_CUTOFF  T
       DO_NONBONDED  T
       IGNORE_MISSING_CRITICAL_PARAMS  T
       &SPLINE
         R0_NB     2.5000000000000000E-01
       &END SPLINE
       &NONBONDED
         &LENNARD-JONES
           ATOMS Br Br
           EPSILON     1.2630795322675199E+02
           SIGMA     3.6900000000000004E+00
         &END LENNARD-JONES
         &LENNARD-JONES
           ATOMS Cs Pb
           EPSILON     8.6920055954630968E+01
           SIGMA     3.6699999999999999E+00
         &END LENNARD-JONES
         &LENNARD-JONES
           ATOMS Cs Cs
           EPSILON     2.2644852172126850E+01
           SIGMA     4.3300000000000001E+00
         &END LENNARD-JONES
         &LENNARD-JONES
           ATOMS Pb Pb
           EPSILON     3.3363415533600227E+02
           SIGMA     5.9000000000000004E+00
         &END LENNARD-JONES
         &LENNARD-JONES
           ATOMS Br Cs
           EPSILON     5.3481070753900497E+01
           SIGMA     3.6300000000000003E+00
         &END LENNARD-JONES
         &LENNARD-JONES
           ATOMS Br Pb
           EPSILON     2.0528187276773045E+02
           SIGMA     2.9800000000000000E+00
         &END LENNARD-JONES
       &END NONBONDED
       &CHARGE
         ATOM Cs
         CHARGE     4.4453099999999995E-01
       &END CHARGE
       &CHARGE
         ATOM Pb
         CHARGE     8.8906199999999991E-01
       &END CHARGE
       &CHARGE
         ATOM Br
         CHARGE    -4.4453099999999995E-01
       &END CHARGE
     &END FORCEFIELD
     &POISSON
       PERIODIC  XYZ
       &EWALD
         EWALD_TYPE  SPME
         GMAX  62 62 62
         O_SPLINE  4
       &END EWALD
     &END POISSON
     &PRINT
       &FF_INFO  LOW
         SPLINE_INFO  F
         SPLINE_DATA  F
       &END FF_INFO
     &END PRINT
   &END MM
   &SUBSYS
     &CELL
       A     1.0000000000000001E+02    0.0000000000000000E+00    0.0000000000000000E+00
       B     0.0000000000000000E+00    1.0000000000000001E+02    0.0000000000000000E+00
       C     0.0000000000000000E+00    0.0000000000000000E+00    1.0000000000000001E+02
       PERIODIC  XYZ
       MULTIPLE_UNIT_CELL  1 1 1
     &END CELL
     &COORD
Cs   -3.2585347187578967E-01   -8.2059700738231822E-01   -5.9150863960705697E+00
Cs    2.8201819788252924E-01   -6.9985160080788837E+00   -5.3321324674345485E+00
Cs    1.4598528322451580E+00   -1.2457447994557928E+01   -3.7514088456688706E+00
Cs   -5.7803854520686766E+00   -8.2391744181642537E+00   -4.0271259285557424E+00
Br   -7.0374017368268262E+00   -1.4089903814999508E+01   -4.9583976978588904E+00
Br    1.1131936684602996E+01   -1.9618912738126117E+00   -8.9878483326117653E+00
Br   -3.8528158972864350E+00   -3.6780955728403558E-01   -1.1708558871946854E+01
Cs   -7.7617797087584972E-01    4.3481946858348897E+00   -6.1467366281438913E+00
Cs   -7.6350931725023760E-02    4.7586353655969332E-01   -1.5977183623199775E-01
Cs    1.0050792507823703E+00   -4.6532737281321355E+00    9.4930251300812540E-01
Br   -5.2328709619723224E+00   -3.7378027021644020E+00    4.1688526078146166E+00
Cs   -8.9411297828976330E+00   -5.0984789939015700E+00    1.3307686208886205E+01
Cs    1.3100156994626746E+01   -9.8066584251219240E+00    4.7870283557931120E-01
Cs   -7.6491081132580110E+00    5.0265070608696725E+00   -5.8115961660707471E-01
Cs   -3.0893927144635609E+00    1.1577947976207382E+01   -2.4539257748668395E+00
Cs   -1.3089486104469199E+00    6.5767554926552894E+00   -9.8788083530363746E-01
Cs    4.8763272238975730E-01    8.0840825783268855E-01    5.4901932344289159E+00
Cs    8.4804244261593598E-01   -4.6912646566196745E+00    6.4296157680538935E+00
Cs    3.4480097465967012E+00   -1.0626349898577647E+01    6.6776413773732992E+00
Cs   -5.5870806977205856E+00    7.0450076170164593E+00    1.0213296529705973E+01
Cs   -6.2601642387571426E+00   -2.9405436118391526E+00   -1.1580410589736115E+01
Cs   -3.9791350267814143E+00   -1.3783365174088688E+01   -2.6313837611674731E+00
Cs   -4.4927122652965936E+00   -2.3950250313306984E-01    6.3655235660994496E+00
Br   -2.7929280926314015E+00   -3.6847288919498067E+00    1.0212773655208356E+00
Cs   -1.7106525468429674E+00    7.7346238571363797E+00    4.6679299858895078E+00
Br    1.1887954633851553E+01   -8.0734867902339147E+00   -8.7455357454220852E+00
Cs    1.9790909837681181E+00   -2.4723462101867426E+00    1.2337482945183364E+01
Br   -2.2128157615643209E+00    1.7629413556271850E-01    3.4515704992844185E+00
Br   -6.9531822846954423E+00   -2.4292757115861776E+00    1.2923737765871405E+01
Cs    8.6288055054452375E+00    1.2843433886103947E+01   -8.6465111147126574E+00
Cs   -1.0353979415029031E+01   -6.4334590558599762E+00    7.8577476793895791E+00
Cs   -4.1057029194844565E+00   -5.3136237490834404E+00    7.5065771156635623E+00
Cs   -8.2225219671772205E+00    9.0226837077777802E+00   -7.5710413984233806E+00
Br   -9.4997218280874947E+00   -8.9108074554777819E+00    1.0954708516861547E+01
Br   -6.4271153579234408E+00   -9.5301593870389087E+00    8.2412565750150346E+00
Cs   -1.1064230708968633E+01   -8.9646177642533313E+00   -4.8664665043607664E+00
Cs   -7.1103062744760166E+00    4.2706732534360592E+00   -6.4539971842747041E+00
Br   -6.6998463032249793E+00   -5.9122570401078889E+00    1.0184492189922359E+01
Cs    1.0936663354298618E+01    1.0376214129741138E+01    8.8185951156990345E+00
Br   -1.2577767551468696E+01    8.0645576064389513E+00    7.0766842245359527E+00
Br   -5.4477231501245598E+00   -3.8488670301391132E+00   -1.7824744208150927E+00
Cs    1.9399743162489305E+00    2.6752557192109592E+00    1.1181239613041061E+01
Cs    9.9676165319141852E+00    8.4508097708613779E+00   -1.7978730783660737E+00
Cs   -1.0418695079781653E+01   -9.6448922325923316E+00   -9.7422307426819135E+00
Cs    1.2921848522832693E+01    3.0564184794157767E+00    4.0407908571887132E+00
Cs   -1.2726985479421081E+01    8.6925095304558155E+00   -7.1276615782982287E+00
Cs    1.4105161502328471E+01   -8.0474497320139555E+00    6.2979413330661398E+00
Cs    5.7458130712240836E+00   -6.2898617339834777E+00   -1.1506966721525435E+01
Cs    8.9314412488316641E+00   -8.4562996158419050E+00    6.8193993765801180E+00
Cs   -3.7531812993846394E+00   -1.1913675105611357E+01    2.1631866985585573E+00
Cs    6.9500897635514205E+00   -1.2335612005737062E+01   -9.4263969266525134E+00
Cs    1.0170220778802380E+01    6.0996105739049824E+00   -7.3313466647035526E+00
Cs    7.8572101469699724E+00    1.4681690068315465E+01    3.1841791627707221E+00
Cs    1.0544407394356206E+01    6.8384067354435860E+00   -1.2388707449377822E+01
Cs   -8.9491338138136343E-03   -8.3180769140496569E+00   -1.0008144676754441E+01
Cs   -1.2020467823408749E+01   -2.4288471055156355E+00   -4.0638067942116374E+00
Cs    8.6696728119727577E+00   -2.6620533627271499E+00    1.0884227640934045E+01
Cs    1.2453421983952561E+01   -2.3728138996373684E+00    5.3439590536913757E+00
Cs   -3.8800590539318005E+00   -1.1819217455103773E+01    1.1854946601063762E+01
Cs   -8.8733698605028499E-02   -2.6530823513276136E+00   -1.0699034976893886E+01
Cs   -1.8545063554561665E+00    1.2471738297041432E+01    4.1374660013229230E+00
Cs   -1.5868859483574675E+00    2.4437038684579893E+00   -1.2764397914040652E+01
Cs    5.6140009786503455E+00    7.1819852204600576E-01   -6.2268367289782214E+00
Cs    5.5964560249255770E+00   -6.3337240329786564E+00   -5.1925317773276678E+00
Cs   -3.4990746186160004E+00   -1.0394307475565247E+01    8.2775538962659425E+00
Cs   -1.0126117403243066E+01   -1.7502343886063945E-01    7.5426236538200833E+00
Cs    5.0104550955324569E+00   -1.0304543499742509E+00   -1.1985126102946349E+01
Cs    6.0667079408692608E+00    1.2059171175838802E+01   -1.4097438742364316E+01
Cs    8.1858640381565684E-01    7.4241214241787246E+00    1.0538853054653540E+01
Cs   -7.6298546732031438E+00    1.0968188661382893E+01    4.5407856580468327E+00
Cs    3.4114943084738214E+00    1.0646138837861935E+01   -8.2738426019879263E+00
Cs    4.1886853532500661E+00    5.8988759553122447E+00   -7.0889029686840788E+00
Cs    5.3985233045255763E+00    1.0674393713901937E+00   -8.9196507713798823E-01
Cs    6.4983732017382341E+00   -4.0489537690535311E+00    4.5368121196928970E-02
Cs    7.3456753750336699E+00   -9.5431075278158737E+00    1.3128190409899518E+00
Cs    3.7461700590032914E+00    3.7794072911548451E+00   -1.2933209633540041E+01
Cs   -6.7344870826034198E+00    5.7178775757700455E+00    5.2575096254502069E+00
Cs   -4.7210578317742886E+00   -9.1895105719284143E+00   -9.2700223928698815E+00
Cs    3.7290528048168508E+00    7.0891292032126900E+00   -1.4955888211615846E+00
Cs    5.5601362236106864E+00    2.5494439986643163E+00    5.8682044316885449E+00
Cs    7.4748732420823538E+00   -3.3706161511852417E+00    6.0465662385917875E+00
Cs   -8.2914157731926430E+00    1.0118036489800250E+01   -2.0311887260803929E+00
Cs    1.0909429893614821E+01    2.7193609973046056E+00   -1.1131306036120203E+00
Cs   -5.9465020016896375E+00   -1.0730254473856595E+00    3.2377649599171648E-01
Cs   -1.1531249456843888E+01    4.5237782544168823E+00    6.5964996415146562E+00
Cs   -3.4951656557103266E+00    1.5213378756671949E+00    1.3450205520927808E+01
Cs    2.8492624910357893E+00    1.2807593285712374E+01    3.5828801889300728E+00
Cs    5.2666341946877955E+00    8.2755189117670085E+00    4.0224528776107684E+00
Cs    7.2369064047827054E+00    3.2120458354544823E+00    1.0666714250224079E+01
Cs    4.0661665470997708E+00    1.1809693025351489E+01   -2.2321013516407686E+00
Cs    1.0080099786598069E+01    7.2927638224564706E-01   -6.2685644328525747E+00
Cs    1.1812304427238182E+01   -4.7665210959142357E+00   -7.5218249405732944E+00
Cs    8.3182978692500722E+00   -8.7448623724075691E+00    1.2321170607176564E+01
Cs    8.5481569774674799E+00    1.3469987644431319E+01   -2.8905479352157641E+00
Cs   -9.0047705771363500E+00    2.1867596906250725E-01    1.2231916198627681E+01
Cs   -7.6632821476068980E+00    2.5365409078767396E+00   -1.1684141712168671E+01
Cs   -1.3828815784858786E+01    8.5516051765613650E+00   -8.5210418499437390E-01
Cs   -3.2075757424703149E+00   -5.1119697109176245E+00    1.2580931020287503E+01
Cs    1.7293903533628965E+00   -1.0405461451852380E+01    1.2863096766675255E+01
Cs    5.4221660080673466E+00    9.0101750168675174E+00    8.9838649217940585E+00
Cs    1.1622891882244193E+01   -3.3161939888326275E+00   -4.3679945750949478E-01
Cs   -1.1139207965711899E+01   -2.6908095399174008E+00    2.2926257300038126E+00
Cs   -8.3438508554473234E+00    7.3098918036748630E+00   -1.2941767819447687E+01
Cs   -1.2989884532430965E+01    2.9021028391624060E+00    1.5785925504966061E+00
Cs   -1.0152798525591169E+01   -1.3570191101716885E+01   -2.9982848045564241E+00
Cs   -9.5512318273456760E+00   -7.5235723006265891E+00    2.5570411684002106E+00
Cs   -4.6082496804574600E+00   -7.2903670158741267E+00    2.1359937142519043E+00
Cs   -9.2644809084419286E+00   -1.1595180836984039E+01    8.7689664620839363E+00
Cs    1.2605780162701521E+01   -1.2590617640933233E+00    1.0626667204396467E+01
Cs    1.0038041763809867E+01    9.2643347230861703E+00    4.2778976326234792E+00
Cs   -1.2749387441763099E+01    2.5946782004186728E+00   -4.9680652541206936E+00
Cs   -6.6411077039055355E+00   -1.9459375683647748E+00   -4.6779324013746040E+00
Cs   -9.0504427451404190E+00   -1.3726790384344719E+01    3.0022483334044656E+00
Cs    1.2573646674201671E+01   -1.0413771929662497E+01   -6.0666032317920182E+00
Cs   -4.6766887369622925E+00   -1.4525916571540533E+01   -7.7791957433759258E+00
Cs   -1.9354442440965203E+00    7.9661076764930989E+00   -1.3695174345482737E+01
Cs    9.6045448498655339E-01   -1.3830935549038072E+01   -8.7578227527779475E+00
Cs   -1.8044156477446640E+00    9.2397428316047829E+00   -8.0787617234204774E+00
Cs   -6.7807047584375981E+00    1.2469244576623447E+01    9.0776539629008415E+00
Cs    2.1145245301344300E+00   -1.1355412840255040E+01    1.8468009502120379E+00
Cs   -1.1755780473169024E+01   -3.7981385280613824E+00   -9.8874621337900059E+00
Cs   -1.2467771836687946E+01    1.0363466011628363E+01    4.6084821452708624E+00
Cs    7.3084953966520807E+00   -1.0940101507762741E+01   -3.9655310087103635E+00
Cs    1.0648018276111088E+01    3.7717958673248769E-01   -1.2108144314635666E+01
Cs    4.5141371602966656E+00    1.3931678218131426E+01    9.4910100123466332E+00
Pb    3.0049973571281328E+00   -3.0939626793940893E+00   -2.8707847622932992E+00
Pb    3.9099467306040396E+00   -8.6284285532235430E+00   -1.5200412172851030E+00
Pb   -7.9465671823424913E+00   -4.0316316116976481E+00    4.5600364764278005E+00
Pb   -1.6866729215445966E+00   -9.8567794451081276E+00   -7.4988291087754355E-01
Pb    1.2474214779185870E+00    8.7805212438963522E+00   -4.7462020655181991E+00
Pb    2.1224997496620230E+00    3.0291210115754774E+00   -4.0098204351137676E+00
Pb    3.5907289220699945E+00   -1.7318738068611936E+00    2.7457667248275937E+00
Pb    4.6031278811168947E+00   -7.3816450157653888E+00    4.0731372271395268E+00
Pb   -4.6177114791176264E+00    8.9976277298474372E+00    1.1475110832477025E+00
Pb    1.1177515532913298E+00    9.5784408025987382E+00    1.1709296817248911E+00
Pb    2.5710616225548959E+00    3.9208975239120067E+00    1.9043699732697628E+00
Pb    4.3433226135557561E+00   -8.7807999388033253E-01    8.7309168983580800E+00
Pb    5.1502490362615934E+00   -6.5872782129655443E+00    9.7530348410333332E+00
Pb   -3.0792004028062427E+00    2.8680725159285614E+00    2.5958890131915684E+00
Pb    1.5541851232296768E+00    1.0789586182159447E+01    7.1099867547744875E+00
Pb    3.0374128175082786E+00    5.2720616695469138E+00    7.4162164151930545E+00
Pb   -1.3976573126182468E+00   -1.3539567121067404E+00    9.3575977389673657E+00
Pb   -6.8813744741834997E+00   -9.6563239863180623E+00    5.4131459857453352E+00
Pb   -9.3825784377905368E+00    1.0414981578217433E+00   -2.5521332570759383E+00
Pb   -2.7557920390636998E+00   -5.5215632700495263E+00   -7.8004170414270497E+00
Pb   -9.3937017583812077E-01   -8.5063700964641686E+00    4.9732899205891092E+00
Pb   -4.7165076590014614E+00    7.3606871056225982E+00   -4.4919949583661793E+00
Pb   -7.9883171879227066E-01   -7.6758778910255199E+00    1.0594705131207178E+01
Pb   -8.5162870565190634E+00   -4.8512473856081426E+00   -1.4163430289371739E+00
Pb   -7.5887858343934580E+00   -1.0629371213971334E+01   -4.3562763102930863E-01
Pb   -3.6907685890734769E+00    1.8620886328599022E+00   -3.1482753091086129E+00
Pb   -6.7485103992255828E+00   -8.5435394252686034E+00    1.1503616586369594E+01
Pb   -8.6684507195166969E+00   -6.1761183924560381E+00   -7.5469549954749038E+00
Pb    8.4961531366169503E+00   -2.8621656848814321E+00   -9.3192387572642552E+00
Pb    9.0249898201111538E+00   -8.8205530476809155E+00   -8.3258444629992479E+00
Pb   -2.0413594056082558E+00   -1.1569080277754589E+01   -6.4324117915469969E+00
Pb   -1.0480919737535908E+01    5.2676881468996948E+00   -9.5272236389604714E+00
Pb    3.0793701393235908E+00   -4.2253551723786460E+00   -8.4622260525948860E+00
Pb    3.4763761195907130E+00   -1.0336809524143618E+01   -7.1808638196809786E+00
Pb   -3.9338840101192614E+00    4.4001051266557006E-01   -8.8440800848360297E+00
Pb    1.1972883984763316E+00    6.9351038894176851E+00   -1.0666148303326173E+01
Pb    1.9836470996909377E+00    1.2915078747220459E+00   -9.6300837467915699E+00
Pb    8.6674236201062236E+00   -1.9344431722654092E+00   -3.6137608121945828E+00
Pb    9.8460406174701571E+00   -8.1147619591024132E+00   -2.3024144311367838E+00
Pb   -6.9969595969254561E+00   -2.9840664757586675E+00    1.0236815207631256E+01
Pb    7.1721905879538239E+00    8.7718378437807107E+00   -1.0832307128366823E+01
Pb   -9.6150554535507382E+00   -3.2797801088778528E-01   -8.2964582533797380E+00
Pb   -4.2004243084535311E+00    1.0149010573700258E+01    7.0510152702839761E+00
Pb    7.0900085159251383E+00    9.8387958871337755E+00   -4.9492203890643545E+00
Pb    7.9253003355579992E+00    4.0445624128489959E+00   -3.8249593493889216E+00
Pb    9.1076283830140934E+00   -3.5192233269819567E-01    2.0846813324748221E+00
Pb    1.0565459750904305E+01   -6.1365458455410762E+00    3.1134324516025096E+00
Pb    7.7552520829532687E+00    3.0101496681374713E+00   -1.0077405135966664E+01
Pb   -2.8104208586947923E+00    4.4090390959485051E+00    7.9933282320637593E+00
Pb    7.1236119739720314E+00    1.1084935619604769E+01    7.6140218959613037E-01
Pb    8.5905657999219809E+00    5.5400348100321155E+00    1.7413627174595903E+00
Pb    1.0022840313817852E+01    6.6287406412858352E-01    7.9209392779808949E+00
Pb    1.1284822375885103E+01   -5.6259625870506058E+00    8.8725134485149972E+00
Pb    7.3309815105849596E+00    1.2057107268804376E+01    6.6999952301999004E+00
Pb    8.8062298008222637E+00    6.2157899852952436E+00    7.6904536382387922E+00
Pb   -8.1049783359677274E+00    2.7307721957316167E+00    9.2384371070402214E+00
Pb   -2.2410041370142024E+00   -2.9636629882825178E+00    3.7472454563765778E+00
Pb   -1.0394801258011862E+01    7.1579053817678746E+00    1.8145581215123272E+00
Pb   -1.0848519192953120E+01    6.7162121551487601E+00   -3.8877353310162666E+00
Pb   -8.0317269679251044E+00   -1.1817819687980730E+01   -6.3294428844803328E+00
Pb   -4.6541502796597101E+00    6.0995691507716403E+00   -1.0152803643910477E+01
Pb   -8.7532300980338160E+00    1.5680967746165819E+00    3.4638699245622546E+00
Pb   -9.8293722075806524E+00    8.3675151648200092E+00    7.5593461965146567E+00
Pb   -2.6576299377490726E+00   -4.0820416485381816E+00   -2.1830435366571113E+00
Br    2.2379823910990665E-01   -3.7215409370418828E+00   -2.4353476678043524E+00
Br    2.4874749169273360E+00   -3.4966705963361844E+00   -5.5601927425073443E+00
Br    2.7407163579702774E+00    1.4258364409172042E-01   -3.2228585698126540E+00
Br    1.2399875599619148E+00   -1.0223005082611976E+01   -1.1893883294784875E+00
Br    3.5144720031754519E+00   -9.8308536368316375E+00   -4.1668289513271795E+00
Br    3.7740875796075559E+00   -6.0354042098554608E+00   -2.5780559340022688E+00
Br   -2.8868381174504463E+00   -4.8085206269089831E+00   -4.8747114062655053E+00
Br   -6.9948146287196460E+00   -3.3693385893548244E+00    7.1817374643481378E+00
Br   -3.0863201730133976E+00   -1.0613494696861046E+00   -2.6679955075487891E+00
Br    5.1162516839629957E+00   -1.1169609154066110E+01   -9.0831869576662949E-01
Br    1.1798971793999959E+01    2.9668456026889778E-01    1.7453334665278071E+00
Br   -4.6488603356587879E+00   -9.8156305211230297E+00   -8.3597412232465429E-01
Br   -1.0796712445621912E+01   -4.8347173172790061E+00    4.7275734108417549E+00
Br   -7.7755502396120626E+00   -4.3487707566641935E+00    1.6225542808504680E+00
Br    1.3172115476073614E+01   -5.0628779530184369E+00    2.7864111540153833E+00
Br   -1.8646625696455001E+00    7.9414895872268927E+00   -4.5890452613790709E+00
Br    1.4906189625854964E+00    7.9224288163674297E+00   -7.7938943605386752E+00
Br   -1.3759702197069906E-01    1.1111278478484744E+01   -5.2627353103887717E+00
Br   -7.1436861258323570E-01    1.9825591256032862E+00   -3.3947789112240030E+00
Br    1.8622434417494693E+00    2.1680537126761070E+00   -6.7862724119862783E+00
Br    1.7163103354689631E+00    6.0077095292637006E+00   -4.5233328096341605E+00
Br    8.8706504359738791E-01   -2.6899888051469150E+00    3.4994762299656306E+00
Br    3.4053931332748761E+00   -2.5300288751210589E+00   -1.5239873977806601E-01
Br    2.5774921663846708E+00    9.4637603522194325E-01    1.7627537308474506E+00
Br    1.8389475283256729E+00   -7.5907727371718812E+00    5.2401462320815995E+00
Br    3.3642317459790410E+00   -7.7454701754422883E+00    1.1462408640107575E+00
Br    4.7588842341287068E+00   -4.6753310669008714E+00    3.3454898526038441E+00
Br   -7.5711506326401636E+00    5.1620464513525892E+00   -9.6283479764123641E+00
Br   -4.9690093154540271E+00    5.4988037995775230E+00   -1.2803103559976101E+01
Br    5.2883957217950881E+00   -1.0164068761174152E+01    3.7976524492110597E+00
Br   -4.8379375284305528E+00    8.9367340162112381E+00   -1.1239059368929025E+01
Br   -3.7010110636005948E+00    3.0932153230751953E+00   -1.0071428114998477E+01
Br   -8.9759111668313718E+00   -1.3919303107738967E+00    4.1879746613102409E+00
Br   -2.1663463928452993E+00   -9.9497766634433837E+00   -3.8887126344904543E+00
Br   -7.6872092900926567E+00    8.1361365233966367E+00    1.1508612082951375E+00
Br   -4.4402649025108092E+00    8.0543830618879824E+00   -1.7883073439963533E+00
Br   -5.6831832360509544E+00    1.1166011953445521E+01   -2.9524549592395122E-01
Br   -1.7160811897315005E+00    8.8811607249391287E+00    1.2136343880894740E+00
Br    1.1781725287381222E+00    8.7137385290879603E+00   -1.5674440919719919E+00
Br    5.8151987588425302E-01    1.2628122950248484E+01    6.9717133556446453E-01
Br   -3.5955759514224173E-01    3.2722734837776666E+00    2.2102344133068645E+00
Br    2.0740166217544522E+00    3.3447895828649381E+00   -9.6888240735269715E-01
Br    1.3370379375100654E+00    6.5292936496544751E+00    1.0300397666871663E+00
Br    1.3324290436105171E+00   -8.6336507593023371E-01    9.1086174024278908E+00
Br    3.7915664553119566E+00   -1.3275614908755737E+00    5.7025485319008000E+00
Br    3.7427957017191291E+00    2.8063781375749342E+00    8.4811221959950771E+00
Br    2.0977063050077978E+00   -7.6669069435227781E+00    9.9868113184487193E+00
Br    5.6067770564013584E+00   -6.3175506113366993E+00    6.7062639200479639E+00
Br    4.3785550398440103E+00   -3.7017948051908198E+00    9.4821583435261552E+00
Br   -1.2092101060013537E+01    1.0557589490544392E+00    4.5526188753080561E+00
Br   -9.1173600944486441E+00    1.2789296022115786E+00    4.9590954445860941E-01
Br    6.3859145402986872E+00   -9.7586586137573583E+00    9.2526299108361609E+00
Br   -1.0267521869250343E+01    4.2103142523274979E+00    2.8893362935420681E+00
Br   -7.1613052754241346E+00    3.2203328569869683E-02    8.9949449800009322E+00
Br   -1.5830415013794203E+00   -6.6544130700353108E+00   -4.9901693910703271E-01
Br   -6.0453112646705431E+00    1.6512994613672505E+00    3.1505421972775274E+00
Br   -3.2419484345530925E+00    2.3938424123625204E+00   -1.8281776877587058E-01
Br   -4.3705387624792902E+00    6.0805110868724794E+00    2.3972553194165824E+00
Br   -1.3701583975161060E+00    1.0588830311040702E+01    6.8498478425268265E+00
Br    9.7877272292044537E-01    9.8135426560806636E+00    4.3278248265128365E+00
Br    5.2414329573121121E-01    1.3572402684450275E+01    5.9943064797193273E+00
Br    1.8190227500675127E-01    4.3760836978136570E+00    8.0507146192871506E+00
Br    2.9142028345903022E+00    4.4927487915866431E+00    4.7115493628171681E+00
Br    2.2779172047756755E+00    7.9834227898158252E+00    7.6606315984466100E+00
Br   -4.0857759476477069E+00   -2.7319340354543971E+00    9.7531537982079257E+00
Br    4.3825455447147004E+00   -7.9347339300621274E-03    1.1836902271496511E+01
Br   -1.5536667620372719E+00   -2.1888573026209541E+00    6.5338257367168273E+00
Br   -1.9247099058408335E+00    1.1337357532336285E+00    8.3131621955740016E+00
Br   -1.3478776121606233E+00   -1.2634974084181287E+01   -9.2239157201813360E-01
Br    5.2149844855716045E+00   -7.5514966990629526E+00    1.2491225929031055E+01
Br   -1.2146869250208825E+01    9.5983662262235647E-01   -2.2021581448559981E+00
Br    2.0908174445422270E-01   -1.1127585630912730E+01    5.2195435315230263E+00
Br   -1.1163935669405268E+01   -5.5923757547367856E+00   -1.0280814800436879E+00
Br    2.3082932651042287E+00    1.1099399896997134E+01    1.0097288213628994E+01
Br   -8.5825357841063905E+00   -5.8887248501821903E+00   -4.4922986665775761E+00
Br   -9.2581902707800428E+00   -2.2217986134893613E+00   -1.6526241091199869E+00
Br    3.7105589045466361E+00    5.9710710630496235E+00    1.0281207625039061E+01
Br   -7.9074413919091953E+00    6.9814627952683770E+00   -3.6720565550375301E+00
Br   -4.5057104078727903E+00    6.3329776218635541E+00   -7.2884876975773940E+00
Br   -5.2884161940123775E+00    1.0043869914915476E+01   -5.7069337284553656E+00
Br   -6.3497375969284304E+00    9.1301177884869655E-01   -2.6899416680430726E+00
Br   -9.8669738665634412E+00   -9.7343980582947101E+00    5.6981976520515838E+00
Br   -4.5416800600936211E+00    1.7143448250117534E+00   -6.0816294963997723E+00
Br   -5.3677012722614545E+00   -6.5612424246914580E+00   -7.3740766080015074E+00
Br   -2.9999313390318254E+00   -6.3240867163103260E+00   -1.0692551804115755E+01
Br   -2.9554459685368575E+00   -2.2673942400527909E+00   -7.9632419946535800E+00
Br   -2.6092677929506394E+00    5.3589184627038984E+00    1.0756610396742337E+01
Br   -3.8290597619686002E+00   -8.5389080668652255E+00    1.1156028879853222E+01
Br   -1.6033288889657797E+00   -7.7286731763470478E+00    7.8988603269551163E+00
Br   -5.9027479420308304E-01   -4.7654485227319361E+00    1.0473281133002093E+01
Br   -6.8886537661389307E+00   -9.9900854632840730E+00    2.1288731922614370E+00
Br   -7.1697435984262858E+00   -6.7228739727652274E+00    4.8307578282466572E+00
Br   -8.1483060887897256E+00    9.0196967742778611E+00    9.9799157551691415E+00
Br    9.5797369942955939E+00    1.2052918012177622E+01    8.6588029659064591E-02
Br   -6.6185443454233042E+00   -7.6513473868331632E+00    1.4286391503540724E+01
Br    9.7303004549531007E+00    1.0727489146270832E+01   -4.5877654394045466E+00
Br    1.1454405337416315E+01    5.2431658584697711E+00    1.8653372995310009E+00
Br   -7.1266232967110641E+00    2.7961354884927965E+00    1.2060117363253266E+01
Br   -1.1696223077801735E+01   -6.6407037069630679E+00   -7.2029732998950671E+00
Br    1.2368759733528805E+01    1.1721115745994282E+00    6.7168842905087089E+00
Br   -3.7066685911774968E+00   -9.3041910600245288E+00    4.9006815873054750E+00
Br    5.4074929755772079E+00   -3.1850832831184772E+00   -9.0335193877025901E+00
Br    7.9847244862113973E+00   -2.9888365338197564E+00   -1.2139568205037046E+01
Br    1.3842998941910375E+01   -4.6631725392833951E+00    7.9743870276629858E+00
Br    8.4665731375141799E+00    1.8652592023801229E-01   -9.4537253847021301E+00
Br   -6.9417327226891077E+00   -1.1640662505426757E+01    1.1313106786489742E+01
Br   -1.1380019303937237E+00   -9.5855057982239451E+00    2.0350181867667452E+00
Br   -1.7264679172854314E+00   -5.6349515871022122E+00    4.2597617084840671E+00
Br    6.2780648742749587E+00   -9.8030094030478114E+00   -7.1235277522153195E+00
Br   -4.9533710812035663E+00   -1.1492115729577371E+01   -6.5094944373300621E+00
Br    7.7109582716364198E+00   -8.8200323144054398E+00   -1.0821070942470564E+01
Br    8.5527344008469388E+00   -5.6149795832579281E+00   -8.3191193032214503E+00
Br   -8.2782737161685249E-01   -1.0491940411676161E+01    1.0382845564622082E+01