 # Version information for this restart file 
 # current date 2021-06-17 12:47:04.882
 # current working dir /user/ub2042/exercises/2_fitting/MM_MD_workdir/md_settings.005
 # Program compiled at                              Thu Apr 22 21:44:59 EDT 2021
 # Program compiled on                cpn-k07-07-02.compute.cbls.ccr.buffalo.edu
 # Program compiled for                                                    local
 # Source code revision number                                       git:36754bb
 &GLOBAL
   PRINT_LEVEL  LOW
   PROJECT_NAME cp2k
   RUN_TYPE  MD
 &END GLOBAL
 &MOTION
   &MD
     ENSEMBLE  NVT
     STEPS  10000
     TIMESTEP     2.4999999999999996E+00
     STEP_START_VAL  9500
     TIME_START_VAL     2.3749999999995998E+04
     ECONS_START_VAL    -1.5890036444644286E+01
     TEMPERATURE     3.0000000000000000E+02
     &BAROSTAT
       PRESSURE     1.0100000000000000E+00
       TIMECON     9.9999999999999982E+03
     &END BAROSTAT
     &THERMOSTAT
       TYPE  CSVR
       &CSVR
         TIMECON     9.9999999999999982E+03
         &THERMOSTAT_ENERGY
              -1.8939314759274695E-01
         &END THERMOSTAT_ENERGY
         &RNG_INIT
Wiener process for Thermostat # 1        1 F T F   4.8452024352072653E-01        1792175538.0        2267216916.0         572611013.0          57475850.0        4020803938.0        1984946838.0             12345.0             12345.0             12345.0             12345.0             12345.0             12345.0             12345.0             12345.0             12345.0             12345.0             12345.0             12345.0
         &END RNG_INIT
       &END CSVR
     &END THERMOSTAT
     &AVERAGES  T
       &RESTART_AVERAGES
         ITIMES_START  1
         AVECPU     1.7449111784832869E-02
         AVEHUGONIOT     0.0000000000000000E+00
         AVETEMP_BARO     0.0000000000000000E+00
         AVEPOT    -1.6322812687420203E+01
         AVEKIN     5.3048520139214206E-01
         AVETEMP     2.6909843805192929E+02
         AVEKIN_QM     0.0000000000000000E+00
         AVETEMP_QM     0.0000000000000000E+00
         AVEVOL     6.7483345830912264E+06
         AVECELL_A     1.8897261328855686E+02
         AVECELL_B     1.8897261328855686E+02
         AVECELL_C     1.8897261328855686E+02
         AVEALPHA     9.0000000000000000E+01
         AVEBETA     9.0000000000000000E+01
         AVEGAMMA     9.0000000000000000E+01
         AVE_ECONS    -4.6470787189580056E+00
         AVE_PRESS     0.0000000000000000E+00
         AVE_PXX     0.0000000000000000E+00
       &END RESTART_AVERAGES
     &END AVERAGES
     &PRINT
       &ENERGY  SILENT
         &EACH
           MD  10
         &END EACH
       &END ENERGY
     &END PRINT
   &END MD
   &PRINT
     &TRAJECTORY  SILENT
       &EACH
         MD  10
       &END EACH
     &END TRAJECTORY
     &CELL  SILENT
       &EACH
         MD  10
       &END EACH
     &END CELL
     &VELOCITIES  SILENT
       &EACH
         MD  10
       &END EACH
     &END VELOCITIES
     &FORCES  SILENT
       &EACH
         MD  10
       &END EACH
     &END FORCES
     &RESTART  SILENT
       &EACH
         MD  10
       &END EACH
     &END RESTART
   &END PRINT
 &END MOTION
 &FORCE_EVAL
   METHOD  FIST
   &MM
     &FORCEFIELD
       VDW_SCALE14     1.0000000000000000E+00
       EI_SCALE14     1.0000000000000000E+00
       SHIFT_CUTOFF  T
       DO_NONBONDED  T
       IGNORE_MISSING_CRITICAL_PARAMS  T
       &SPLINE
         R0_NB     2.5000000000000000E-01
       &END SPLINE
       &NONBONDED
         &LENNARD-JONES
           ATOMS Br Br
           EPSILON     1.2630795322675199E+02
           SIGMA     3.6900000000000004E+00
         &END LENNARD-JONES
         &LENNARD-JONES
           ATOMS Cs Pb
           EPSILON     8.6920055954630968E+01
           SIGMA     3.6699999999999999E+00
         &END LENNARD-JONES
         &LENNARD-JONES
           ATOMS Cs Cs
           EPSILON     2.2644852172126850E+01
           SIGMA     4.3300000000000001E+00
         &END LENNARD-JONES
         &LENNARD-JONES
           ATOMS Pb Pb
           EPSILON     3.3363415533600227E+02
           SIGMA     5.9000000000000004E+00
         &END LENNARD-JONES
         &LENNARD-JONES
           ATOMS Br Cs
           EPSILON     5.3481070753900497E+01
           SIGMA     3.6300000000000003E+00
         &END LENNARD-JONES
         &LENNARD-JONES
           ATOMS Br Pb
           EPSILON     2.0528187276773045E+02
           SIGMA     2.9800000000000000E+00
         &END LENNARD-JONES
       &END NONBONDED
       &CHARGE
         ATOM Cs
         CHARGE     4.4453099999999995E-01
       &END CHARGE
       &CHARGE
         ATOM Pb
         CHARGE     8.8906199999999991E-01
       &END CHARGE
       &CHARGE
         ATOM Br
         CHARGE    -4.4453099999999995E-01
       &END CHARGE
     &END FORCEFIELD
     &POISSON
       PERIODIC  XYZ
       &EWALD
         EWALD_TYPE  SPME
         GMAX  62 62 62
         O_SPLINE  4
       &END EWALD
     &END POISSON
     &PRINT
       &FF_INFO  LOW
         SPLINE_INFO  F
         SPLINE_DATA  F
       &END FF_INFO
     &END PRINT
   &END MM
   &SUBSYS
     &CELL
       A     1.0000000000000001E+02    0.0000000000000000E+00    0.0000000000000000E+00
       B     0.0000000000000000E+00    1.0000000000000001E+02    0.0000000000000000E+00
       C     0.0000000000000000E+00    0.0000000000000000E+00    1.0000000000000001E+02
       PERIODIC  XYZ
       MULTIPLE_UNIT_CELL  1 1 1
     &END CELL
     &COORD
Cs   -5.2974302001503415E-01   -1.2635530867785276E+00   -5.6645981243779433E+00
Cs    3.8843730382312847E-01   -6.2208863470502456E+00   -4.3192582897586664E+00
Cs    1.3481173019291299E+00   -1.1814384430968971E+01   -3.9676996575638923E+00
Cs   -4.5382505083926343E+00   -7.1753356229490706E+00   -4.4197969520133160E+00
Br   -7.4810428721668751E+00   -1.4779693777085720E+01   -6.1697433630236969E+00
Br    1.1791909850924185E+01   -2.5000576621835884E+00   -9.3233521882407633E+00
Br   -4.6450825586486468E+00    4.5624251487887085E-01   -1.2126707109047421E+01
Cs   -1.6007982781016885E+00    4.1249330108997970E+00   -7.4925987012572888E+00
Cs    4.4120287283039900E-01    5.0698158690232520E-01   -8.0568069330469649E-01
Cs    1.1357375811309178E+00   -5.1481792254338075E+00    1.0846855192912193E+00
Br   -5.0615900069048481E+00   -3.0321599637107153E+00    4.3531721683399081E+00
Cs   -9.0890466119409297E+00   -5.8685605152117137E+00    1.2804022531953496E+01
Cs    1.3622798278901804E+01   -9.7127528284492080E+00   -3.7746170291084502E-01
Cs   -6.6453652826499541E+00    4.0664852044974369E+00   -3.5215780256476925E-01
Cs   -2.3702613859662396E+00    1.1852905033446289E+01   -1.3318446418354386E+00
Cs   -8.8516304903299070E-01    5.0505769672483174E+00   -8.6530052908707786E-02
Cs    8.4118912235218468E-01    9.4319066568674614E-01    5.0966268162062631E+00
Cs    1.6160699550480278E+00   -4.3372582748330499E+00    6.8681881240404268E+00
Cs    2.6544969807620196E+00   -9.3929144994797777E+00    7.3210906571618937E+00
Cs   -5.9922224772813291E+00    7.0903972746289776E+00    1.0456315887086086E+01
Cs   -6.9088381937673997E+00   -3.2083493932702285E+00   -9.8566129142589016E+00
Cs   -4.4347398144692427E+00   -1.3105493078789829E+01   -3.4866252615525584E+00
Cs   -5.5865698539453499E+00    3.1203168668029124E-01    6.4990848650937698E+00
Br   -3.1741933003554794E+00   -2.9775944817202746E+00    9.0585642405688360E-01
Cs    3.0985210014952180E-01    6.5692902907653643E+00    4.9396019904664312E+00
Br    1.2358478094358917E+01   -8.0325805452857839E+00   -8.0265821510982498E+00
Cs    2.2346650217922535E+00   -3.9338611751161232E+00    1.1791775762606306E+01
Br   -2.5868924195347152E+00   -1.0379115106084769E-01    3.2265523828179807E+00
Br   -7.5430564644300544E+00   -2.1137319566376327E+00    1.3011624588557302E+01
Cs    8.7996981875264009E+00    1.2239054555783387E+01   -7.1309642333498529E+00
Cs   -9.9306524266060823E+00   -6.8321444554383657E+00    8.0052465186206536E+00
Cs   -4.2400453925997068E+00   -4.5495551762551276E+00    7.5764266567129761E+00
Cs   -7.8601380715913320E+00    9.0389458083378660E+00   -7.7146924856494445E+00
Br   -8.9602243336835485E+00   -9.0601566152623292E+00    1.1176280562886387E+01
Br   -7.4194930110014248E+00   -9.0279044950439857E+00    8.1562006158904818E+00
Cs   -1.0464257845239764E+01   -9.1563866806747427E+00   -3.6747705473596777E+00
Cs   -6.9911475831651630E+00    4.4847602727690301E+00   -5.8442224717867761E+00
Br   -6.7774214870379845E+00   -5.4503127366633164E+00    9.9269010509492954E+00
Cs    1.0854286349667980E+01    9.1827673906992029E+00    9.0794390952976691E+00
Br   -1.2349801648543304E+01    7.5130270062548643E+00    8.0205949973636361E+00
Br   -5.3567065624675498E+00   -4.4612416791943161E+00   -2.2724306805095380E+00
Cs    4.2960150501076627E-01    1.1216554391137925E+00    1.1254301651421896E+01
Cs    1.0128005720486179E+01    8.0875654342093117E+00   -1.5794089002002780E+00
Cs   -1.0572898350234370E+01   -9.9287302735640210E+00   -9.0836475509009045E+00
Cs    1.1495351977039107E+01    2.9487840624073725E+00    4.7763109466180573E+00
Cs   -1.3321292341595662E+01    7.5620144633578095E+00   -7.7208114439016748E+00
Cs    1.3769453978505673E+01   -8.2162211543088919E+00    6.3183958120971626E+00
Cs    6.7123915525346511E+00   -6.6187080539714662E+00   -1.1011516040161879E+01
Cs    8.4275018545917977E+00   -9.3355802372334100E+00    6.3095677125199510E+00
Cs   -3.9165849975090157E+00   -1.1799664395168801E+01    3.3729641721421380E+00
Cs    6.6145333645354176E+00   -1.1957820529946886E+01   -1.0929546966189497E+01
Cs    9.8017871026944174E+00    6.5411654062204114E+00   -7.5657443973255001E+00
Cs    9.7462310018201190E+00    1.4273646059183188E+01    3.8427309331347912E+00
Cs    9.2056708977504638E+00    5.5191262352168531E+00   -1.3378108339203484E+01
Cs    3.8650751404104766E-01   -7.3805385368823151E+00   -1.0533040584611916E+01
Cs   -1.1505079363879783E+01   -2.5885739103914061E+00   -4.5547844227573302E+00
Cs    7.6226940802196292E+00   -2.5210248213502378E+00    1.0959770774873149E+01
Cs    1.2834583080557906E+01   -2.4872446083022828E+00    5.5273107858721664E+00
Cs   -3.6354301812161003E+00   -9.0262383520499068E+00    1.4283470586976756E+01
Cs   -2.0288973800360179E+00   -1.6865627530411864E+00   -1.1996472762596925E+01
Cs   -2.3435891911528932E+00    1.2160801705457850E+01    3.7224146199504475E+00
Cs   -1.6310544170909196E+00    3.8999088490942202E+00   -1.2333855314482946E+01
Cs    5.5120275675721020E+00   -3.0684720386107700E-01   -6.1123321479337775E+00
Cs    7.2333338880913152E+00   -5.6074534875982582E+00   -5.6517839282212412E+00
Cs   -2.4168279387346088E+00   -1.1888880770369816E+01    9.3049501601594766E+00
Cs   -1.0733993696555604E+01   -2.5132341765253702E-01    6.2182238215640577E+00
Cs    4.8214289862165449E+00   -9.1683028378995379E-01   -1.1419770829775477E+01
Cs    4.6161704843661733E+00    1.0189410316668500E+01   -1.3080675632401137E+01
Cs   -4.6456823142582232E-01    7.4107999846169825E+00    9.2782389917694523E+00
Cs   -7.2583275895737822E+00    1.1417827205691923E+01    4.2772105485665826E+00
Cs    3.6826432249479040E+00    1.1178242304981801E+01   -7.6768870154481519E+00
Cs    3.6954050883219804E+00    5.0967356967782180E+00   -6.8012298114165315E+00
Cs    6.1405959115909967E+00    2.3739680906312705E-01   -1.4799727750137098E-01
Cs    7.1784305556584487E+00   -5.2866591093884425E+00    6.4508004568726729E-01
Cs    6.5408731702393812E+00   -1.1228130185260190E+01    1.2929487841185019E+00
Cs    3.4528698617306595E+00    4.7096432472063592E+00   -1.3005989819039554E+01
Cs   -6.7671434978482612E+00    5.8841055401711753E+00    4.9757572743278793E+00
Cs   -5.7290177143704160E+00   -8.1910024510374502E+00   -9.1105692446375937E+00
Cs    4.8370399929544456E+00    7.3110399811605431E+00   -1.8889461698247565E+00
Cs    6.7069635749889516E+00    2.0999217345817383E+00    5.2614682413380844E+00
Cs    7.2281769986801354E+00   -3.6665713057985458E+00    5.9481354308400629E+00
Cs   -8.0071738440399240E+00    1.0122593720726760E+01   -1.4163823488376344E+00
Cs    1.1113262006336722E+01    1.4377116059414310E+00   -2.0843973537072453E+00
Cs   -5.7253720078461852E+00   -4.2339904999081746E-01    6.3171019564826991E-01
Cs   -1.1102858518754207E+01    4.7148237483739548E+00    6.4959406315209094E+00
Cs   -5.5259523348090616E+00    6.8239812814036860E-01    1.1732394486344511E+01
Cs    3.3244008366155913E+00    1.2768585060836152E+01    3.2585598651230798E+00
Cs    5.3877470647896200E+00    7.7176046057677050E+00    4.1358087401680148E+00
Cs    6.6300139385831622E+00    2.5894956806192222E+00    1.0943158366736904E+01
Cs    3.7318909393468460E+00    1.2367559438768245E+01   -2.5750461114425551E+00
Cs    1.0809970468314887E+01    7.9003989028564636E-01   -6.9259976565556842E+00
Cs    1.1546436238204787E+01   -4.7061966358026659E+00   -6.6897214812515227E+00
Cs    8.6104493008899237E+00   -7.6611685653227619E+00    1.2746696992349055E+01
Cs    8.5876637350353864E+00    1.2837783310942095E+01   -1.8823641946355634E+00
Cs   -1.0935419983595597E+01   -2.2338743203677039E-01    1.2593744217350944E+01
Cs   -7.9898085091965356E+00    2.1667290008931563E+00   -1.1416838851864318E+01
Cs   -1.2810927520826082E+01    8.9725995722310667E+00   -1.0735591031591836E+00
Cs   -4.6184259798559930E+00   -4.7248032392204395E+00    1.2419638065694992E+01
Cs    3.5580767442243051E+00   -9.4354295530728631E+00    1.2156412143538430E+01
Cs    5.1229835012816318E+00    8.1854525628081856E+00    9.7200519086977835E+00
Cs    1.2113442791013389E+01   -3.6803310936970659E+00    2.4805131422355828E-01
Cs   -1.1434630026552227E+01   -1.6504020360213894E+00    8.0565117157843769E-01
Cs   -8.8804293966493653E+00    8.4112524404077966E+00   -1.3835747768906431E+01
Cs   -1.1681911308892381E+01    4.1012912259221537E+00   -2.1955616581294016E-01
Cs   -1.0279650652309547E+01   -1.3468024888812604E+01   -3.1717932398294124E+00
Cs   -1.0381945083643743E+01   -7.2414802682517356E+00    2.3968343703080035E+00
Cs   -3.9887818049407686E+00   -6.0559313144943667E+00    1.2680189332389447E+00
Cs   -9.4334460737277492E+00   -1.1306942400441777E+01    9.0816934583906139E+00
Cs    1.3046687658386736E+01   -1.4337225468710708E+00    1.0751018326156611E+01
Cs    9.8267685104314513E+00    9.2981022296781255E+00    4.3611094899356466E+00
Cs   -1.2955197864058063E+01    2.4308533259441876E+00   -7.1705787638438272E+00
Cs   -6.6827051136259055E+00   -1.8112249238951736E+00   -5.1620945603239106E+00
Cs   -8.9461971288179871E+00   -1.3062958266270872E+01    3.0460658800547828E+00
Cs    1.3173810290292106E+01   -1.0294407236993168E+01   -6.1040751771071617E+00
Cs   -5.1250715836636678E+00   -1.3636079561344854E+01   -8.8642983456195736E+00
Cs   -2.3768524012236356E+00    9.2906567065784049E+00   -1.2944765013584391E+01
Cs    1.4277935905947186E+00   -1.3028358516677232E+01   -8.0425789293707428E+00
Cs   -2.4414133536194353E+00    1.0192098278625862E+01   -7.8822137227773057E+00
Cs   -7.1902918062866119E+00    1.1119262174965968E+01    1.0736540823696954E+01
Cs    2.3075125482247922E+00   -1.0789078849253924E+01    1.8385897136893830E+00
Cs   -1.1736644369598043E+01   -4.3624128726971083E+00   -1.0221891596042020E+01
Cs   -1.3341734909628753E+01    8.8405021676929518E+00    4.8506714517866945E+00
Cs    7.4248771228694004E+00   -1.0353372797240569E+01   -4.7786834712082706E+00
Cs    1.0336365141887010E+01   -3.9038514382199185E-01   -1.2659207057346364E+01
Cs    4.5846009581715315E+00    1.2440269016614712E+01    1.0271395705410322E+01
Pb    3.2661464402560902E+00   -3.0375927988447438E+00   -2.6741740747906926E+00
Pb    4.1007740404039792E+00   -8.4581160599826219E+00   -1.7340756246163471E+00
Pb   -8.1536083249215938E+00   -3.6877157321329723E+00    4.3615451339478541E+00
Pb   -1.5493031153107126E+00   -9.2285140737993707E+00   -1.3506300043666861E+00
Pb    1.3277428175857500E+00    8.4951179777895085E+00   -4.8228238298342010E+00
Pb    2.1864526823598180E+00    2.6587331307806741E+00   -4.0858201662347700E+00
Pb    3.7535467850677775E+00   -1.8266533927257740E+00    3.3158481438251539E+00
Pb    4.7527103640447317E+00   -7.3511800188430509E+00    3.9234769704563535E+00
Pb   -4.1862318432384624E+00    8.7781374120565907E+00    1.5702857388195952E+00
Pb    1.5602250464897314E+00    9.5135789976129139E+00    1.0248313535994336E+00
Pb    2.8598073874136305E+00    3.4674350962591900E+00    2.0670930507907364E+00
Pb    4.0528051402270053E+00   -9.2785382991878562E-01    9.0460948020853635E+00
Pb    5.3226612377440219E+00   -6.6989513061952062E+00    9.6463676690070059E+00
Pb   -3.2292954143341710E+00    2.8818999996021084E+00    2.7532158895278691E+00
Pb    1.8960083661281935E+00    1.0254815445800947E+01    6.9290836813868584E+00
Pb    2.9236515435364412E+00    4.5477924447444131E+00    8.0528895928899029E+00
Pb   -1.8285569691238612E+00   -1.7230104720916966E+00    9.4021069343240882E+00
Pb   -7.1122650118466346E+00   -9.3487783611259996E+00    4.9977226773636545E+00
Pb   -9.1112522642966720E+00    7.9660190935502917E-01   -2.8473279301947465E+00
Pb   -3.0302927058106390E+00   -4.6322610557623474E+00   -7.6546860612802670E+00
Pb   -1.3819154233480786E+00   -8.6437255848071128E+00    5.0289094239109335E+00
Pb   -4.4812083534145968E+00    7.9563542885715401E+00   -4.2303064677142554E+00
Pb   -7.4094690609995617E-01   -7.4516291675651685E+00    1.0766241571670802E+01
Pb   -8.9808111149587919E+00   -4.9404216532184844E+00   -1.3369310606113001E+00
Pb   -7.3992765778359386E+00   -1.0696722539331708E+01   -8.7065841676775257E-01
Pb   -3.5052168634655492E+00    2.3190920708889990E+00   -3.1762866883510812E+00
Pb   -6.1904362395646517E+00   -8.3819751264022013E+00    1.0705704810956169E+01
Pb   -8.9474880804469272E+00   -5.9293840338715684E+00   -7.2792921404052997E+00
Pb    8.6702788822127506E+00   -2.7858712694371199E+00   -9.3622853316521510E+00
Pb    9.6604767070264206E+00   -9.2459304187152842E+00   -8.6468106757961305E+00
Pb   -2.2310469085121296E+00   -1.0499728648582858E+01   -6.8392090451385332E+00
Pb   -1.0457342196659077E+01    5.3775232945074540E+00   -1.0086052557746640E+01
Pb    3.0472578965115082E+00   -3.9036001950801147E+00   -8.4624251987107204E+00
Pb    3.6545667363790137E+00   -9.6672459855768853E+00   -7.4840747138657955E+00
Pb   -4.3689540673897715E+00    7.4240598482036013E-01   -9.1354807889127549E+00
Pb    8.5706390856504222E-01    7.4331371279123877E+00   -1.0564234544944210E+01
Pb    1.5398063855404032E+00    1.4617055856008894E+00   -9.8384516263361146E+00
Pb    9.2014204746932471E+00   -1.9159798544606741E+00   -3.2344886115445868E+00
Pb    1.0062888997193504E+01   -7.6265966842957011E+00   -2.4213895826373766E+00
Pb   -7.6544576397818416E+00   -2.6789738059138837E+00    1.0007658501929935E+01
Pb    7.1780113964506560E+00    8.5013966190978181E+00   -1.0533474593508030E+01
Pb   -9.9151603742549490E+00   -4.1340356059039973E-01   -8.5646034773313779E+00
Pb   -4.1144727469068600E+00    9.6187599718514587E+00    7.4413598588005616E+00
Pb    7.3046985392047130E+00    9.5025722125860383E+00   -4.7192061231905704E+00
Pb    7.8195443880247453E+00    3.7049888403083702E+00   -4.3366271627634347E+00
Pb    9.8885259385764641E+00   -8.8917869517351522E-01    2.5205138812390895E+00
Pb    1.0484116357035582E+01   -6.5208891139815162E+00    3.2000486945360453E+00
Pb    7.3479664029195684E+00    2.9839694669810877E+00   -1.0017413151709025E+01
Pb   -2.7128014748086327E+00    4.0012619226877471E+00    8.4477685267117710E+00
Pb    7.1440727115376017E+00    1.0856328975677901E+01    1.1745205238041201E+00
Pb    8.5586299436827709E+00    4.7468763389023421E+00    1.2898469861500221E+00
Pb    9.9025598087675633E+00    5.0881603418258747E-01    7.8957677285285550E+00
Pb    1.0758987438570728E+01   -5.5783199489373940E+00    8.8958730815640816E+00
Pb    7.4240312449294779E+00    1.1560988357200889E+01    7.0699344459347557E+00
Pb    8.5885864797869687E+00    5.9390750948363245E+00    6.9095398513564072E+00
Pb   -8.6725935686117985E+00    3.2008663293709523E+00    9.3504989612307341E+00
Pb   -2.2195816951404441E+00   -2.8814904612112340E+00    3.7583513001301010E+00
Pb   -1.0033335289557300E+01    7.6175249382815666E+00    2.0369125208700107E+00
Pb   -1.0248274600614618E+01    6.7166521136471165E+00   -4.3158118373524443E+00
Pb   -8.1133964218913519E+00   -1.2057068067078127E+01   -6.3773338958780954E+00
Pb   -5.0848024283208684E+00    6.7574702179123491E+00   -1.0111239774960291E+01
Pb   -8.9099122274418345E+00    1.9699897570922846E+00    3.0228806399015973E+00
Pb   -9.9934709324651010E+00    8.7666037132527599E+00    7.7566594379889571E+00
Pb   -2.7736587757706248E+00   -3.4858778894405740E+00   -1.9981869680977988E+00
Br    3.0168621134141504E-01   -3.2673001221998668E+00   -2.4582985042101355E+00
Br    3.1172112128920002E+00   -3.4817121677908367E+00   -5.3818651792994050E+00
Br    2.5515448261176883E+00   -2.1973520265113594E-01   -3.1736096471279391E+00
Br    1.1993318790068332E+00   -8.6782606692956286E+00   -1.4908660934618791E+00
Br    4.2593732332369560E+00   -9.3442794399849411E+00   -4.4729183295431412E+00
Br    3.6690821027068674E+00   -5.6380904949285542E+00   -1.6157738068201131E+00
Br   -2.5586353574591887E+00   -3.7223105332583564E+00   -5.0745112303164781E+00
Br   -8.1774063174770433E+00   -2.7863847023956856E+00    7.2155023838332388E+00
Br   -3.2766428273741499E+00   -7.2018626607907188E-01   -2.1889457602468934E+00
Br    3.7434212055288123E+00   -1.1429824937196717E+01   -9.7569606880124160E-01
Br    1.2531966655686606E+01   -7.9537682448159286E-01    2.4117621956535666E+00
Br   -4.7608783891483011E+00   -9.0340129324852843E+00   -1.0992230337667366E+00
Br   -1.1140486705287566E+01   -4.2139922907032252E+00    4.5011546048304441E+00
Br   -8.2920512238560082E+00   -4.8265714830124447E+00    1.7080941879149711E+00
Br    1.3075798467111852E+01   -5.5630643618395785E+00    3.1870308277119377E+00
Br   -1.7558187299359747E+00    8.6724130342621297E+00   -4.3459039467986189E+00
Br    1.3942611676692813E+00    7.5729096360940931E+00   -7.7344531016740738E+00
Br    1.9476934042880669E+00    1.1255378369780312E+01   -5.0221216222882354E+00
Br   -5.8111370262114848E-01    2.2824368225422687E+00   -3.4981655966463259E+00
Br    1.3822797253283465E+00    2.3346984885918789E+00   -6.9766545393614541E+00
Br    1.7637975189405108E+00    5.4808943652757849E+00   -4.1978012866301162E+00
Br    9.5085889958877945E-01   -2.4168455964410147E+00    3.5680598448638929E+00
Br    3.3956884049059384E+00   -2.1651518309149598E+00    2.2657686691060766E-01
Br    3.1729062081438171E+00    8.0826430293597840E-01    2.5026186426402486E+00
Br    1.5715456860220058E+00   -7.0833297252518230E+00    4.7650810222384017E+00
Br    4.5462908112329661E+00   -8.2908565200601725E+00    1.1548972112734799E+00
Br    4.5703094452076201E+00   -4.7726905001656430E+00    3.0639318283331085E+00
Br   -7.6933557694327330E+00    5.8762445719709016E+00   -9.1454424988163652E+00
Br   -5.2918941282991403E+00    6.1962939287093182E+00   -1.2708254164327846E+01
Br    5.1973466286917596E+00   -1.0099307464909989E+01    4.2524941923507509E+00
Br   -4.9498786678720101E+00    9.5096057828897766E+00   -1.0879863001378011E+01
Br   -4.2407733705110697E+00    3.6184725995826108E+00   -9.6744212820556115E+00
Br   -8.4624244845709526E+00   -9.5177903832759680E-01    3.6793712693165017E+00
Br   -2.0959925230970877E+00   -9.4503427195804424E+00   -4.0175258434792447E+00
Br   -7.2228911017564830E+00    8.8439822330665354E+00    1.9097858857679033E+00
Br   -4.7997394372841926E+00    8.5001026782517570E+00   -1.2969486917881614E+00
Br   -4.7230585477599556E+00    1.1503547641165108E+01    1.3023491516820023E+00
Br   -1.3929640212314016E+00    9.2138892421311720E+00    1.4128904217384388E+00
Br    1.6892373315027369E+00    8.9502283090016235E+00   -1.8057562163385050E+00
Br    6.1807202391014560E-01    1.2398975247162092E+01    4.4697730737733121E-01
Br   -8.9775866256771100E-02    2.7291805851704756E+00    1.7213151515897192E+00
Br    2.6213199483125682E+00    3.1622973275715331E+00   -9.0947809610483854E-01
Br    2.6514579621095007E+00    6.2996833551189697E+00    9.4586893812814687E-01
Br    1.2311489355556651E+00   -1.7760877517486360E+00    9.1996638493547902E+00
Br    3.9861239575952911E+00   -1.8772057733662368E+00    6.1108445772399023E+00
Br    3.1172560306191857E+00    1.6713119434127726E+00    8.1230348345155132E+00
Br    1.8950233095056292E+00   -6.8228147901722878E+00    9.7729011230375136E+00
Br    4.9467262625094239E+00   -6.5678966486034209E+00    6.5099785333501794E+00
Br    4.7047851705275141E+00   -3.9045885658936310E+00    9.2090891571857050E+00
Br   -1.1465695979909935E+01    1.3102745455813343E+00    3.4297913843106365E+00
Br   -8.7252366459901403E+00    1.2099594431205218E+00    1.6585626204461179E-01
Br    5.6170189156216219E+00   -9.6413446143627599E+00    8.8393563391407213E+00
Br   -9.1410374039601248E+00    4.8306528783560649E+00    2.7068624202815212E+00
Br   -7.7565673959308370E+00    4.9245381513321329E-01    9.5042545474055036E+00
Br   -2.0304925897036119E+00   -6.2079530899478117E+00   -1.5527408761647377E+00
Br   -5.8885966620040282E+00    2.0263139520636981E+00    3.2588900366078848E+00
Br   -3.7616181291425748E+00    2.6816201693529944E+00   -1.3409981994209633E-01
Br   -3.5392912514422625E+00    5.8317727605635969E+00    2.1909014349797009E+00
Br   -1.3108422602273606E+00    9.3867023676741734E+00    6.7421046098502764E+00
Br    1.9788150927211905E+00    9.1277380046519205E+00    4.0905662238165483E+00
Br    7.5471235495279865E-01    1.2582914742212321E+01    5.5170567741708183E+00
Br    1.1705558581713114E-01    4.3188579420167139E+00    7.8575579248247402E+00
Br    2.5067939798629024E+00    4.0459482862517682E+00    4.9070416182135279E+00
Br    2.3398558182119982E+00    7.2540522378671142E+00    7.4711422225477397E+00
Br   -4.7920363901192857E+00   -2.1542764456434207E+00    9.8851713635520042E+00
Br    4.1262139478123032E+00   -1.1277362757484723E+00    1.1910594800126134E+01
Br   -2.6485727489370721E+00   -1.8097692065306026E+00    6.6371949830459842E+00
Br   -1.9068743541194106E+00    1.1492815159342091E+00    8.8825956965262307E+00
Br   -2.0694197202954761E+00   -1.2113050432735548E+01   -7.5736343241849768E-01
Br    5.2106250192727979E+00   -6.6265600207788369E+00    1.2435161010287567E+01
Br   -1.1697773033186849E+01   -1.4133210667963985E-02   -2.1636696036388292E+00
Br    2.1095787230120014E-01   -1.0868542942974567E+01    5.2797954271670600E+00
Br   -1.1939842276293698E+01   -4.7945358095751329E+00   -1.0804615773092439E+00
Br    1.9090939174665200E+00    9.9907326348067826E+00    9.8845131977760214E+00
Br   -9.0043570370858657E+00   -4.8211618658163449E+00   -4.4033895540222270E+00
Br   -8.5695612218560271E+00   -2.0700775951326187E+00   -2.0709613391612653E+00
Br    4.4876415177047262E+00    4.8181840093716097E+00    1.0526288950880886E+01
Br   -7.4518432604447744E+00    7.5216813104336477E+00   -4.5103097720590855E+00
Br   -4.7130383525004182E+00    7.4836499173193873E+00   -7.2124058221855201E+00
Br   -4.6447948636158811E+00    1.0589376714591742E+01   -5.2504175143280554E+00
Br   -6.2264040390074973E+00    1.5913422811678304E+00   -2.9788349054240562E+00
Br   -9.9054893084193196E+00   -1.0308079524711612E+01    4.8168456673868700E+00
Br   -3.4024909953379767E+00    1.2912052216283421E+00   -6.2717394881131288E+00
Br   -5.8653690922223776E+00   -5.2260232452830104E+00   -7.0796785976419807E+00
Br   -2.6867958500949909E+00   -5.1037225467974441E+00   -1.0823014397678893E+01
Br   -3.8248955535184459E+00   -1.9243841992968784E+00   -8.8256268000606646E+00
Br   -2.0630933651527972E+00    4.5505915766993814E+00    1.1204494160058704E+01
Br   -3.5831419554721493E+00   -7.9198003775703754E+00    1.0933957508792162E+01
Br   -1.1831652652588582E+00   -8.6614345483922630E+00    8.0313438935876196E+00
Br   -1.7372078673284668E+00   -4.9014114642276532E+00    9.8264843130652899E+00
Br   -6.9344734036736639E+00   -9.9412408528712355E+00    2.0704961698217481E+00
Br   -7.4285787940970200E+00   -6.5085746267935640E+00    4.7825339124912043E+00
Br   -1.0297834067567880E+01    1.0412256247067763E+01    9.9253796108344190E+00
Br    1.0157040015020291E+01    1.2040226034332608E+01    1.1789263363980291E+00
Br   -6.4291743749008665E+00   -7.3333520970514288E+00    1.3507381862396084E+01
Br    9.6742772402453348E+00    1.0896772136252855E+01   -4.3347471078151152E+00
Br    1.1092415755956795E+01    5.9820694366024929E+00    6.7045280275042185E-01
Br   -8.7243214666243567E+00    2.6491036518720006E+00    1.2514845487542090E+01
Br   -1.1635857406335662E+01   -6.8501062108981632E+00   -7.7998028944059117E+00
Br    1.2722278083731702E+01    4.1947937564610316E-01    7.7410035309718372E+00
Br   -4.0874490891965660E+00   -9.1745349000249909E+00    5.6395939664151449E+00
Br    5.8021108369040668E+00   -3.6477501645373964E+00   -9.0494825314157783E+00
Br    8.0065833565154758E+00   -3.4508164835136537E+00   -1.2111362703862870E+01
Br    1.3719930077239466E+01   -4.7622961111377098E+00    8.2337657160462534E+00
Br    7.8555395925308247E+00   -8.4227498036086364E-03   -9.5618020074946113E+00
Br   -5.0571850512664698E+00   -1.1023393672526252E+01    1.1967488323577665E+01
Br   -1.6723872917407743E+00   -8.9785300537082247E+00    2.1773076506145674E+00
Br   -1.8974335844098198E+00   -5.5612027709511906E+00    4.4951406286016571E+00
Br    6.6925586009288054E+00   -9.9438043026750726E+00   -8.3068905225719938E+00
Br   -4.9585311552231186E+00   -1.1202016953509283E+01   -6.4216889641938204E+00
Br    9.4693269745543631E+00   -9.3496572590951992E+00   -1.1510603077094997E+01
Br    9.0636692894103703E+00   -5.8712161814034447E+00   -8.9001483665838350E+00
Br   -6.0768285675508571E-01   -1.0198965019154516E+01    1.1759315068065590E+01