 # Version information for this restart file 
 # current date 2021-06-17 12:46:30.001
 # current working dir /user/ub2042/exercises/2_fitting/MM_MD_workdir/md_settings.005
 # Program compiled at                              Thu Apr 22 21:44:59 EDT 2021
 # Program compiled on                cpn-k07-07-02.compute.cbls.ccr.buffalo.edu
 # Program compiled for                                                    local
 # Source code revision number                                       git:36754bb
 &GLOBAL
   PRINT_LEVEL  LOW
   PROJECT_NAME cp2k
   RUN_TYPE  MD
 &END GLOBAL
 &MOTION
   &MD
     ENSEMBLE  NVT
     STEPS  10000
     TIMESTEP     2.4999999999999996E+00
     STEP_START_VAL  7500
     TIME_START_VAL     1.8749999999998061E+04
     ECONS_START_VAL    -1.5890036444644286E+01
     TEMPERATURE     3.0000000000000000E+02
     &BAROSTAT
       PRESSURE     1.0100000000000000E+00
       TIMECON     9.9999999999999982E+03
     &END BAROSTAT
     &THERMOSTAT
       TYPE  CSVR
       &CSVR
         TIMECON     9.9999999999999982E+03
         &THERMOSTAT_ENERGY
              -1.6438380476673708E-01
         &END THERMOSTAT_ENERGY
         &RNG_INIT
Wiener process for Thermostat # 1        1 F T F   1.2027761634983569E+00         410547301.0        2880645229.0         554475243.0         200345305.0        3532470403.0        3188192634.0             12345.0             12345.0             12345.0             12345.0             12345.0             12345.0             12345.0             12345.0             12345.0             12345.0             12345.0             12345.0
         &END RNG_INIT
       &END CSVR
     &END THERMOSTAT
     &AVERAGES  T
       &RESTART_AVERAGES
         ITIMES_START  1
         AVECPU     1.7451564620124843E-02
         AVEHUGONIOT     0.0000000000000000E+00
         AVETEMP_BARO     0.0000000000000000E+00
         AVEPOT    -1.6330920902625770E+01
         AVEKIN     5.2051852284102695E-01
         AVETEMP     2.6404265586680492E+02
         AVEKIN_QM     0.0000000000000000E+00
         AVETEMP_QM     0.0000000000000000E+00
         AVEVOL     6.7483345830910886E+06
         AVECELL_A     1.8897261328855703E+02
         AVECELL_B     1.8897261328855703E+02
         AVECELL_C     1.8897261328855703E+02
         AVEALPHA     9.0000000000000000E+01
         AVEBETA     9.0000000000000000E+01
         AVEGAMMA     9.0000000000000000E+01
         AVE_ECONS    -4.6436769730689917E+00
         AVE_PRESS     0.0000000000000000E+00
         AVE_PXX     0.0000000000000000E+00
       &END RESTART_AVERAGES
     &END AVERAGES
     &PRINT
       &ENERGY  SILENT
         &EACH
           MD  10
         &END EACH
       &END ENERGY
     &END PRINT
   &END MD
   &PRINT
     &TRAJECTORY  SILENT
       &EACH
         MD  10
       &END EACH
     &END TRAJECTORY
     &CELL  SILENT
       &EACH
         MD  10
       &END EACH
     &END CELL
     &VELOCITIES  SILENT
       &EACH
         MD  10
       &END EACH
     &END VELOCITIES
     &FORCES  SILENT
       &EACH
         MD  10
       &END EACH
     &END FORCES
     &RESTART  SILENT
       &EACH
         MD  10
       &END EACH
     &END RESTART
   &END PRINT
 &END MOTION
 &FORCE_EVAL
   METHOD  FIST
   &MM
     &FORCEFIELD
       VDW_SCALE14     1.0000000000000000E+00
       EI_SCALE14     1.0000000000000000E+00
       SHIFT_CUTOFF  T
       DO_NONBONDED  T
       IGNORE_MISSING_CRITICAL_PARAMS  T
       &SPLINE
         R0_NB     2.5000000000000000E-01
       &END SPLINE
       &NONBONDED
         &LENNARD-JONES
           ATOMS Br Br
           EPSILON     1.2630795322675199E+02
           SIGMA     3.6900000000000004E+00
         &END LENNARD-JONES
         &LENNARD-JONES
           ATOMS Cs Pb
           EPSILON     8.6920055954630968E+01
           SIGMA     3.6699999999999999E+00
         &END LENNARD-JONES
         &LENNARD-JONES
           ATOMS Cs Cs
           EPSILON     2.2644852172126850E+01
           SIGMA     4.3300000000000001E+00
         &END LENNARD-JONES
         &LENNARD-JONES
           ATOMS Pb Pb
           EPSILON     3.3363415533600227E+02
           SIGMA     5.9000000000000004E+00
         &END LENNARD-JONES
         &LENNARD-JONES
           ATOMS Br Cs
           EPSILON     5.3481070753900497E+01
           SIGMA     3.6300000000000003E+00
         &END LENNARD-JONES
         &LENNARD-JONES
           ATOMS Br Pb
           EPSILON     2.0528187276773045E+02
           SIGMA     2.9800000000000000E+00
         &END LENNARD-JONES
       &END NONBONDED
       &CHARGE
         ATOM Cs
         CHARGE     4.4453099999999995E-01
       &END CHARGE
       &CHARGE
         ATOM Pb
         CHARGE     8.8906199999999991E-01
       &END CHARGE
       &CHARGE
         ATOM Br
         CHARGE    -4.4453099999999995E-01
       &END CHARGE
     &END FORCEFIELD
     &POISSON
       PERIODIC  XYZ
       &EWALD
         EWALD_TYPE  SPME
         GMAX  62 62 62
         O_SPLINE  4
       &END EWALD
     &END POISSON
     &PRINT
       &FF_INFO  LOW
         SPLINE_INFO  F
         SPLINE_DATA  F
       &END FF_INFO
     &END PRINT
   &END MM
   &SUBSYS
     &CELL
       A     1.0000000000000001E+02    0.0000000000000000E+00    0.0000000000000000E+00
       B     0.0000000000000000E+00    1.0000000000000001E+02    0.0000000000000000E+00
       C     0.0000000000000000E+00    0.0000000000000000E+00    1.0000000000000001E+02
       PERIODIC  XYZ
       MULTIPLE_UNIT_CELL  1 1 1
     &END CELL
     &COORD
Cs   -1.5758631002250609E-01    1.3823753589376309E-01   -6.1884739353542342E+00
Cs    4.0873571458579017E-01   -7.2832063343445608E+00   -5.4305288806201686E+00
Cs    1.2077821083856015E+00   -1.2787558911889997E+01   -3.4282592472326092E+00
Cs   -5.9338065022522537E+00   -7.5082756543665488E+00   -4.5298125910717335E+00
Br   -7.0041042510327616E+00   -1.3215053489218104E+01   -7.4089373489325974E+00
Br    1.1951869130878586E+01   -2.8826971590518888E+00   -8.5472666921811378E+00
Br   -3.6575861909462253E+00    1.6317047726074446E-01   -1.1472749648518196E+01
Cs   -1.2708228741129959E+00    4.7801163385878178E+00   -6.2006937914407629E+00
Cs    8.7169091877678084E-01   -3.2370867057503122E-01   -9.4456318189969890E-01
Cs    7.8936457454336295E-01   -5.3135054152822292E+00    9.8108933542234891E-02
Br   -5.8433142303647863E+00   -3.3221197444671811E+00    3.9193091785895851E+00
Cs   -1.0322442324770854E+01   -6.0618272518603042E+00    1.1841705724142942E+01
Cs    1.2603780231468448E+01   -8.4171572830272208E+00    2.4412040127638196E-01
Cs   -5.9223448630990534E+00    4.9411473189494464E+00   -4.9771971970483753E-01
Cs   -1.2766657286536809E+00    1.0892051682655119E+01   -1.9289317557093786E+00
Cs   -1.0987283761458935E+00    5.6999833884767375E+00   -1.6089822818535324E+00
Cs   -3.0732976561405406E-01    1.3731195077200611E-01    5.8306566199181260E+00
Cs    1.3547490147214907E+00   -5.4476979013946156E+00    6.3842516054744989E+00
Cs    7.6824692914877724E-01   -1.0064992128855220E+01    6.8481401970034081E+00
Cs   -5.4175973498126773E+00    7.9351925948140352E+00    1.2602168275312998E+01
Cs   -6.0742189119607159E+00   -2.7182271989856241E+00   -1.1658832866117107E+01
Cs   -4.2429944127774712E+00   -1.2921126379270957E+01   -4.8212018187436332E+00
Cs   -5.8205644192937838E+00    1.1264090659706584E-01    6.1004574864755261E+00
Br   -2.3097757036461903E+00   -2.9098873550410151E+00    5.0547396336819139E-01
Cs   -1.0388912117119629E+00    6.5382966870082102E+00    5.1080416016974199E+00
Br    1.2463619783622576E+01   -9.7835163903251310E+00   -7.9885771024949968E+00
Cs    7.0811981811523816E-01   -4.1709947962776743E+00    1.1741476766300353E+01
Br   -3.1186198521018933E+00   -1.1309632237113873E-01    3.1683218472470456E+00
Br   -7.0393959618694382E+00   -3.6725107804139929E+00    1.2550745414113701E+01
Cs    9.5325865014115951E+00    1.2160732050814493E+01   -7.4688758572844955E+00
Cs   -1.0030568890124801E+01   -6.3433110595131188E+00    6.8553931763203142E+00
Cs   -5.1205584478509705E+00   -5.1798083591823483E+00    7.4105771389544532E+00
Cs   -7.2905835767575180E+00    9.6993422763535229E+00   -6.6902392933479451E+00
Br   -1.0539352661997610E+01   -8.8619579238471839E+00    1.0451659038195157E+01
Br   -8.2985011177658876E+00   -8.9462191399463720E+00    7.1176287600521970E+00
Cs   -1.0839525735619496E+01   -7.9034669114979259E+00   -5.2489216550587354E+00
Cs   -6.9375335450682503E+00    4.0086723622510574E+00   -6.1445383360238193E+00
Br   -7.8340862485964076E+00   -5.9158429646656749E+00    9.7948208807488477E+00
Cs    1.0943872798283259E+01    9.1749908607861190E+00    1.0036880087223139E+01
Br   -1.2038014663222231E+01    8.1682291669186124E+00    8.1165476033596757E+00
Br   -5.8139564401735440E+00   -4.2590469397678277E+00   -1.6709953095928429E+00
Cs    7.3427875471594339E-01    8.7352985877523115E-01    1.2393160663305705E+01
Cs    1.0447792501425544E+01    7.8719489580369668E+00   -2.0561254251683687E+00
Cs   -1.0005406449532510E+01   -8.3276178248739736E+00   -1.0161558643482929E+01
Cs    1.2107850540296239E+01    1.2409058012883265E+00    4.8685392500297242E+00
Cs   -1.3353372539137000E+01    8.0940249473073553E+00   -5.2560221140800856E+00
Cs    1.2092330640199881E+01   -9.0953002552724129E+00    6.9747084228759668E+00
Cs    6.7221090934129704E+00   -7.2440992983072281E+00   -1.1064004343273545E+01
Cs    6.9522281691205761E+00   -9.8299279134457276E+00    7.5778367503614685E+00
Cs   -5.1659082342112734E+00   -1.2569803859835440E+01    2.3749127905149106E+00
Cs    7.2405944097169526E+00   -1.2617353193409286E+01   -1.1291330155145650E+01
Cs    9.9948038720224925E+00    6.4213353425645359E+00   -7.2860767208534103E+00
Cs    9.6868877898070949E+00    1.3913243205364038E+01    3.4852207039831868E+00
Cs    9.7707935630785556E+00    6.4549309291575288E+00   -1.3091043872791190E+01
Cs    6.0175118848162588E-02   -7.0887624632534161E+00   -1.0399433406869562E+01
Cs   -1.1197086048909497E+01   -2.1116092817147436E+00   -5.4372236752522092E+00
Cs    7.1778641011992343E+00   -3.3728446515121191E+00    1.1096899769281631E+01
Cs    1.1390331500962274E+01   -3.9813186265787666E+00    5.2513042644487040E+00
Cs   -3.9665784831025919E+00   -1.0666560379121782E+01    1.2218953612158689E+01
Cs   -3.9831943853515656E-01   -8.7078195663999003E-01   -1.1203744134497978E+01
Cs   -1.3601069015071092E+00    1.2530953397402486E+01    4.9804491040276346E+00
Cs   -1.0379206040977060E+00    5.1374874549260623E+00   -1.1987787211374206E+01
Cs    5.4390559338929299E+00    1.5587992175976875E-01   -5.8787701325721740E+00
Cs    6.9289829202510278E+00   -6.1945562905191123E+00   -6.2680116236036900E+00
Cs   -4.7245173018255811E+00   -1.1438641622817990E+01    7.5439353619496980E+00
Cs   -1.1089034900729875E+01   -1.9181262061804941E-01    6.4787427156253177E+00
Cs    4.6013051632099637E+00   -5.9450109682898367E-01   -1.2348846202195435E+01
Cs    3.8951246786811597E+00    1.0159373213923464E+01   -1.2824425795134323E+01
Cs   -2.0492513605317714E-01    7.7535357769960305E+00    1.0859276592733217E+01
Cs   -6.6617148934053692E+00    1.1006094321457933E+01    4.8051169438058681E+00
Cs    2.8704288646275580E+00    1.2255570304429627E+01   -8.0400679639399399E+00
Cs    5.0074329949013325E+00    5.9089780559741421E+00   -6.9424258673161718E+00
Cs    5.9532063209626420E+00    1.3654082311447460E+00    7.0098236146116794E-02
Cs    6.5736258714525482E+00   -5.2855718418603965E+00   -1.7740335341313980E-02
Cs    6.2978962543002961E+00   -1.1025450344694642E+01    2.2092468890291328E+00
Cs    4.4452104969531785E+00    5.1599506182677519E+00   -1.2440747904157023E+01
Cs   -5.5600494371075033E+00    6.2762657896590976E+00    5.5466426439646046E+00
Cs   -5.3231239044902043E+00   -7.6597179010018435E+00   -1.0137192133155416E+01
Cs    5.3321018824447188E+00    6.7739725107541497E+00   -6.4905401768079418E-01
Cs    5.8595125954916920E+00    1.9660375076224437E+00    5.3927813606908348E+00
Cs    6.7417303388086136E+00   -4.0757786066173027E+00    6.2949454490540209E+00
Cs   -6.5934162427020979E+00    1.0383139072478395E+01   -9.7700870114600613E-01
Cs    1.1359680128451142E+01    1.7247275697037883E+00   -4.7465211153826414E-01
Cs   -5.8226597133820448E+00   -3.9066538603778206E-01   -5.0989869292310075E-01
Cs   -1.2140581473711810E+01    4.6394785413547073E+00    6.9271110694302962E+00
Cs   -4.9591977166676191E+00    5.5153354157117052E-01    1.1757163819677357E+01
Cs    4.3213162811979817E+00    1.2552180004299689E+01    3.3616507438669392E+00
Cs    5.1810519422473122E+00    7.2397780584464098E+00    5.0156154998621574E+00
Cs    7.3678603486033634E+00    3.1769616216502978E+00    1.0969054194607009E+01
Cs    4.0508143370209000E+00    1.2208786443149458E+01   -2.3532923001682353E+00
Cs    1.1140546559414453E+01   -4.1639254067513426E-05   -5.5655025998960346E+00
Cs    1.2864618693284505E+01   -5.9731948989665229E+00   -6.9102073707483980E+00
Cs    8.3470690210644314E+00   -8.3370963665127853E+00    1.2256698227572919E+01
Cs    9.1344248857770705E+00    1.3644055254908364E+01   -1.9558932994840093E+00
Cs   -1.1078171178594083E+01    4.5670282522481884E-02    1.1762959074363049E+01
Cs   -8.0240148972584020E+00    3.4518258513665088E+00   -1.1385905796593192E+01
Cs   -1.2360267925576132E+01    1.1272378967161783E+01   -2.4281303525165754E-01
Cs   -5.2148225142893967E+00   -5.8432636046830986E+00    1.3614906161111005E+01
Cs    1.6899150709247988E+00   -1.0332845388970092E+01    1.2448594559226535E+01
Cs    6.0940191955187517E+00    9.0310709223055010E+00    1.0380171829138312E+01
Cs    1.1635457803269043E+01   -3.7034162468457312E+00   -1.2801346327185142E-01
Cs   -1.1424429213628960E+01   -3.8629943112037191E-01    6.0520651821493576E-01
Cs   -7.6018384571929021E+00    8.7233170320165971E+00   -1.1689838583306210E+01
Cs   -1.1728825442326345E+01    4.3556088876510044E+00    8.3066441190623364E-01
Cs   -1.0199992104370120E+01   -1.3816808597761314E+01   -5.8566510689585316E+00
Cs   -1.1290633072960937E+01   -6.9474456653883951E+00    8.2149184345237625E-01
Cs   -5.3523328639767600E+00   -6.8439466519715308E+00    1.4423920067477531E+00
Cs   -1.0180059019913056E+01   -1.1875372658480439E+01    9.1853954495672259E+00
Cs    1.2298548106226161E+01   -3.0955230813400312E+00    1.0034371991309323E+01
Cs    1.2171748189110080E+01    7.4018282205671531E+00    5.0767845849758757E+00
Cs   -1.2453045425997599E+01    3.3558045178184863E+00   -5.4309891915917001E+00
Cs   -5.9989682952122800E+00   -1.6246426749742804E+00   -6.0788284988813777E+00
Cs   -1.0561079884409885E+01   -1.2296073756548189E+01    1.7117939180778177E+00
Cs    1.1649071239583598E+01   -1.1769336622633531E+01   -4.8095727819953185E+00
Cs   -4.3088739391239308E+00   -1.2944961416822041E+01   -1.0035449601611905E+01
Cs   -2.5748379778011166E+00    9.4328578739875244E+00   -1.2751536742394737E+01
Cs    1.7308977838230442E+00   -1.3045607483997518E+01   -9.8200752073662816E+00
Cs   -2.2583246006050595E+00    1.0055030058378762E+01   -7.3965893118495645E+00
Cs   -6.2317399711427033E+00    1.2040873249908023E+01    9.9615341221943385E+00
Cs    2.0399797107728004E+00   -1.1461308926004708E+01    2.4345759483107394E+00
Cs   -1.1904982215550103E+01   -2.3269567070851473E+00   -1.0829258130345142E+01
Cs   -1.1425693554724369E+01    1.0758304456263048E+01    5.9426050852291246E+00
Cs    6.2720053750100409E+00   -1.1545861387046696E+01   -4.8614845140793363E+00
Cs    1.0479796947608948E+01   -6.0399589310047896E-01   -1.2310529497522003E+01
Cs    5.2199215246683517E+00    1.3548564976940714E+01    8.9493671738867899E+00
Pb    3.0621945847529579E+00   -3.1982277433129225E+00   -3.1405051076085151E+00
Pb    3.7064673206953165E+00   -8.9438037606101517E+00   -1.9120329353555090E+00
Pb   -8.6014202544207805E+00   -3.9015922019816007E+00    3.9582826164467919E+00
Pb   -1.9965416540690042E+00   -9.6919929961815559E+00   -1.8992823120804707E+00
Pb    1.4092682075646914E+00    8.6208958677941325E+00   -4.3872078113612130E+00
Pb    2.4679995594979083E+00    3.1100261057633540E+00   -3.3767869556878733E+00
Pb    3.4244324314476184E+00   -2.3919730452362260E+00    2.9370934862322149E+00
Pb    3.8407419428697618E+00   -8.2928118222046461E+00    3.9680559808325255E+00
Pb   -4.0100684129287556E+00    9.0173854500234132E+00    1.8876728461382744E+00
Pb    2.0556909789130335E+00    9.3357583006868019E+00    1.7385911605804327E+00
Pb    2.8911022997689626E+00    3.6687810033435051E+00    2.4965931775344572E+00
Pb    3.6243349877797102E+00   -1.3756948631219856E+00    8.6854219852349157E+00
Pb    4.3252263119538128E+00   -7.2223727322640769E+00    9.8983091441577109E+00
Pb   -3.0839263411223059E+00    2.9511521690987013E+00    2.8984529698332460E+00
Pb    2.4231178346024702E+00    1.0732515010050800E+01    7.2877475487892349E+00
Pb    3.2783276191901742E+00    4.5862397774249493E+00    8.5473934380203875E+00
Pb   -2.2531696431704336E+00   -2.2279743314960685E+00    9.2403682251522987E+00
Pb   -8.0118420673416590E+00   -9.6721160249280356E+00    4.2069406255922459E+00
Pb   -9.0920956932893660E+00    1.7303905977728655E+00   -2.6867258164243868E+00
Pb   -2.7506346649838238E+00   -4.9060918229619634E+00   -8.3373805106402514E+00
Pb   -1.8893305758655186E+00   -8.7017346482378350E+00    3.7395496800019812E+00
Pb   -4.3681430374566883E+00    7.9368029954821591E+00   -4.0432690490516476E+00
Pb   -1.7997787944801173E+00   -7.9768967971234686E+00    9.6853860223631081E+00
Pb   -8.5871167279809466E+00   -4.2985844698541964E+00   -1.9034178268192516E+00
Pb   -8.2165253248082504E+00   -1.0266423659580624E+01   -1.7986773047755520E+00
Pb   -3.3032281561754253E+00    1.8283377885054330E+00   -3.1061994184069635E+00
Pb   -7.6431897863703755E+00   -9.0016269915329818E+00    1.0131629075130062E+01
Pb   -8.5495020512222784E+00   -4.9119600420244858E+00   -7.9955535837414491E+00
Pb    9.0701099977548942E+00   -3.4161641828331408E+00   -9.0745187034705861E+00
Pb    9.7543805440597460E+00   -9.5154763512737439E+00   -8.3530264301536938E+00
Pb   -1.8156267412826725E+00   -1.0800476116421141E+01   -7.8912632940258689E+00
Pb   -1.0471858343645534E+01    6.4185504307331964E+00   -9.3422490266847937E+00
Pb    2.9416594135168492E+00   -3.6433918728038344E+00   -8.9875730100889637E+00
Pb    3.9121573749320788E+00   -9.6570463852088615E+00   -8.1402290570227578E+00
Pb   -3.6992435932106100E+00    1.1366204424924586E+00   -8.8891809863429234E+00
Pb    1.4093635374861793E+00    8.1561763008811639E+00   -1.0299383164117756E+01
Pb    2.3216288294843914E+00    2.1963299097114799E+00   -9.0100711020801594E+00
Pb    8.5682486590889866E+00   -1.8004021637273775E+00   -3.0846245016151417E+00
Pb    9.4795880471136069E+00   -7.9537273823356980E+00   -2.5488091176384060E+00
Pb   -7.9746279264153905E+00   -3.0944759113507296E+00    1.0010353352851354E+01
Pb    7.1209021361701428E+00    8.8632648482341594E+00   -1.0357212206807192E+01
Pb   -9.6036879424565615E+00    6.5266339723737044E-01   -8.4914958526333066E+00
Pb   -3.5392662107067889E+00    9.4426386088587275E+00    7.8529318401436372E+00
Pb    6.8526807515291104E+00    1.0174373039523545E+01   -4.5685539498764207E+00
Pb    8.0269546610126561E+00    4.1909897069609814E+00   -3.5691092200255463E+00
Pb    9.2015256634215028E+00   -1.3152181378618619E+00    2.5906551876181645E+00
Pb    9.5933520353500690E+00   -7.4428039393558789E+00    3.4601941623861188E+00
Pb    8.1145181591228948E+00    2.6806646335198736E+00   -9.7789873600577319E+00
Pb   -2.4485110573807063E+00    3.7667986457545228E+00    8.5656700897195499E+00
Pb    7.9800645413361169E+00    1.0628900273261085E+01    1.3152833176892911E+00
Pb    8.9305364951710668E+00    4.8021664970670139E+00    2.2141977662682684E+00
Pb    9.8086706628349525E+00   -5.2029703786095338E-01    8.3787309058089399E+00
Pb    1.0420677335535988E+01   -6.4285763356151273E+00    9.2011962593384347E+00
Pb    8.3958088938400497E+00    1.1007074246193614E+01    7.0077533944391215E+00
Pb    9.1550990472743266E+00    5.3762290122227911E+00    7.8231813789666100E+00
Pb   -8.5126993562822033E+00    2.6568931477917674E+00    9.1878885359932294E+00
Pb   -2.7434723699951373E+00   -3.0223503017519309E+00    3.5737236179827825E+00
Pb   -9.4389529356893327E+00    7.9743152112472524E+00    2.7216273873284589E+00
Pb   -1.0226750840438287E+01    7.1253294145613397E+00   -3.2865231360865641E+00
Pb   -7.7632400990890602E+00   -1.0562054278715939E+01   -7.2763082600475562E+00
Pb   -4.4856492843271898E+00    7.1358754577399415E+00   -9.8293815301773346E+00
Pb   -8.8283879813184480E+00    2.1756734472116999E+00    3.2636100569632647E+00
Pb   -9.3436709457564255E+00    8.5960847089065968E+00    8.8363182296054017E+00
Pb   -2.5146700789017440E+00   -3.8824774472426151E+00   -2.3920384565752508E+00
Br    2.2260863530661598E-01   -3.1427258670680911E+00   -3.1354438789055976E+00
Br    2.8289623862019426E+00   -3.9265342577360656E+00   -6.0851106572202305E+00
Br    2.7647063999265029E+00    3.3627057962491708E-01   -3.9139379324470034E+00
Br    8.8869553311267357E-01   -8.4573878946762289E+00   -2.1136556756329909E+00
Br    3.5626313739445576E+00   -8.9910447240891749E+00   -4.8145730512669278E+00
Br    3.8333756284636955E+00   -5.6652815141341977E+00   -2.0268410725764867E+00
Br   -3.4361826782646547E+00   -3.8492584566213970E+00   -5.5040716721530920E+00
Br   -8.1764383004282220E+00   -3.4656885882283759E+00    6.8242038991796337E+00
Br   -2.9548672883722888E+00   -8.3997487618934896E-01   -2.4623970229777332E+00
Br    3.8932571994183163E+00   -1.1756903161693517E+01   -1.3743263812766073E+00
Br    1.1802485721146464E+01   -1.4291907521011531E+00    2.1799031918687573E+00
Br   -4.7614278750523189E+00   -1.0294107292850331E+01   -2.8953991755424298E+00
Br   -1.1337407818944985E+01   -4.8202123133655030E+00    3.8105864547437007E+00
Br   -8.6950124460741467E+00   -3.9592805441442938E+00    1.0776686865771037E+00
Br    1.2520717226610142E+01   -7.6299124595012913E+00    3.7497811412860309E+00
Br   -1.5243433349454272E+00    7.6556930256887510E+00   -4.3018790961919811E+00
Br    1.3924778120319530E+00    8.3110403216783304E+00   -7.3021129908819518E+00
Br    1.2227471330319196E-01    1.1272246974174713E+01   -4.7045293674826274E+00
Br   -2.9541760152904534E-01    2.6670852431804795E+00   -2.9096840090921234E+00
Br    1.5553111687075929E+00    2.7847267183731672E+00   -6.3725710882025526E+00
Br    2.6065189344008481E+00    6.0260546703823801E+00   -4.1177311920857287E+00
Br    4.3883852861949368E-01   -2.5119278177317970E+00    3.5449285403990101E+00
Br    2.8313310455921066E+00   -2.5781057200990554E+00    8.3781409620555206E-02
Br    3.8378269169289050E+00    6.8830452816039478E-01    2.6453293220709857E+00
Br    1.0579231584855695E+00   -7.9870795356947344E+00    4.1454993640287974E+00
Br    3.5842565120691527E+00   -8.9326745208104388E+00    1.3030576190570164E+00
Br    3.7768201575063953E+00   -5.3067919453684107E+00    2.7602860903752089E+00
Br   -7.0489808803314160E+00    6.1441647868805607E+00   -9.6179657599900192E+00
Br   -4.2311289660846629E+00    6.7253307994229594E+00   -1.2580501035558351E+01
Br    3.9306016261342767E+00   -1.1296602408571129E+01    4.9051377986407863E+00
Br   -5.0626638521947358E+00    1.0041397170510306E+01   -9.9920192789048272E+00
Br   -3.3802777283396832E+00    4.2564092207608910E+00   -9.1563929585715353E+00
Br   -9.2074101902903909E+00   -7.9237847448586007E-01    3.6044574796456978E+00
Br   -1.2051608829856750E+00   -1.0875372442104307E+01   -5.0086175486531719E+00
Br   -6.7291499470838056E+00    8.4615891718760992E+00    2.4225587886809792E+00
Br   -3.5870347049715243E+00    8.5259972797572949E+00   -1.0243493343618377E+00
Br   -3.6334953452035963E+00    1.1749288189541330E+01    1.2840061011761774E+00
Br   -9.3270159422340193E-01    8.7433590458648620E+00    2.4144931013354256E+00
Br    1.0534694485178810E+00    8.3961768371825265E+00   -1.3386106776043203E+00
Br    1.7135612225557562E+00    1.1723073998546649E+01    2.4325205414131643E-01
Br    1.2133125843401779E-01    2.7309179119114728E+00    2.4642238703306378E+00
Br    2.9575440738075032E+00    3.1448058340354952E+00   -5.9887261818387361E-01
Br    2.9467003205300468E+00    6.6264770089450904E+00    1.6866090091252381E+00
Br    7.4558713427266010E-01   -2.2411384645224839E+00    9.0376619247498784E+00
Br    3.1584393954036396E+00   -1.8155942218134851E+00    5.7989781988312723E+00
Br    2.6915264923016315E+00    1.4924390145700202E+00    8.9129334531865378E+00
Br    1.4303987791811901E+00   -7.2510149377515392E+00    9.8428035850989612E+00
Br    3.9659698992755752E+00   -7.3451757215387348E+00    6.9414265113799365E+00
Br    4.3330953297424388E+00   -4.3667040708437375E+00    9.0118697245874060E+00
Br   -1.1990273535708106E+01    2.0133815290568160E+00    3.2194579675883293E+00
Br   -8.8320754870272218E+00    2.0283680409343883E+00    4.6747989364508802E-01
Br    3.5850819131160456E+00   -1.0068238232279759E+01    9.6788313709676377E+00
Br   -9.4331050960913441E+00    5.1603189474306248E+00    3.1029828492736300E+00
Br   -7.8628508797119183E+00   -3.5333350990839196E-01    8.8996542324632522E+00
Br   -2.6194625680864081E+00   -6.5309604968201898E+00   -2.9115754123315103E+00
Br   -6.1367923334048742E+00    2.8011460994579744E+00    3.1295676498621314E+00
Br   -3.8119170384067118E+00    2.2849204131895067E+00   -3.7067294495211256E-01
Br   -3.5358264338659584E+00    5.4643633464678585E+00    1.8001978349506396E+00
Br   -7.4688831132127631E-01    1.0152459410212854E+01    7.5122940400180473E+00
Br    2.7542524073641390E+00    9.6139429949931134E+00    4.5347635287667662E+00
Br    2.0105840224351210E+00    1.3013430164925778E+01    6.0017269050536175E+00
Br    3.5509081683791888E-01    4.0626869838654995E+00    8.3556602729903915E+00
Br    2.5101715286229518E+00    4.6782152409292417E+00    5.4059958988694321E+00
Br    3.2829989652158709E+00    7.9781209846279344E+00    7.7413783099429132E+00
Br   -5.2440052166115523E+00   -2.6385596873151886E+00    9.4506286118821290E+00
Br    3.5735118817382001E+00   -1.2623725263753871E+00    1.1519645418638532E+01
Br   -2.3667701504218632E+00   -2.7322974079297220E+00    6.3289195321344307E+00
Br   -2.5680088306738176E+00    8.6235830381866818E-01    8.4321959188705176E+00
Br   -1.3789116361855425E+00   -1.2742162819595078E+01   -1.4342508846235118E+00
Br    4.5109106138785755E+00   -7.9473915073129691E+00    1.2508873049097071E+01
Br   -1.2089503148801384E+01    1.5252878626198367E+00   -2.1250573899236866E+00
Br   -1.3202681164204526E+00   -1.1283215859658261E+01    4.3919945974253407E+00
Br   -1.1244393422123416E+01   -3.7018166872354414E+00   -1.9925344641177214E+00
Br    2.8472573806209138E+00    1.1161727451468010E+01    1.0070190839651188E+01
Br   -8.7685935404961572E+00   -4.4303883241324087E+00   -5.1378667430604370E+00
Br   -8.5498688845709907E+00   -1.1795068166063449E+00   -2.6259761004448974E+00
Br    4.3029179256525838E+00    4.9461500534621807E+00    1.1194484085911389E+01
Br   -7.2017416391619644E+00    7.7549690562735325E+00   -4.2361997666619233E+00
Br   -4.2156384781517486E+00    7.4412433698560889E+00   -7.1172292022504475E+00
Br   -4.8818465746793738E+00    1.0605590141095131E+01   -4.4440332923644457E+00
Br   -6.1459793313261368E+00    1.7814398401866784E+00   -3.3352913179042205E+00
Br   -1.0599564829730488E+01   -9.1982844209609187E+00    3.2481438311305486E+00
Br   -3.5901646859207084E+00    1.3018160847948002E+00   -5.7611436153998881E+00
Br   -5.6305674864122111E+00   -4.9289302584598023E+00   -8.0658631451726936E+00
Br   -3.2597822241353618E+00   -5.2329684744576666E+00   -1.1168866316700926E+01
Br   -2.5074344608996690E+00   -1.4023241311187467E+00   -8.6672447972856350E+00
Br   -1.8005672081152162E+00    4.5234228107265562E+00    1.1676273237463269E+01
Br   -4.9220966834578901E+00   -8.6335283161121996E+00    9.1923715279899003E+00
Br   -1.5734730084863302E+00   -8.0159072350693190E+00    6.8864262389485553E+00
Br   -2.4209579026413151E+00   -5.0865516041497782E+00    1.0394212680485657E+01
Br   -7.7459801607640015E+00   -1.0299173605507013E+01    1.3851859125089796E+00
Br   -7.6644731317503778E+00   -6.6796445880840523E+00    4.1472282460483338E+00
Br   -8.1436687852015464E+00    9.7937671402057553E+00    1.1764551175404362E+01
Br    1.0515864659318266E+01    1.1680513386781850E+01    4.1407575631730614E-01
Br   -6.8514231049844190E+00   -8.4988575241503472E+00    1.2824046523368240E+01
Br    9.7766949292904997E+00    1.0377408372517047E+01   -4.5404532421907016E+00
Br    1.1525924278254370E+01    4.2496529020680907E+00    1.7766042494135537E+00
Br   -8.2815005058312217E+00    2.0437155878483915E+00    1.1951689805298583E+01
Br   -1.1530311824351145E+01   -5.4603923447214449E+00   -7.9334710157477524E+00
Br    1.2638974311937766E+01   -6.9045105537095908E-01    7.5717449949500857E+00
Br   -4.6532974182868045E+00   -9.3508250571592200E+00    3.8304536265666509E+00
Br    5.9147134100253300E+00   -3.2777459184030713E+00   -8.6835573104353152E+00
Br    8.5118846031022954E+00   -3.4805121019121184E+00   -1.1740706371173285E+01
Br    1.3151880067847079E+01   -5.9830698554931301E+00    8.7521435301880270E+00
Br    8.7879876002390471E+00   -1.3762350547981125E-01   -9.2591988439547119E+00
Br   -6.9275963644428353E+00   -1.1653676862460321E+01    1.0453238403408795E+01
Br   -1.7452531366384250E+00   -8.6673058252091302E+00    6.8964994012532976E-01
Br   -2.3372587506970217E+00   -6.0234184927266048E+00    3.7413199283235210E+00
Br    6.5483139374275021E+00   -9.1351859650085689E+00   -7.6760817448917678E+00
Br   -4.6831752822794774E+00   -1.0484390904255431E+01   -7.4029326327453893E+00
Br    9.9310803838629518E+00   -1.0436004640262290E+01   -1.0915051822036729E+01
Br    9.3281478605280910E+00   -6.8525065993771150E+00   -8.8724844127062656E+00
Br   -2.0127231696551191E+00   -1.0780310136513988E+01    9.3444209204075896E+00