 # Version information for this restart file 
 # current date 2021-06-17 12:45:29.068
 # current working dir /user/ub2042/exercises/2_fitting/MM_MD_workdir/md_settings.005
 # Program compiled at                              Thu Apr 22 21:44:59 EDT 2021
 # Program compiled on                cpn-k07-07-02.compute.cbls.ccr.buffalo.edu
 # Program compiled for                                                    local
 # Source code revision number                                       git:36754bb
 &GLOBAL
   PRINT_LEVEL  LOW
   PROJECT_NAME cp2k
   RUN_TYPE  MD
 &END GLOBAL
 &MOTION
   &MD
     ENSEMBLE  NVT
     STEPS  10000
     TIMESTEP     2.4999999999999996E+00
     STEP_START_VAL  4000
     TIME_START_VAL     1.0000000000000160E+04
     ECONS_START_VAL    -1.5890036444644286E+01
     TEMPERATURE     3.0000000000000000E+02
     &BAROSTAT
       PRESSURE     1.0100000000000000E+00
       TIMECON     9.9999999999999982E+03
     &END BAROSTAT
     &THERMOSTAT
       TYPE  CSVR
       &CSVR
         TIMECON     9.9999999999999982E+03
         &THERMOSTAT_ENERGY
              -8.6102074481247404E-02
         &END THERMOSTAT_ENERGY
         &RNG_INIT
Wiener process for Thermostat # 1        1 F T F  -1.2979613312884362E+00        1825527127.0        2808732464.0        4063912891.0        4257845861.0        1604363975.0        1268783381.0             12345.0             12345.0             12345.0             12345.0             12345.0             12345.0             12345.0             12345.0             12345.0             12345.0             12345.0             12345.0
         &END RNG_INIT
       &END CSVR
     &END THERMOSTAT
     &AVERAGES  T
       &RESTART_AVERAGES
         ITIMES_START  1
         AVECPU     1.7488004270009634E-02
         AVEHUGONIOT     0.0000000000000000E+00
         AVETEMP_BARO     0.0000000000000000E+00
         AVEPOT    -1.6348790382873975E+01
         AVEKIN     4.9622070635773935E-01
         AVETEMP     2.5171713868637099E+02
         AVEKIN_QM     0.0000000000000000E+00
         AVETEMP_QM     0.0000000000000000E+00
         AVEVOL     6.7483345830905447E+06
         AVECELL_A     1.8897261328855768E+02
         AVECELL_B     1.8897261328855768E+02
         AVECELL_C     1.8897261328855768E+02
         AVEALPHA     9.0000000000000000E+01
         AVEBETA     9.0000000000000000E+01
         AVEGAMMA     9.0000000000000000E+01
         AVE_ECONS    -4.2823462982463694E+00
         AVE_PRESS     0.0000000000000000E+00
         AVE_PXX     0.0000000000000000E+00
       &END RESTART_AVERAGES
     &END AVERAGES
     &PRINT
       &ENERGY  SILENT
         &EACH
           MD  10
         &END EACH
       &END ENERGY
     &END PRINT
   &END MD
   &PRINT
     &TRAJECTORY  SILENT
       &EACH
         MD  10
       &END EACH
     &END TRAJECTORY
     &CELL  SILENT
       &EACH
         MD  10
       &END EACH
     &END CELL
     &VELOCITIES  SILENT
       &EACH
         MD  10
       &END EACH
     &END VELOCITIES
     &FORCES  SILENT
       &EACH
         MD  10
       &END EACH
     &END FORCES
     &RESTART  SILENT
       &EACH
         MD  10
       &END EACH
     &END RESTART
   &END PRINT
 &END MOTION
 &FORCE_EVAL
   METHOD  FIST
   &MM
     &FORCEFIELD
       VDW_SCALE14     1.0000000000000000E+00
       EI_SCALE14     1.0000000000000000E+00
       SHIFT_CUTOFF  T
       DO_NONBONDED  T
       IGNORE_MISSING_CRITICAL_PARAMS  T
       &SPLINE
         R0_NB     2.5000000000000000E-01
       &END SPLINE
       &NONBONDED
         &LENNARD-JONES
           ATOMS Br Br
           EPSILON     1.2630795322675199E+02
           SIGMA     3.6900000000000004E+00
         &END LENNARD-JONES
         &LENNARD-JONES
           ATOMS Cs Pb
           EPSILON     8.6920055954630968E+01
           SIGMA     3.6699999999999999E+00
         &END LENNARD-JONES
         &LENNARD-JONES
           ATOMS Cs Cs
           EPSILON     2.2644852172126850E+01
           SIGMA     4.3300000000000001E+00
         &END LENNARD-JONES
         &LENNARD-JONES
           ATOMS Pb Pb
           EPSILON     3.3363415533600227E+02
           SIGMA     5.9000000000000004E+00
         &END LENNARD-JONES
         &LENNARD-JONES
           ATOMS Br Cs
           EPSILON     5.3481070753900497E+01
           SIGMA     3.6300000000000003E+00
         &END LENNARD-JONES
         &LENNARD-JONES
           ATOMS Br Pb
           EPSILON     2.0528187276773045E+02
           SIGMA     2.9800000000000000E+00
         &END LENNARD-JONES
       &END NONBONDED
       &CHARGE
         ATOM Cs
         CHARGE     4.4453099999999995E-01
       &END CHARGE
       &CHARGE
         ATOM Pb
         CHARGE     8.8906199999999991E-01
       &END CHARGE
       &CHARGE
         ATOM Br
         CHARGE    -4.4453099999999995E-01
       &END CHARGE
     &END FORCEFIELD
     &POISSON
       PERIODIC  XYZ
       &EWALD
         EWALD_TYPE  SPME
         GMAX  62 62 62
         O_SPLINE  4
       &END EWALD
     &END POISSON
     &PRINT
       &FF_INFO  LOW
         SPLINE_INFO  F
         SPLINE_DATA  F
       &END FF_INFO
     &END PRINT
   &END MM
   &SUBSYS
     &CELL
       A     1.0000000000000001E+02    0.0000000000000000E+00    0.0000000000000000E+00
       B     0.0000000000000000E+00    1.0000000000000001E+02    0.0000000000000000E+00
       C     0.0000000000000000E+00    0.0000000000000000E+00    1.0000000000000001E+02
       PERIODIC  XYZ
       MULTIPLE_UNIT_CELL  1 1 1
     &END CELL
     &COORD
Cs   -2.5920900444598904E-01    2.6764952429605943E-02   -5.7268455468545953E+00
Cs    5.4665428990266263E-01   -5.4715677118133668E+00   -5.4009766346126691E+00
Cs    9.2611794377737044E-01   -1.1513126523666781E+01   -5.4505402346837828E+00
Cs   -5.8650309075987472E+00   -6.8399636412537177E+00   -4.7662209560838944E+00
Br   -8.6537824240597967E+00   -1.3027968107823581E+01   -7.4139860724992266E+00
Br    1.1226943962905949E+01   -2.8932885951409091E+00   -9.2526183529852482E+00
Br   -3.1091745612101453E+00    1.8120580590973463E+00   -1.2014841867067448E+01
Cs   -1.0907865688933944E+00    5.5814555922277389E+00   -5.6113410714449659E+00
Cs    4.3867928504409731E-01    3.4483014777960436E-01    8.0426852226556600E-01
Cs    5.1775237947188503E-02   -5.9978541489733983E+00    7.3887427333330022E-03
Br   -5.2480507476888310E+00   -2.6121357097791513E+00    2.7505794956977518E+00
Cs   -1.1445560786617619E+01   -5.7781406233929449E+00    1.0745483699526723E+01
Cs    1.2034048889066321E+01   -1.0487296015095289E+01    5.1514939134786018E-03
Cs   -5.4536034660224253E+00    5.5948455708441633E+00   -2.5849323648526979E-02
Cs   -7.9785494016750802E-01    1.2438601600451273E+01    7.3572628097404869E-01
Cs   -4.2185763344464633E-01    5.3243962006009244E+00   -6.9834776549787836E-01
Cs    8.4039977134248312E-01    9.4563506653771223E-01    5.5821741771306392E+00
Cs    3.2417385902534190E-01   -5.2375462375874218E+00    6.4004531322992841E+00
Cs    9.4204050263999628E-01   -1.0871112240904488E+01    6.1990054142515305E+00
Cs   -6.4176628408960150E+00    6.1484628122835705E+00    1.1619257849848012E+01
Cs   -5.7884878167360867E+00   -1.7720186395243063E+00   -1.1573677936168409E+01
Cs   -4.5606760102829131E+00   -1.2227797799022506E+01   -4.9638454663670526E+00
Cs   -5.7766983367216032E+00    1.1780328191125862E+00    5.8855597304287341E+00
Br   -2.3401818277953792E+00   -3.0609910041626560E+00    3.0470162132099643E-01
Cs    2.7427388517517104E-01    5.9512003472256652E+00    5.1668692301739592E+00
Br    1.1856391083317769E+01   -8.5475901688110003E+00   -8.2013090906349806E+00
Cs    4.7370723884722160E-01   -4.8732907670304115E+00    1.1995339250242782E+01
Br   -2.3047453117826371E+00   -1.8406945803529134E-01    3.5341962170907517E+00
Br   -9.6937129735830148E+00   -3.1258465266506961E+00    1.1638213284779708E+01
Cs    1.0635493885702896E+01    1.1599114290523142E+01   -6.3646014234959001E+00
Cs   -1.0392429689711205E+01   -5.7708733727068378E+00    6.3965202495088791E+00
Cs   -5.5946350361620185E+00   -5.2885902363728361E+00    6.4289826929717258E+00
Cs   -6.5749289935259956E+00    1.0193691080737622E+01   -6.4833695348711711E+00
Br   -1.0365072791209084E+01   -9.2694014718689459E+00    9.5919201168748138E+00
Br   -8.2380809989330892E+00   -8.9654444011559100E+00    6.3857347063461782E+00
Cs   -1.1034542398357889E+01   -7.3254642014927391E+00   -5.1581871786929456E+00
Cs   -6.9175340530175520E+00    4.9220244381863951E+00   -6.3223928554509454E+00
Br   -8.2464296449196670E+00   -5.6787464136273824E+00    8.9443015108432640E+00
Cs    1.1526818782888254E+01    7.7436974881635914E+00    1.0204305972633463E+01
Br   -1.2146096876790809E+01    8.6512640002386068E+00    7.7520924159477360E+00
Br   -5.9346893409708059E+00   -3.9691512734341874E+00   -2.9749244479607886E+00
Cs    1.0961079574237693E+00    1.5414722495368230E-01    1.1271173281315406E+01
Cs    1.1338079739037317E+01    6.0790430430779852E+00   -6.4860789838949628E-01
Cs   -1.1192217806085219E+01   -7.8079098282082864E+00   -1.0414547439652896E+01
Cs    1.1903233581601109E+01    1.7909521727394575E+00    6.3028684618491253E+00
Cs   -1.2319892281526460E+01    1.0592128152131732E+01   -5.5560444772115751E+00
Cs    1.2261236003711943E+01   -1.1004041151786302E+01    7.3426702868153990E+00
Cs    5.3921629418397758E+00   -5.6361225983431158E+00   -1.1089611215178049E+01
Cs    6.9212498621256637E+00   -1.0183931258263362E+01    6.8702181013784225E+00
Cs   -4.6022392135391037E+00   -1.1540863946744425E+01    4.9929524393104274E-01
Cs    6.3475816572195622E+00   -1.1461495789533110E+01   -1.1295394196472810E+01
Cs    1.0486857963839624E+01    5.6004517696808485E+00   -6.5881001780944102E+00
Cs    1.0635372893990043E+01    1.2503114017813640E+01    5.0003866465093996E+00
Cs    1.0301454203310753E+01    6.0719042515439146E+00   -1.1732964284326410E+01
Cs   -5.3682908328262746E-01   -6.1632076010215542E+00   -1.0924754135384811E+01
Cs   -1.1644792992840079E+01   -6.8046385130790565E-01   -5.9253363177830236E+00
Cs    6.8636535009604502E+00   -4.5583882986382260E+00    1.1647727330977611E+01
Cs    1.1762399159774404E+01   -4.1381656602672985E+00    5.0793270571776281E+00
Cs   -9.1540277509523627E+00   -1.1100618533078109E+01    1.2673119347804180E+01
Cs   -1.2165584939420355E+00   -1.4110220770235005E+00   -1.1272058145698345E+01
Cs   -6.8770491138766288E-01    1.1241709732907593E+01    5.1764147210515601E+00
Cs   -1.2280071764399709E+00    5.2234979049147583E+00   -1.0950981561626868E+01
Cs    5.3989749343225588E+00    4.7800999223595220E-01   -6.2920736497747196E+00
Cs    6.5669886992056048E+00   -6.0238549949455127E+00   -5.3625183196242920E+00
Cs   -4.3862205971872896E+00   -1.1068227162775983E+01    6.8414185851285207E+00
Cs   -1.0579432857780946E+01   -4.8843377231669549E-01    5.8633739271323231E+00
Cs    5.4911081912665320E+00   -2.8637629617986943E-01   -1.2004411297202550E+01
Cs    5.2910664071557960E+00    1.0713910095045829E+01   -1.2134821192374446E+01
Cs    3.3437933335096093E-01    6.8199826970989115E+00    1.1008756057023444E+01
Cs   -6.1120034166730832E+00    1.1002715638780206E+01    4.9818810014684471E+00
Cs    5.2826209177978631E+00    1.0818550176944623E+01   -6.7467321272815477E+00
Cs    5.3281985252901594E+00    6.1585948479197743E+00   -5.6937093256629741E+00
Cs    6.0984498231123485E+00    3.2163491161528746E-01   -2.2844964810980797E-01
Cs    6.2392229682474891E+00   -6.0652539508644221E+00   -3.8512799854272206E-01
Cs    6.3429255762116892E+00   -1.0510970039531953E+01    3.6051691347809361E-01
Cs    5.5486189071563432E+00    5.7100246196661262E+00   -1.2432599917459006E+01
Cs   -7.1421747556227766E+00    6.2971527174533799E+00    5.8729450639249592E+00
Cs   -5.2583609782680858E+00   -6.9479136333992324E+00   -1.1139381628429433E+01
Cs    5.7489671114524707E+00    5.4402752564383121E+00   -5.8164882556218556E-01
Cs    6.0781369345228962E+00   -8.2315628962425363E-02    5.3106762341308844E+00
Cs    6.5391469927606396E+00   -4.9707896701233212E+00    5.6586867136116616E+00
Cs   -6.4504156753925921E+00    1.1003181445180861E+01   -1.4876575946858774E+00
Cs    1.1855647941578580E+01    8.0655465772312041E-01   -4.1078181183871132E-01
Cs   -6.0395593317340017E+00    2.4930209649772318E-02   -7.0501613425147797E-02
Cs   -1.1822472985100664E+01    5.2220968937067269E+00    5.9143787836933912E+00
Cs   -5.6411346456065088E+00    9.7439632174629454E-01    1.1914421984501152E+01
Cs    4.5218453832546910E+00    1.1782621541560832E+01    5.1271266574248928E+00
Cs    5.6164418956410760E+00    6.6561846205753836E+00    5.9332862234383148E+00
Cs    6.6143698931552084E+00    8.2074353297007385E-01    1.0448803153075376E+01
Cs    5.7588899275388181E+00    1.2003760310590138E+01   -1.2225475161276558E+00
Cs    1.2011264660790831E+01    3.7030574069815726E-02   -5.7285250732798838E+00
Cs    1.1119452161364427E+01   -5.8578681776325894E+00   -5.5109433252797766E+00
Cs    8.0823953140736560E+00   -9.5034996122958990E+00    1.2022859398341648E+01
Cs    1.0924751310631732E+01    1.1170218251240021E+01   -5.9789949601714343E-01
Cs   -1.1093939145250314E+01   -1.7768703726185758E-01    1.1056840273208095E+01
Cs   -7.0671014944769555E+00    4.8007558640347288E+00   -1.1938466008747589E+01
Cs   -1.1044621974859144E+01    1.0923479236566786E+01   -4.6390116365294148E-01
Cs   -5.3584097998617928E+00   -6.3329025758327058E+00    1.1783508110926254E+01
Cs   -2.0907858140252958E-01   -1.0627162566106886E+01    1.1531271474575053E+01
Cs    4.5551905578190421E+00    7.5878797847671127E+00    1.0820888318283526E+01
Cs    1.1569440008990878E+01   -5.3116421642355602E+00   -3.8752124367297297E-01
Cs   -1.1550361448421803E+01   -2.1999257175031353E-01    1.0815116907467872E+00
Cs   -7.1808523487757467E+00    1.1965713488844829E+01   -1.1508384478083142E+01
Cs   -1.1459510161783179E+01    5.3932047806977401E+00   -3.0416486271919951E-01
Cs   -1.0170452907968695E+01   -1.3209871811206519E+01   -4.5346389159898175E+00
Cs   -1.0112892629767734E+01   -6.1772109093101664E+00    9.7498739878014318E-01
Cs   -5.3358476302283044E+00   -5.9575565267000670E+00    5.2955034835989512E-01
Cs   -1.1456279066402411E+01   -1.0235373337050092E+01    6.2257740049207131E+00
Cs    1.1965871639181721E+01   -4.0566046323784883E+00    1.1607374038089532E+01
Cs    1.1592824922177201E+01    7.3436766628985559E+00    4.9497848570669785E+00
Cs   -1.1871426477183871E+01    4.9852266559569109E+00   -6.4759623465656828E+00
Cs   -6.1015849176617749E+00   -4.8045893870873341E-01   -5.7623762112752468E+00
Cs   -1.0265264909924166E+01   -1.1996979600076003E+01    4.4290617804951427E-01
Cs    1.2074037277492113E+01   -1.1707766097371556E+01   -6.3242132845169081E+00
Cs   -8.6578611275998743E+00   -1.4070323322733667E+01   -1.0537638143291195E+01
Cs   -3.4200969421420685E-01    1.1265401447923869E+01   -1.1751573178652023E+01
Cs    3.2862520451200172E-01   -1.3086915121142873E+01   -9.4989255168366888E+00
Cs   -7.5615397665557926E-01    1.0365216786977825E+01   -6.5365835361257112E+00
Cs   -6.2345996130347006E+00    1.1421860569267336E+01    1.0995827939760771E+01
Cs    1.3745843496321264E+00   -1.1883127195453939E+01    8.8082742349171883E-01
Cs   -1.1230569332215051E+01   -1.8330455557911984E+00   -1.1113080639160994E+01
Cs   -1.2064807392390588E+01    1.0770446918293349E+01    5.0365745565866744E+00
Cs    6.2936274322112551E+00   -1.1202261675673714E+01   -4.8859995036748467E+00
Cs    1.0504680911862449E+01   -4.1493069610268657E-01   -1.1209422209260172E+01
Cs    3.4214502114960292E+00    1.2579182254708661E+01    1.0866489564446788E+01
Pb    2.8699167727931858E+00   -2.8340474664863864E+00   -3.0544328972773149E+00
Pb    3.4037706395022385E+00   -8.8215779259739779E+00   -2.5806883829993374E+00
Pb   -8.1135813075541137E+00   -2.9614891297164423E+00    3.2551509595120471E+00
Pb   -2.4751506180938936E+00   -8.8893231921237525E+00   -2.5950521535446995E+00
Pb    2.4317382241066787E+00    9.0922615478014617E+00   -3.4767379183385381E+00
Pb    2.6416639360554650E+00    2.8625449403781080E+00   -3.2493078850346255E+00
Pb    3.3882217303920501E+00   -2.8038923702908596E+00    2.8003143210016410E+00
Pb    3.7393785451298913E+00   -8.4824953121873321E+00    3.3555782347568677E+00
Pb   -3.1180115123142222E+00    8.7115854943720556E+00    2.4985830815704615E+00
Pb    2.5779501392217550E+00    9.3487274251185788E+00    2.3719617651898735E+00
Pb    2.9470692463882080E+00    3.1653972328410935E+00    2.4062776660807250E+00
Pb    3.5551614588605109E+00   -2.3807071944197706E+00    8.8665400957907625E+00
Pb    3.9069672916917493E+00   -8.2974849240566559E+00    9.2131044695865985E+00
Pb   -2.7709798055748998E+00    2.6603552987438692E+00    2.8659544420939267E+00
Pb    2.4232093313507370E+00    9.4241286275873986E+00    8.2907578944476850E+00
Pb    3.1029134064179100E+00    3.5290359752754816E+00    8.3250820371763012E+00
Pb   -2.5310740706477972E+00   -2.5861486499227477E+00    9.1945834035854599E+00
Pb   -7.8913228904929911E+00   -9.0265877995035986E+00    3.5199476987176634E+00
Pb   -9.1010451091137305E+00    2.3413320248050282E+00   -3.1518041816445517E+00
Pb   -3.1352535918188136E+00   -3.4964111968509974E+00   -8.3700434624794617E+00
Pb   -2.2267555865875663E+00   -9.1657227343745316E+00    3.1763410387387712E+00
Pb   -3.5370377387514793E+00    8.4547710911675278E+00   -3.4150562494501204E+00
Pb   -2.1343436545871532E+00   -8.3952933135916279E+00    8.9254356868633593E+00
Pb   -8.8098518157066419E+00   -3.2746165426216258E+00   -2.5327504063234398E+00
Pb   -8.3764335182240153E+00   -9.5446412699784453E+00   -2.3126935881400139E+00
Pb   -3.2654842219484075E+00    2.8172467556521519E+00   -2.9572529015959312E+00
Pb   -7.8561629192416778E+00   -8.5711670439387539E+00    9.2463948571063685E+00
Pb   -8.8127297002264129E+00   -4.2148934814399857E+00   -8.2434198915916426E+00
Pb    8.4036179666896729E+00   -3.1920110225104956E+00   -8.8399084094799836E+00
Pb    9.1007558461301521E+00   -8.9730204483694660E+00   -8.8333838761789991E+00
Pb   -2.4477093373187144E+00   -9.5558126843359723E+00   -8.5144861325892496E+00
Pb   -9.9707459443265218E+00    8.4874107363790223E+00   -9.4997032227288720E+00
Pb    2.6599371991210283E+00   -3.3685416145948008E+00   -9.0346133782956404E+00
Pb    3.2514034933432043E+00   -9.3466010559491881E+00   -8.5922826302720239E+00
Pb   -3.5089004875747669E+00    2.3225629949759052E+00   -8.7181500281230679E+00
Pb    2.0256136722616689E+00    8.3849842757523110E+00   -9.5665703904890904E+00
Pb    2.2566312341607908E+00    2.6557162737001980E+00   -9.0049305156817727E+00
Pb    8.5414405101656197E+00   -2.8301062957887138E+00   -3.0481875845326991E+00
Pb    9.5706460517297867E+00   -8.9411653568137837E+00   -2.7369426989344321E+00
Pb   -8.3595332256363140E+00   -2.8654718922708917E+00    9.0870452355640747E+00
Pb    7.8439420822202344E+00    8.5754947414895000E+00   -9.2850601422575725E+00
Pb   -9.1294710501527394E+00    1.6919159272251905E+00   -9.1841135543431029E+00
Pb   -3.5069827688929238E+00    8.9946787946492055E+00    8.5012083327328405E+00
Pb    8.4403571462881644E+00    8.7696817967818017E+00   -3.4473085462863389E+00
Pb    8.6820086513272265E+00    3.0227617577230439E+00   -3.0829849663981355E+00
Pb    9.3972147022417616E+00   -2.4358464257945918E+00    2.5231941119652914E+00
Pb    9.7527856753746089E+00   -8.1817392641986277E+00    3.1709942904247237E+00
Pb    8.0049919205369804E+00    2.6925441724985095E+00   -9.0355025147744215E+00
Pb   -2.7239897611073194E+00    3.1788971554959766E+00    8.6682827609830753E+00
Pb    8.3354924995282698E+00    9.1153097511810266E+00    2.4763965568406365E+00
Pb    9.0262411778647458E+00    3.5420114544327235E+00    2.5118156119022856E+00
Pb    9.3210998743017512E+00   -1.7527181509209515E+00    8.4528209804830166E+00
Pb    9.9865526624622447E+00   -7.4768648974129786E+00    9.3276534902056465E+00
Pb    8.3594430713397703E+00    1.0388370528969119E+01    8.2061512614902661E+00
Pb    8.8206298877240101E+00    4.3391434879030264E+00    8.4377298449869063E+00
Pb   -8.7821835338938552E+00    3.2238689938897753E+00    9.3057020002800055E+00
Pb   -2.3987505499055457E+00   -3.4689689972772784E+00    3.3355288151289488E+00
Pb   -8.7532497638009978E+00    8.8406586478035702E+00    2.4902310405489505E+00
Pb   -9.5789800302710457E+00    7.9959715458239184E+00   -3.1574622203621985E+00
Pb   -8.4969965645606624E+00   -1.0175741303184877E+01   -7.9522831649025241E+00
Pb   -3.8300253559179676E+00    8.4895225417161111E+00   -9.3606488018031779E+00
Pb   -8.8437125726791699E+00    2.9093890167621863E+00    2.7184752723767511E+00
Pb   -9.6307114813353891E+00    9.1252045368084822E+00    8.6286219183388866E+00
Pb   -2.9802992797261783E+00   -2.9852303207218744E+00   -2.4339967726704397E+00
Br   -3.3268992694328159E-01   -2.9359014069033154E+00   -3.2965918072298415E+00
Br    2.7415307918537963E+00   -2.5130115095372325E+00   -6.1093040594234589E+00
Br    2.5521326386390801E+00    3.2792649224311833E-02   -3.0107599745452118E+00
Br    5.5997095056981816E-01   -8.6603610224877201E+00   -2.0934873391067543E+00
Br    3.4650242778766733E+00   -8.9181565663093139E+00   -5.3981635719316881E+00
Br    3.4298615892152062E+00   -5.9454742185019249E+00   -3.5505553782177901E+00
Br   -3.2461446691600506E+00   -2.8812057413503656E+00   -5.5874380041101590E+00
Br   -7.8362265383782699E+00   -3.1200269605087221E+00    5.9786893585640311E+00
Br   -3.2245133636142600E+00   -7.0203527163918353E-02   -2.5921279058283351E+00
Br    3.1088186658660004E+00   -1.1617882693858331E+01   -2.2904179946272487E+00
Br    1.2103780181952999E+01   -1.4226078761002305E+00    2.2960871708467177E+00
Br   -5.4605423719197397E+00   -8.9462109137577315E+00   -2.4871255647510377E+00
Br   -1.1041357811299424E+01   -3.2704599003266841E+00    3.2826926132035577E+00
Br   -8.2481670275001395E+00   -3.7220993755077134E+00    2.6971568244136457E-01
Br    1.2581879096041975E+01   -7.7481519615338552E+00    2.2837547246807737E+00
Br   -3.3704011868982725E-01    8.3725207062728799E+00   -3.2306018814770345E+00
Br    2.3750395669058499E+00    9.1662888507730269E+00   -6.4328325712437744E+00
Br    3.1927627115919726E+00    1.1900934176472855E+01   -3.8392203160322724E+00
Br   -2.4058250265220937E-01    3.0679415272362234E+00   -3.5783617050423002E+00
Br    2.7075204964936495E+00    2.9118930438609745E+00   -6.1477388614549202E+00
Br    2.7931315713930669E+00    5.8957607585192058E+00   -3.0808557034668533E+00
Br    3.7351230869338220E-01   -3.4940874549578802E+00    3.2746028158814573E+00
Br    2.1107364442353429E+00   -2.3118818432228947E+00    5.3296146536745991E-02
Br    3.0549519068129891E+00    9.2338883849624021E-02    2.5703864154706517E+00
Br    5.8468907909181966E-01   -8.1645358933475016E+00    2.8502906012769462E+00
Br    3.6761120867044395E+00   -8.4292655232981133E+00    4.2144366803808042E-01
Br    4.1453381233790427E+00   -5.5624229880937168E+00    3.2048865312315620E+00
Br   -6.7679903459938187E+00    8.0814299480922163E+00   -8.9345955935703110E+00
Br   -3.6063428521033618E+00    7.1562575416763989E+00   -1.2028787477166142E+01
Br    3.7425185991109102E+00   -1.1413896621547996E+01    3.5143718454042556E+00
Br   -4.2410573565143865E+00    1.1192131822880736E+01   -9.9902943623279139E+00
Br   -3.7976306432542857E+00    5.4298994249356811E+00   -8.8058522964500536E+00
Br   -8.6211874108680728E+00    7.6081713244874533E-02    3.1952524515915637E+00
Br   -2.5459032199273506E+00   -9.3396256761815142E+00   -5.5214287382769562E+00
Br   -5.9684961535990455E+00    8.2075304132729627E+00    3.0262387840231644E+00
Br   -3.9223338517140034E+00    8.9733405141853986E+00   -3.9837359281753071E-01
Br   -3.2463781840439161E+00    1.1501805475722630E+01    2.5282764878772506E+00
Br   -3.1763875724313362E-01    9.2399562884415261E+00    2.3846946305725729E+00
Br    2.3643290436791107E+00    9.9324451718337077E+00   -6.0292779723880074E-01
Br    2.1308450147849887E+00    1.2079028822679117E+01    2.9791856946884123E+00
Br    1.2918805425388760E-01    3.1103776443508968E+00    2.9379526876170896E+00
Br    2.9403233440998591E+00    3.0356991015150476E+00   -3.8091990577890700E-01
Br    2.1137235069310343E+00    6.4879086845091543E+00    1.5624508831781518E+00
Br    4.9574543744068189E-01   -2.1110744457394741E+00    8.6704440706755133E+00
Br    3.7022365139600932E+00   -2.3433979396089324E+00    5.9884021645499548E+00
Br    3.4916005215497457E+00    4.0457144326242345E-01    8.4048409037354705E+00
Br    9.9083262351861767E-01   -8.6091570029863949E+00    8.9191396696092475E+00
Br    4.0026829364013894E+00   -8.8812501986514700E+00    6.2312102210582694E+00
Br    2.8156774424972451E+00   -5.4490284558550606E+00    9.0502563072182891E+00
Br   -1.2171727543362241E+01    2.5523720439149082E+00    2.6436136329628259E+00
Br   -9.0947362493392809E+00    2.2248121655679323E+00   -1.3591910925547920E-01
Br    5.4661824740789680E+00   -1.0706607614588506E+01    1.0035125791353201E+01
Br   -9.5732062957993964E+00    5.6663327966847117E+00    2.9869459633962312E+00
Br   -8.5597013092907002E+00    5.8268082903927487E-02    9.1087170088100731E+00
Br   -2.5343928329205876E+00   -6.0522502691220623E+00   -2.2745445169993368E+00
Br   -5.8763364149395683E+00    2.6702409691746936E+00    2.4688129729455328E+00
Br   -2.5728923355703857E+00    2.3814355525862299E+00    5.0076940426603142E-02
Br   -3.0605323607295807E+00    5.6745605091193827E+00    2.5082540606567916E+00
Br   -3.2737947625943586E-01    8.8292249971171692E+00    7.9756398946548304E+00
Br    2.8620532659307356E+00    8.3007705033028891E+00    5.2598359788792743E+00
Br    1.8391483362188927E+00    1.1963554774840874E+01    6.9683956323143237E+00
Br    2.7151497676199804E-01    2.9171861184870522E+00    8.2959187083123922E+00
Br    3.1531548977373287E+00    3.2014475842210066E+00    5.2258632229004576E+00
Br    2.2761106425579380E+00    6.3634842184392584E+00    8.1185046266073719E+00
Br   -5.4023538006458169E+00   -3.4643258334980396E+00    9.5022978310990016E+00
Br    3.5693777516816834E+00   -2.5574733194576100E+00    1.1699915979537241E+01
Br   -2.5303589165023954E+00   -3.6142190425929872E+00    6.0883294671571173E+00
Br   -2.9026898051309327E+00    1.7066417967829137E-01    8.5576322604938202E+00
Br   -2.7351283314127630E+00   -1.1757688212861032E+01   -2.2082217706503804E+00
Br    3.4498837348594478E+00   -7.6330895232429210E+00    1.2400136105562561E+01
Br   -1.1815919831897988E+01    1.5899426516853787E+00   -3.1819058239996503E+00
Br   -1.7657508318813822E+00   -1.1934636489695707E+01    3.0888547488920040E+00
Br   -1.1426798135853081E+01   -2.9121052280434103E+00   -1.1434593378474913E+00
Br    2.0369083469631319E+00    9.7639696082106191E+00    1.1070842618914748E+01
Br   -9.4225259975149616E+00   -3.8209880874747220E+00   -5.3123762592604900E+00
Br   -8.6101323790845381E+00   -6.5380444636515567E-01   -3.2493050202680229E+00
Br    3.2168546631368633E+00    4.4761987514517267E+00    1.1189151151987078E+01
Br   -6.4117727036516374E+00    7.9317959299540979E+00   -3.6930448190406837E+00
Br   -3.4548767640639095E+00    8.3283218603616636E+00   -6.2700863542823058E+00
Br   -3.3960541967924880E+00    1.1451536103813160E+01   -3.9062526958662938E+00
Br   -6.1942649380088177E+00    2.5819252540566255E+00   -3.4970426390908904E+00
Br   -1.0656513126957655E+01   -8.2295851397630084E+00    3.8157244455680117E+00
Br   -3.3592112395936309E+00    2.1850982300291193E+00   -5.8930421059278650E+00
Br   -6.0523825496973869E+00   -4.0241108035914310E+00   -8.3899470886529848E+00
Br   -3.2699657142604299E+00   -3.8561661395672377E+00   -1.1234544710789608E+01
Br   -3.8448740998918405E+00   -8.4421818003907934E-01   -8.5139271319147785E+00
Br   -2.2234022844845662E+00    2.5501849804800991E+00    1.1674454535352474E+01
Br   -4.8690732955059257E+00   -8.0766422775637121E+00    8.3075823795172994E+00
Br   -1.6903541755557030E+00   -8.8373910773038578E+00    5.9613403951899366E+00
Br   -1.9418949658136322E+00   -5.5464436829141812E+00    8.9993819768449548E+00
Br   -8.0931554399794408E+00   -9.0751630345548477E+00    4.2027801520396824E-01
Br   -7.5228136280279960E+00   -6.0872984007333697E+00    3.0339292084656702E+00
Br   -9.3224485633115517E+00    7.4349257716441386E+00    1.1460006483352421E+01
Br    1.1307592070463494E+01    9.4615747634103471E+00    2.1777632988042908E+00
Br   -7.8286310967197492E+00   -8.3188707166760896E+00    1.2224907777662549E+01
Br    1.1360414239258922E+01    9.6407231328414404E+00   -3.5053854235786028E+00
Br    1.1993193712621711E+01    3.6605542842582950E+00    1.7507458948457746E+00
Br   -8.6804926740086223E+00    2.4803924044084331E+00    1.2036558121631554E+01
Br   -1.1595552267947285E+01   -4.6965786401738390E+00   -8.7092221523387590E+00
Br    1.1846016180188339E+01   -1.2810583574115828E+00    7.2621985023882267E+00
Br   -5.1704820926797712E+00   -9.3553637134319558E+00    2.9740691810094786E+00
Br    5.3769869732746223E+00   -3.4708803474524452E+00   -8.7490025582740110E+00
Br    8.4496052986883328E+00   -2.9735748905420292E+00   -1.1863647486298868E+01
Br    1.2688980201211155E+01   -8.0847188114809523E+00    9.3922221277565185E+00
Br    7.8946746904550711E+00   -1.9762696559378509E-01   -9.4150347269215935E+00
Br   -7.0986933833876336E+00   -1.1315203768627617E+01    9.7419624060751531E+00
Br   -2.3392669580149197E+00   -8.8626201129541649E+00    3.2722670263911763E-01
Br   -2.4431367584387647E+00   -6.2446869014021269E+00    3.0068439793478108E+00
Br    6.0724616026360048E+00   -9.1236611435683805E+00   -8.7750318002668415E+00
Br   -5.4042704569536975E+00   -9.8392919003917445E+00   -7.9876420304630313E+00
Br    9.5366862241038923E+00   -1.0165632691160415E+01   -1.1643233642747370E+01
Br    7.9854176988672050E+00   -6.1794370183454603E+00   -8.6632786261523371E+00
Br   -1.7889452842997811E+00   -1.1433587030763331E+01    8.8252033781434189E+00