 # Version information for this restart file 
 # current date 2021-06-17 12:45:02.955
 # current working dir /user/ub2042/exercises/2_fitting/MM_MD_workdir/md_settings.005
 # Program compiled at                              Thu Apr 22 21:44:59 EDT 2021
 # Program compiled on                cpn-k07-07-02.compute.cbls.ccr.buffalo.edu
 # Program compiled for                                                    local
 # Source code revision number                                       git:36754bb
 &GLOBAL
   PRINT_LEVEL  LOW
   PROJECT_NAME cp2k
   RUN_TYPE  MD
 &END GLOBAL
 &MOTION
   &MD
     ENSEMBLE  NVT
     STEPS  10000
     TIMESTEP     2.4999999999999996E+00
     STEP_START_VAL  2500
     TIME_START_VAL     6.2499999999996226E+03
     ECONS_START_VAL    -1.5890036444644286E+01
     TEMPERATURE     3.0000000000000000E+02
     &BAROSTAT
       PRESSURE     1.0100000000000000E+00
       TIMECON     9.9999999999999982E+03
     &END BAROSTAT
     &THERMOSTAT
       TYPE  CSVR
       &CSVR
         TIMECON     9.9999999999999982E+03
         &THERMOSTAT_ENERGY
              -4.9127798678632761E-02
         &END THERMOSTAT_ENERGY
         &RNG_INIT
Wiener process for Thermostat # 1        1 F T F   4.5885045939525038E-01        3336078289.0         441660928.0        2931313935.0        1048540172.0        1557258966.0        2798850846.0             12345.0             12345.0             12345.0             12345.0             12345.0             12345.0             12345.0             12345.0             12345.0             12345.0             12345.0             12345.0
         &END RNG_INIT
       &END CSVR
     &END THERMOSTAT
     &AVERAGES  T
       &RESTART_AVERAGES
         ITIMES_START  1
         AVECPU     1.7536318162456148E-02
         AVEHUGONIOT     0.0000000000000000E+00
         AVETEMP_BARO     0.0000000000000000E+00
         AVEPOT    -1.6354867935870722E+01
         AVEKIN     4.8655079769112963E-01
         AVETEMP     2.4681189851857550E+02
         AVEKIN_QM     0.0000000000000000E+00
         AVETEMP_QM     0.0000000000000000E+00
         AVEVOL     6.7483345830898639E+06
         AVECELL_A     1.8897261328855873E+02
         AVECELL_B     1.8897261328855873E+02
         AVECELL_C     1.8897261328855873E+02
         AVEALPHA     9.0000000000000000E+01
         AVEBETA     9.0000000000000000E+01
         AVEGAMMA     9.0000000000000000E+01
         AVE_ECONS    -4.0869161167119961E+00
         AVE_PRESS     0.0000000000000000E+00
         AVE_PXX     0.0000000000000000E+00
       &END RESTART_AVERAGES
     &END AVERAGES
     &PRINT
       &ENERGY  SILENT
         &EACH
           MD  10
         &END EACH
       &END ENERGY
     &END PRINT
   &END MD
   &PRINT
     &TRAJECTORY  SILENT
       &EACH
         MD  10
       &END EACH
     &END TRAJECTORY
     &CELL  SILENT
       &EACH
         MD  10
       &END EACH
     &END CELL
     &VELOCITIES  SILENT
       &EACH
         MD  10
       &END EACH
     &END VELOCITIES
     &FORCES  SILENT
       &EACH
         MD  10
       &END EACH
     &END FORCES
     &RESTART  SILENT
       &EACH
         MD  10
       &END EACH
     &END RESTART
   &END PRINT
 &END MOTION
 &FORCE_EVAL
   METHOD  FIST
   &MM
     &FORCEFIELD
       VDW_SCALE14     1.0000000000000000E+00
       EI_SCALE14     1.0000000000000000E+00
       SHIFT_CUTOFF  T
       DO_NONBONDED  T
       IGNORE_MISSING_CRITICAL_PARAMS  T
       &SPLINE
         R0_NB     2.5000000000000000E-01
       &END SPLINE
       &NONBONDED
         &LENNARD-JONES
           ATOMS Br Br
           EPSILON     1.2630795322675199E+02
           SIGMA     3.6900000000000004E+00
         &END LENNARD-JONES
         &LENNARD-JONES
           ATOMS Cs Pb
           EPSILON     8.6920055954630968E+01
           SIGMA     3.6699999999999999E+00
         &END LENNARD-JONES
         &LENNARD-JONES
           ATOMS Cs Cs
           EPSILON     2.2644852172126850E+01
           SIGMA     4.3300000000000001E+00
         &END LENNARD-JONES
         &LENNARD-JONES
           ATOMS Pb Pb
           EPSILON     3.3363415533600227E+02
           SIGMA     5.9000000000000004E+00
         &END LENNARD-JONES
         &LENNARD-JONES
           ATOMS Br Cs
           EPSILON     5.3481070753900497E+01
           SIGMA     3.6300000000000003E+00
         &END LENNARD-JONES
         &LENNARD-JONES
           ATOMS Br Pb
           EPSILON     2.0528187276773045E+02
           SIGMA     2.9800000000000000E+00
         &END LENNARD-JONES
       &END NONBONDED
       &CHARGE
         ATOM Cs
         CHARGE     4.4453099999999995E-01
       &END CHARGE
       &CHARGE
         ATOM Pb
         CHARGE     8.8906199999999991E-01
       &END CHARGE
       &CHARGE
         ATOM Br
         CHARGE    -4.4453099999999995E-01
       &END CHARGE
     &END FORCEFIELD
     &POISSON
       PERIODIC  XYZ
       &EWALD
         EWALD_TYPE  SPME
         GMAX  62 62 62
         O_SPLINE  4
       &END EWALD
     &END POISSON
     &PRINT
       &FF_INFO  LOW
         SPLINE_INFO  F
         SPLINE_DATA  F
       &END FF_INFO
     &END PRINT
   &END MM
   &SUBSYS
     &CELL
       A     1.0000000000000001E+02    0.0000000000000000E+00    0.0000000000000000E+00
       B     0.0000000000000000E+00    1.0000000000000001E+02    0.0000000000000000E+00
       C     0.0000000000000000E+00    0.0000000000000000E+00    1.0000000000000001E+02
       PERIODIC  XYZ
       MULTIPLE_UNIT_CELL  1 1 1
     &END CELL
     &COORD
Cs    3.4876128809838336E-01   -7.5905445060289500E-01   -5.6724279986994564E+00
Cs   -2.0795040842266813E-01   -6.2228174382383692E+00   -5.5418563299899404E+00
Cs   -1.3756174864930906E-01   -1.1119360250741554E+01   -5.7365049174754654E+00
Cs   -6.5019414995960130E+00   -7.0361911281854077E+00   -4.6455146765147406E+00
Br   -8.8450289802223274E+00   -1.2226276223697397E+01   -7.5883587055295907E+00
Br    1.1485931746018119E+01   -1.9118100457040452E+00   -9.0836829164556505E+00
Br   -2.7215685806248104E+00    2.9383897233230742E+00   -1.1401769194693976E+01
Cs   -4.0492798105671102E-01    5.9343879795440424E+00   -5.9949661663979859E+00
Cs   -1.0292141749549379E-01    1.2780925074415081E-01    7.8607275525136489E-01
Cs    6.6007609923954036E-01   -6.0654263590744941E+00   -3.7109153527517848E-02
Br   -5.4972865824350512E+00   -3.2913448725550252E+00    3.8910437508945530E+00
Cs   -1.0361086488793591E+01   -5.6752957972482152E+00    1.2218148928943048E+01
Cs    1.1617010049985323E+01   -1.0819123628881380E+01    6.2103053296088606E-01
Cs   -5.6009616939683768E+00    5.7806233226793866E+00   -2.4890613264888936E-02
Cs   -5.6814206942942924E-01    1.2003395717266709E+01   -2.9105341780086835E-01
Cs   -1.0121454690148546E+00    5.4630308404924026E+00   -1.7309788361641662E-01
Cs    1.1631389411027600E-01   -8.3809165358099041E-02    5.6162516654191119E+00
Cs    3.0311173578017436E-02   -5.9607119606087284E+00    6.3232574398361594E+00
Cs    5.3518277550550319E-01   -1.1246709106130591E+01    6.2484745606239276E+00
Cs   -5.7276878227538619E+00    5.8460619034276791E+00    1.1299688431103315E+01
Cs   -5.3745477116886153E+00   -3.7515284676148281E-01   -1.1234102207375003E+01
Cs   -5.2985506581991721E+00   -1.1854098252952102E+01   -5.3069428249591253E+00
Cs   -5.3066162846645648E+00   -1.7874414094367636E-01    6.2925969765104925E+00
Br   -2.9910214632149348E+00   -3.0214184187549558E+00    1.9713937242671947E-01
Cs    6.5382200713292604E-01    6.2726164868502385E+00    6.1703663359739149E+00
Br    1.1912773057070574E+01   -8.3917410745637309E+00   -7.9183112917549590E+00
Cs    9.1562820902686781E-01   -5.4415655307997497E+00    1.1168587721967162E+01
Br   -2.8666958011766899E+00    9.6971888394345160E-02    3.0886617288734790E+00
Br   -8.1647219541727516E+00   -2.8968624686691840E+00    1.2267679687789393E+01
Cs    9.7339450471291578E+00    1.1764228892919746E+01   -6.8404123000694650E+00
Cs   -1.1150492755156405E+01   -5.7985035943913257E+00    5.9427112204253625E+00
Cs   -5.4748585966168477E+00   -5.6316401808611385E+00    6.4108127802993691E+00
Cs   -6.2674415351962613E+00    1.0476762155543712E+01   -5.7270555432257222E+00
Br   -1.1272043891490185E+01   -9.0672558914610946E+00    1.0362994765269304E+01
Br   -8.6712019561829745E+00   -9.3683250307287018E+00    6.4405990203472205E+00
Cs   -1.1359887007117480E+01   -6.4681238309488389E+00   -5.7018722492021965E+00
Cs   -6.5943859898134276E+00    4.9787776747547463E+00   -5.8553257377261705E+00
Br   -8.8153678966099402E+00   -6.1222272684370083E+00    8.8461028975139566E+00
Cs    1.0845378429226699E+01    7.1494180129675238E+00    1.0565199120364628E+01
Br   -1.1612154162840744E+01    8.4358506999868652E+00    7.8481925741590386E+00
Br   -5.4999633574126650E+00   -3.6942088226958112E+00   -3.0152339204658296E+00
Cs    1.4652688532705249E+00    4.4414713379250464E-01    1.1922629706941807E+01
Cs    1.1258499335408832E+01    5.5723524239637863E+00   -7.2808658761178946E-01
Cs   -1.0819983984677531E+01   -6.9835434199996378E+00   -1.2118378388837066E+01
Cs    1.1275617979688700E+01    5.4416390274994830E-01    6.3611018306178968E+00
Cs   -1.1114854026043004E+01    1.0853023438852398E+01   -6.4797330036735943E+00
Cs    1.1390583654093227E+01   -1.0892196579970230E+01    5.7292584699960667E+00
Cs    5.5757514747134076E+00   -5.9122306825574755E+00   -1.2078517277941229E+01
Cs    6.4092159242416953E+00   -1.0359831173087144E+01    6.1611352269048858E+00
Cs   -5.7044545004243208E+00   -1.1656708637125918E+01    1.0840754217946891E+00
Cs    6.2315502633309006E+00   -1.1291728657133483E+01   -1.0787579256297951E+01
Cs    1.1468183320768228E+01    6.8460013830040740E+00   -6.0052704815402880E+00
Cs    1.0341561951475796E+01    1.2155905583890799E+01    5.2319145534943852E+00
Cs    1.1185214482185080E+01    5.7718419746213572E+00   -1.1358488474707464E+01
Cs   -7.8359179032242821E-02   -6.5435530232908219E+00   -1.0865386767253618E+01
Cs   -1.1084586488561689E+01   -5.1808944654264044E-01   -5.7183312740276344E+00
Cs    5.9948649350330312E+00   -4.9314510554689930E+00    1.1419609042313978E+01
Cs    1.1968463683134759E+01   -5.1827381527191143E+00    6.1194094637797098E+00
Cs   -1.0204974117902829E+01   -1.1792323610347173E+01    1.2338002036940726E+01
Cs    3.7830179299229388E-01   -3.6597586266677118E-01   -1.1237319339691837E+01
Cs    3.5574624265114110E-02    1.1904378174132638E+01    5.9671301722173631E+00
Cs   -6.1394887040543922E-01    5.5526680885893400E+00   -1.1315518815676642E+01
Cs    5.4201365859188506E+00   -4.3083810214859758E-01   -6.1477466679040189E+00
Cs    6.0023958927527525E+00   -5.5393982792980596E+00   -5.8660311691278535E+00
Cs   -5.4565892003908640E+00   -1.0953909233532030E+01    6.4981631886894817E+00
Cs   -1.0856090717158061E+01    1.9118521099512040E-02    6.0827225978342856E+00
Cs    5.7384554898280262E+00    2.9419987304334883E-01   -1.1193897517900917E+01
Cs    4.8508111348286995E+00    1.1720020164856386E+01   -1.1841709030338466E+01
Cs   -3.4597949958580093E-01    6.6456226287454117E+00    1.1277041366219958E+01
Cs   -5.6770977589408007E+00    1.0651016947646971E+01    5.2550834089673710E+00
Cs    5.2191735574140878E+00    1.1165233758683534E+01   -6.7553092487327264E+00
Cs    6.2083266791340606E+00    5.6346613135911756E+00   -5.8707492918058461E+00
Cs    6.5536612149741105E+00    2.5008679778959336E-01   -3.4158495533839572E-01
Cs    5.6944965334784463E+00   -5.0834264727742866E+00   -1.7746617002100393E-01
Cs    5.7725808381668244E+00   -1.1574631922638609E+01    4.7484631598771782E-02
Cs    5.3539507730908813E+00    5.4932778111208425E+00   -1.1691133037428900E+01
Cs   -5.6791738530118590E+00    5.4331785383129745E+00    5.6137138009491858E+00
Cs   -5.8683306303492246E+00   -6.2117237219510146E+00   -1.0880792804281414E+01
Cs    5.9720341330279352E+00    5.7885047912749359E+00   -8.6319828607177973E-01
Cs    5.4332722362371104E+00    5.0017090123596142E-01    6.0063137667333022E+00
Cs    5.9711177533492110E+00   -4.9962255996577838E+00    5.5994094699633745E+00
Cs   -5.6774180164766772E+00    1.1245590934197761E+01   -5.2754815474658256E-01
Cs    1.1287020082273376E+01    1.0904679603652609E+00   -2.3200591968415163E-01
Cs   -5.5445622438386915E+00    1.7023235612283374E-01    2.5742049348715446E-01
Cs   -1.1333343016066573E+01    6.0951910888269989E+00    5.5393759170393562E+00
Cs   -5.4308176459048187E+00    1.7108143850415142E-01    1.1184997831469650E+01
Cs    5.3360967071140273E+00    1.1629841225319199E+01    5.1874172606457982E+00
Cs    5.6497640409564891E+00    6.3803742747736818E+00    5.7477669165027070E+00
Cs    6.9286366371647299E+00    9.5628249088094353E-01    1.1648071153866397E+01
Cs    5.5486229492053711E+00    1.1428861545755854E+01   -5.6941079356363067E-01
Cs    1.0974460344646211E+01   -1.0665635514768172E-01   -6.6505753542874917E+00
Cs    1.1569865103585666E+01   -4.9650421546424601E+00   -5.9591874494263131E+00
Cs    6.8414813864771338E+00   -1.1106433031639899E+01    1.1394762625425972E+01
Cs    1.1534452717131414E+01    1.1112474337852635E+01   -4.9326164216384272E-01
Cs   -1.0523207344754692E+01   -4.2289263607812755E-01    1.2080555069317629E+01
Cs   -4.9461868908060236E+00    5.3937621587989808E+00   -1.1711604070456870E+01
Cs   -1.1603078139128460E+01    1.0261393954003609E+01   -2.9756176471150753E-01
Cs   -5.0294412503155357E+00   -5.5561318702098452E+00    1.2544789183573247E+01
Cs   -4.4490407737060567E+00   -1.1423614939941864E+01    1.1307374772185389E+01
Cs    5.4917966265125102E+00    7.0173853481602517E+00    1.0929420207530468E+01
Cs    1.1605861751443300E+01   -5.6472087695923099E+00    1.1680705590372278E+00
Cs   -1.1027535139043909E+01   -9.4989633334476986E-01    4.2303290505676633E-02
Cs   -6.6309248233173719E+00    9.9982071080593311E+00   -1.2373703192928527E+01
Cs   -1.1078736822876291E+01    4.6859980197385038E+00   -7.4053614636983761E-02
Cs   -1.1027549923247559E+01   -1.2313055310050620E+01   -4.8633622673661199E+00
Cs   -1.2366355398881439E+01   -6.1859715356473606E+00    7.4284768470012502E-02
Cs   -5.1689037404331710E+00   -5.3212199882872078E+00    8.1752497266706448E-01
Cs   -1.1248185274555343E+01   -1.1243815384411691E+01    6.1843652854339739E+00
Cs    1.1503371197623956E+01   -4.6985813918152628E+00    1.1928451435256171E+01
Cs    1.1398408533053416E+01    6.4992860610524659E+00    4.7455315411950760E+00
Cs   -1.1214331242745734E+01    3.9655599487639108E+00   -5.6058498659035489E+00
Cs   -5.4085929103616843E+00   -9.5138796868401454E-01   -5.4527287396527555E+00
Cs   -1.1287687754443459E+01   -1.1410718171524703E+01    3.4645870450812778E-02
Cs    1.3047163202387358E+01   -1.0820014603920969E+01   -9.4454112432747426E+00
Cs   -1.1307690335961322E+01   -1.2310842499629681E+01   -1.0344107800547020E+01
Cs   -5.6711341050931319E-01    1.0705373932067188E+01   -1.2411061592514294E+01
Cs    1.4188157611112787E-01   -1.2038280393153903E+01   -1.1663905297542078E+01
Cs   -5.4455860370312392E-01    1.1346933940465993E+01   -5.6540805418123741E+00
Cs   -6.3856061861745541E+00    1.1296930614151158E+01    1.0806633905801602E+01
Cs    6.8368234466957079E-01   -1.1644832041226429E+01    3.5959031713508638E-01
Cs   -1.0418216206697867E+01    9.9623684683723623E-01   -1.2201544412732618E+01
Cs   -1.1126324842705692E+01    1.1739421191307343E+01    5.8088659280424997E+00
Cs    6.5802799411992732E+00   -1.1001969937632069E+01   -5.0181902784586354E+00
Cs    1.0732221838387719E+01   -2.0406102454878607E+00   -1.2469224700096069E+01
Cs    1.1006991022083297E+00    1.2148956185995086E+01    1.1279414439761577E+01
Pb    3.1208688731971885E+00   -3.0324932523131332E+00   -3.2408454376360134E+00
Pb    3.0715137413477720E+00   -8.8746435351044113E+00   -2.6636658459523548E+00
Pb   -8.4079135701370848E+00   -3.3053133084077819E+00    3.0480099866359929E+00
Pb   -2.8862409250834431E+00   -8.9313372308222085E+00   -2.3913658249909542E+00
Pb    2.6861193805773174E+00    8.9626805110817251E+00   -3.3787511992642059E+00
Pb    2.8872069020667901E+00    2.8231758720186817E+00   -3.2337872155725287E+00
Pb    3.0098794055379972E+00   -2.5428656594875223E+00    2.6696342588859276E+00
Pb    3.1640482019716307E+00   -8.3442751749123527E+00    3.0334178834574992E+00
Pb   -3.2371375948279111E+00    8.6563330146051900E+00    2.4697319964480178E+00
Pb    2.5124205432122513E+00    9.3241775583055659E+00    2.3038940734708948E+00
Pb    2.5981686951876908E+00    3.5347895270803851E+00    2.7773343998556683E+00
Pb    3.2577567126331544E+00   -2.3020456520593924E+00    8.5678281740900104E+00
Pb    3.4614255220223074E+00   -8.6316094888189561E+00    9.1932748169473850E+00
Pb   -2.9640170916421500E+00    3.0105374643755378E+00    3.5523279630732167E+00
Pb    2.7509768990406585E+00    9.1830814074743845E+00    8.5045380560728603E+00
Pb    3.1930056749323397E+00    3.2556269303493184E+00    8.6397835660736000E+00
Pb   -2.3587663785534456E+00   -2.8832804879743397E+00    9.3097746517313968E+00
Pb   -8.7087891724881619E+00   -9.1501250526599716E+00    3.4971183084469439E+00
Pb   -8.5938384685964007E+00    2.0751662242402498E+00   -2.9634422996205791E+00
Pb   -3.0367104018327935E+00   -3.2228261419283100E+00   -8.6732682818015441E+00
Pb   -2.7080506849796233E+00   -8.6461255813542301E+00    3.3885524329339809E+00
Pb   -3.2572557320105857E+00    8.5920893343790183E+00   -3.6712387267152526E+00
Pb   -2.2561259357057071E+00   -8.7377094736246264E+00    9.4804662626300438E+00
Pb   -8.6929058596145996E+00   -3.7069910970059121E+00   -2.5736809166241001E+00
Pb   -8.8189410043180807E+00   -9.4206045203567292E+00   -2.3000722388391042E+00
Pb   -2.8951471009874066E+00    2.7599481132125172E+00   -2.8597926814443633E+00
Pb   -8.3668621029985388E+00   -8.9140098229698079E+00    9.4833244047541303E+00
Pb   -8.7781695458017399E+00   -3.4218397003619989E+00   -8.3157677622833521E+00
Pb    8.5762279880985606E+00   -2.9890110406627701E+00   -8.8452481505211455E+00
Pb    9.1761108743932915E+00   -8.7184314941882626E+00   -8.3081025484559845E+00
Pb   -2.8013417370862430E+00   -9.3863043943591471E+00   -8.6281188373617432E+00
Pb   -9.3503319717502897E+00    8.2075448627644292E+00   -9.3665141637183318E+00
Pb    2.6003355569838074E+00   -3.3145206510677943E+00   -9.0717040312168393E+00
Pb    3.3022438185022236E+00   -8.8686435014734890E+00   -8.5835420707702497E+00
Pb   -2.6923259489989135E+00    3.0140152967410248E+00   -8.5275921925767388E+00
Pb    2.3367173533013443E+00    9.4290998434056910E+00   -9.4018492046608682E+00
Pb    2.9384215701612568E+00    3.0822860343088330E+00   -9.3562446004032065E+00
Pb    9.0851329375446408E+00   -2.7125411439961185E+00   -3.1816856113662269E+00
Pb    8.9265553338796675E+00   -8.2835586421485257E+00   -2.4689820213027653E+00
Pb   -8.4959346836351095E+00   -3.0957913969668587E+00    9.0954235849479694E+00
Pb    8.0852092479591722E+00    8.7919113716717039E+00   -9.3442720280409421E+00
Pb   -8.4668665195617319E+00    2.2521974532889888E+00   -8.8467219959806762E+00
Pb   -2.9369719724331014E+00    8.6380687012038333E+00    8.4288921847358047E+00
Pb    8.5746355332477560E+00    8.7544780615766147E+00   -3.6966195826079855E+00
Pb    8.6801161838038077E+00    2.9495980477451398E+00   -3.4029582895865040E+00
Pb    9.0322989111922958E+00   -2.3686630237604245E+00    2.4646642732388098E+00
Pb    9.0254448921949564E+00   -8.5852042581433743E+00    3.1145289144692700E+00
Pb    9.3557435618270475E+00    3.2464405642471643E+00   -9.0905605370230234E+00
Pb   -2.6459371298028120E+00    2.7162459133794075E+00    9.2604778253395938E+00
Pb    8.2229374231190882E+00    9.0815092330443985E+00    2.0607633027066550E+00
Pb    8.4909966561755787E+00    3.3809513230700898E+00    2.3668666347928138E+00
Pb    9.0471715547879370E+00   -2.3391904832052339E+00    8.5481542848867207E+00
Pb    9.7446002720208451E+00   -8.2900520736238317E+00    9.0946693283107258E+00
Pb    8.4846459157037888E+00    9.5762936476865281E+00    7.8836406675114699E+00
Pb    9.0951811432786727E+00    3.6083590906398713E+00    8.3209165016451081E+00
Pb   -8.8812204168542799E+00    2.9104787366548353E+00    8.5310207201453263E+00
Pb   -2.7281691848959166E+00   -2.7966238293583308E+00    3.3525957842646648E+00
Pb   -9.1909138759904287E+00    8.5575597676707993E+00    2.6225994440492038E+00
Pb   -9.1708934372131434E+00    7.8997007231987260E+00   -3.1476788813211209E+00
Pb   -8.4967630280976856E+00   -9.4710573956524726E+00   -8.2969598512204392E+00
Pb   -3.3530546508883790E+00    8.6132415134146036E+00   -9.0973305894334420E+00
Pb   -8.8759840195234077E+00    2.5248695347071619E+00    2.9261316946291349E+00
Pb   -8.9481820522424922E+00    8.9166624888961348E+00    8.5359028729381468E+00
Pb   -2.6402228613500118E+00   -3.1899675573455837E+00   -2.6630545059640944E+00
Br    3.1640300006162531E-01   -3.6025017780520812E+00   -2.9481309733847070E+00
Br    2.8681400816468949E+00   -3.1192052887067270E+00   -6.0159530670845038E+00
Br    3.0735112624032888E+00   -9.0507637530166073E-03   -3.0502063306492513E+00
Br    3.3048698123012055E-01   -8.7072662370648199E+00   -3.1250800409959840E+00
Br    3.2492704559675349E+00   -8.7230865586932484E+00   -5.6041369572889801E+00
Br    3.2010076585160463E+00   -5.7989825862612783E+00   -2.8243209322566116E+00
Br   -2.5148948509226638E+00   -2.9772048462045513E+00   -5.8766456988771427E+00
Br   -8.5905111283896431E+00   -3.2070355790387906E+00    6.0289356239517060E+00
Br   -2.9803939912639086E+00   -8.8057066692463243E-02   -3.1213677102212896E+00
Br    3.1331309028301213E+00   -1.1847610265979464E+01   -2.3862973039820723E+00
Br    1.1767899804022953E+01   -2.5129972377297194E+00    2.2376205517494854E+00
Br   -5.9501304369547130E+00   -9.7509732192054894E+00   -2.3563186497354298E+00
Br   -1.1228694589744091E+01   -3.6599562849153293E+00    2.5555246935225520E+00
Br   -7.8929805226474032E+00   -3.6104079319821358E+00    2.6963383770274679E-01
Br    1.1708023343786174E+01   -8.6528750311001161E+00    3.0817044326172245E+00
Br   -3.4575461670910945E-01    8.9880311591905144E+00   -3.1234227646946198E+00
Br    2.6212543099211350E+00    8.9062213461969773E+00   -6.4266536868640358E+00
Br    2.3418617788665710E+00    1.1754951724990949E+01   -3.9352782556270705E+00
Br   -9.8226533342552116E-02    2.9260403742949279E+00   -2.3265827661765486E+00
Br    2.7636901219051504E+00    2.3560905157304490E+00   -6.2226517923327869E+00
Br    3.4072786698206143E+00    6.1259948658829222E+00   -3.2451027959292973E+00
Br    1.0024123389576284E-01   -2.7895989360876090E+00    2.6854850927147003E+00
Br    3.0378134396891707E+00   -2.6085780118570088E+00   -2.0453232117992626E-01
Br    2.4784621250033863E+00    3.6428208535614809E-01    2.8540191337877880E+00
Br    9.9527433061866552E-02   -8.3909234167450517E+00    3.2939565992202366E+00
Br    3.0147083681549449E+00   -8.8729822885171341E+00    2.4291475062904991E-01
Br    2.9082232388581954E+00   -5.2875757248105089E+00    2.4790827915996387E+00
Br   -6.2467360040334858E+00    8.6468320614047798E+00   -9.2300600798533399E+00
Br   -3.7114443703541338E+00    8.7043112074449418E+00   -1.2076406426826143E+01
Br    3.6839265178786706E+00   -1.1351326446083077E+01    2.8182277398725724E+00
Br   -2.9913281357852677E+00    1.1648431807751543E+01   -9.0621543905408029E+00
Br   -2.9492713957605390E+00    5.7930667308129991E+00   -8.9854831473415917E+00
Br   -8.4957216526595971E+00   -4.2822803409666149E-01    2.8872683409685376E+00
Br   -3.0586979683497346E+00   -9.0695910143067042E+00   -5.3385507668015988E+00
Br   -6.3868120886932669E+00    9.2288901685592126E+00    2.3811376685622756E+00
Br   -3.6001063461417986E+00    8.3714709030570802E+00   -4.1679004043084961E-01
Br   -3.4504539542869193E+00    1.1592936082038989E+01    3.1332646526082311E+00
Br   -3.0947090317336984E-01    8.5986013420734313E+00    2.3886130326147059E+00
Br    2.5445734555726931E+00    9.4504016510541113E+00   -5.9228096844973765E-01
Br    2.3854365830707316E+00    1.2168450130455861E+01    2.1861336054435316E+00
Br   -1.3330453513700072E-01    3.5223718435260571E+00    2.9931172298458790E+00
Br    2.8671582851231472E+00    3.7388144857779171E+00   -1.0076040492405439E-01
Br    3.2314348129228603E+00    6.5772189584519056E+00    2.7995752046232463E+00
Br    3.8439865727522105E-01   -2.5167387457428005E+00    9.0112681641487065E+00
Br    3.4952689235435543E+00   -2.0267418384427032E+00    5.6351117551081620E+00
Br    3.2767411161246374E+00    4.3561841585872246E-01    9.0369625655702563E+00
Br    5.3885269070919639E-01   -9.3402216865575234E+00    9.0750809251902993E+00
Br    2.9173725559511001E+00   -8.4523259365203582E+00    6.2257085650386061E+00
Br    3.3645778761731790E+00   -5.1306792533691956E+00    8.1807922067617902E+00
Br   -1.1777267159902715E+01    2.5284402092270373E+00    2.8512027887047577E+00
Br   -8.5556536974152504E+00    2.1819819030490684E+00   -1.7874859620986924E-01
Br    4.2003997782270517E+00   -1.1188670601145796E+01    9.0051902428323061E+00
Br   -8.3097160004993764E+00    5.4621807105099389E+00    2.3233149482280835E+00
Br   -8.3182771668043873E+00   -7.5742618766622416E-02    8.4290258549473069E+00
Br   -2.7038426474963129E+00   -6.1230783015689676E+00   -2.7918961588294331E+00
Br   -5.9042292966821224E+00    2.3805474709972025E+00    3.4758550532368777E+00
Br   -3.5034625750052819E+00    2.8402905123094002E+00   -5.7808158238750192E-02
Br   -3.4750715928558704E+00    5.6139172228969896E+00    2.7271949343536610E+00
Br   -5.1484638919266530E-02    9.1236852324691213E+00    8.1401869726212173E+00
Br    2.8204137256241033E+00    9.4110726575387584E+00    5.1696711594750404E+00
Br    2.5532708759291571E+00    1.2107979730286198E+01    8.3780066399874915E+00
Br    3.6981740896758603E-01    2.8304696144764994E+00    9.1774065449294362E+00
Br    2.7530163763459710E+00    3.4166805750912292E+00    5.5952664366471403E+00
Br    3.0089982391732342E+00    6.2107380979830413E+00    8.5203648701992734E+00
Br   -5.1864976371078138E+00   -3.3143763321862934E+00    8.6432006429827712E+00
Br    3.5002058459900898E+00   -2.5930546714337543E+00    1.1598575285960306E+01
Br   -2.3194011133678774E+00   -3.1263276011479513E+00    6.1987823018656449E+00
Br   -2.6022005085431048E+00   -2.1032180356602420E-01    9.1165788946059347E+00
Br   -2.3545444291681852E+00   -1.1971297335685536E+01   -2.1673974840532724E+00
Br    3.6642989940066775E+00   -7.5576337160721945E+00    1.1804534912581603E+01
Br   -1.1467052651375877E+01    1.8081024033062070E+00   -2.9236501657565594E+00
Br   -2.3663499228884581E+00   -1.1411229004921909E+01    3.2313425086196301E+00
Br   -1.1648179876385452E+01   -4.1624927243530374E+00   -3.1011078718252194E+00
Br    2.2421300935791586E+00    8.9460823608418085E+00    1.1435965369050857E+01
Br   -8.5924116349878634E+00   -3.9226977920577535E+00   -5.5824979076312529E+00
Br   -8.6421414781445378E+00   -9.0904477724343202E-01   -2.8400581432606016E+00
Br    3.5231222393925496E+00    3.9521441518504772E+00    1.1438092492484312E+01
Br   -6.1834648042414884E+00    8.3479632285668934E+00   -3.1036381292095685E+00
Br   -2.8286036378924049E+00    8.7070537211235131E+00   -6.3445713029263304E+00
Br   -3.4332450268755097E+00    1.1419236882412621E+01   -3.1461805382691446E+00
Br   -5.7782914050133174E+00    2.0896210877469272E+00   -2.9341753137808584E+00
Br   -1.1617457806783893E+01   -8.7184605010144018E+00    3.4956673507357015E+00
Br   -2.3278326204108342E+00    2.7449239351857702E+00   -5.6272246724381976E+00
Br   -5.6544994400075339E+00   -3.2354988000312606E+00   -7.9698972319904460E+00
Br   -3.7973459330505164E+00   -3.7777365201570050E+00   -1.1521868892205669E+01
Br   -3.0116717567725639E+00   -4.8351134480350205E-01   -9.0889945979727660E+00
Br   -3.4312503954538287E+00    2.5586321760375985E+00    1.2088882184769005E+01
Br   -5.3602421298297438E+00   -8.4890173081891707E+00    9.3077218687399057E+00
Br   -2.8769846396242618E+00   -8.2523193847036609E+00    6.3916207669091420E+00
Br   -2.1022181904353543E+00   -5.8930864950340176E+00    9.2990139825698552E+00
Br   -8.3222710109606339E+00   -9.1968747826140032E+00    7.4785234539298584E-01
Br   -8.1556989307038883E+00   -6.2556019849569156E+00    3.3078042695448673E+00
Br   -8.6957763324968198E+00    8.7518596897845899E+00    1.1180299086565647E+01
Br    1.1624888347670025E+01    9.1674538824398475E+00    2.3123407723096245E+00
Br   -8.0615253531972471E+00   -8.2113044459791684E+00    1.2181814831678405E+01
Br    1.1665051763674132E+01    8.7141094996461561E+00   -2.9996357571066623E+00
Br    1.1330075319039302E+01    4.1714801706621909E+00    2.2854562936404306E+00
Br   -8.7961653746654527E+00    2.3334814023132853E+00    1.1794678912049660E+01
Br   -1.1505451004019855E+01   -3.5694992631275402E+00   -7.6325731318588739E+00
Br    1.1950959024579298E+01   -2.4912263332007378E+00    7.8377295617017699E+00
Br   -5.3048103588205455E+00   -9.4736358068328617E+00    3.4996523666604880E+00
Br    5.7197418247769107E+00   -3.1524514700362873E+00   -9.0496544817624027E+00
Br    8.2451618823798558E+00   -3.6196555167500852E+00   -1.2021583244304573E+01
Br    1.2438699462408415E+01   -7.9777043927676354E+00    7.6914324808731012E+00
Br    8.2894291671186231E+00   -2.0691928531156742E-02   -8.9382336325201894E+00
Br   -8.3994428194931494E+00   -1.1984707184476799E+01    9.3162889077494189E+00
Br   -3.1158165610902886E+00   -8.0710136126486152E+00    4.5717347129683278E-01
Br   -2.2279050397523203E+00   -5.6858844988286741E+00    3.7900074075648424E+00
Br    6.1350500976734983E+00   -8.2265050375601767E+00   -9.3306679425136156E+00
Br   -5.6506701676006408E+00   -9.1057531964936285E+00   -8.4961035617909371E+00
Br    9.5035378060186062E+00   -9.6395594553356894E+00   -1.1038272403616862E+01
Br    8.8605534141368736E+00   -5.6654768410924881E+00   -8.5894524391396931E+00
Br   -2.9797285408320677E+00   -1.1618939529155833E+01    8.5123241987337348E+00