 # Version information for this restart file 
 # current date 2021-06-17 12:46:12.633
 # current working dir /user/ub2042/exercises/2_fitting/MM_MD_workdir/md_settings.005
 # Program compiled at                              Thu Apr 22 21:44:59 EDT 2021
 # Program compiled on                cpn-k07-07-02.compute.cbls.ccr.buffalo.edu
 # Program compiled for                                                    local
 # Source code revision number                                       git:36754bb
 &GLOBAL
   PRINT_LEVEL  LOW
   PROJECT_NAME cp2k
   RUN_TYPE  MD
 &END GLOBAL
 &MOTION
   &MD
     ENSEMBLE  NVT
     STEPS  10000
     TIMESTEP     2.4999999999999996E+00
     STEP_START_VAL  6500
     TIME_START_VAL     1.6249999999999092E+04
     ECONS_START_VAL    -1.5890036444644286E+01
     TEMPERATURE     3.0000000000000000E+02
     &BAROSTAT
       PRESSURE     1.0100000000000000E+00
       TIMECON     9.9999999999999982E+03
     &END BAROSTAT
     &THERMOSTAT
       TYPE  CSVR
       &CSVR
         TIMECON     9.9999999999999982E+03
         &THERMOSTAT_ENERGY
              -1.3647749055117009E-01
         &END THERMOSTAT_ENERGY
         &RNG_INIT
Wiener process for Thermostat # 1        1 F T F  -2.3128527479914282E-01        1729520286.0         791701394.0        1751649578.0        1556234409.0        3197624234.0        4093563390.0             12345.0             12345.0             12345.0             12345.0             12345.0             12345.0             12345.0             12345.0             12345.0             12345.0             12345.0             12345.0
         &END RNG_INIT
       &END CSVR
     &END THERMOSTAT
     &AVERAGES  T
       &RESTART_AVERAGES
         ITIMES_START  1
         AVECPU     1.7464271026770947E-02
         AVEHUGONIOT     0.0000000000000000E+00
         AVETEMP_BARO     0.0000000000000000E+00
         AVEPOT    -1.6334988320267698E+01
         AVEKIN     5.1492337323603787E-01
         AVETEMP     2.6120441265960829E+02
         AVEKIN_QM     0.0000000000000000E+00
         AVETEMP_QM     0.0000000000000000E+00
         AVEVOL     6.7483345830909889E+06
         AVECELL_A     1.8897261328855731E+02
         AVECELL_B     1.8897261328855731E+02
         AVECELL_C     1.8897261328855731E+02
         AVEALPHA     9.0000000000000000E+01
         AVEBETA     9.0000000000000000E+01
         AVEGAMMA     9.0000000000000000E+01
         AVE_ECONS    -4.5679815779989212E+00
         AVE_PRESS     0.0000000000000000E+00
         AVE_PXX     0.0000000000000000E+00
       &END RESTART_AVERAGES
     &END AVERAGES
     &PRINT
       &ENERGY  SILENT
         &EACH
           MD  10
         &END EACH
       &END ENERGY
     &END PRINT
   &END MD
   &PRINT
     &TRAJECTORY  SILENT
       &EACH
         MD  10
       &END EACH
     &END TRAJECTORY
     &CELL  SILENT
       &EACH
         MD  10
       &END EACH
     &END CELL
     &VELOCITIES  SILENT
       &EACH
         MD  10
       &END EACH
     &END VELOCITIES
     &FORCES  SILENT
       &EACH
         MD  10
       &END EACH
     &END FORCES
     &RESTART  SILENT
       &EACH
         MD  10
       &END EACH
     &END RESTART
   &END PRINT
 &END MOTION
 &FORCE_EVAL
   METHOD  FIST
   &MM
     &FORCEFIELD
       VDW_SCALE14     1.0000000000000000E+00
       EI_SCALE14     1.0000000000000000E+00
       SHIFT_CUTOFF  T
       DO_NONBONDED  T
       IGNORE_MISSING_CRITICAL_PARAMS  T
       &SPLINE
         R0_NB     2.5000000000000000E-01
       &END SPLINE
       &NONBONDED
         &LENNARD-JONES
           ATOMS Br Br
           EPSILON     1.2630795322675199E+02
           SIGMA     3.6900000000000004E+00
         &END LENNARD-JONES
         &LENNARD-JONES
           ATOMS Cs Pb
           EPSILON     8.6920055954630968E+01
           SIGMA     3.6699999999999999E+00
         &END LENNARD-JONES
         &LENNARD-JONES
           ATOMS Cs Cs
           EPSILON     2.2644852172126850E+01
           SIGMA     4.3300000000000001E+00
         &END LENNARD-JONES
         &LENNARD-JONES
           ATOMS Pb Pb
           EPSILON     3.3363415533600227E+02
           SIGMA     5.9000000000000004E+00
         &END LENNARD-JONES
         &LENNARD-JONES
           ATOMS Br Cs
           EPSILON     5.3481070753900497E+01
           SIGMA     3.6300000000000003E+00
         &END LENNARD-JONES
         &LENNARD-JONES
           ATOMS Br Pb
           EPSILON     2.0528187276773045E+02
           SIGMA     2.9800000000000000E+00
         &END LENNARD-JONES
       &END NONBONDED
       &CHARGE
         ATOM Cs
         CHARGE     4.4453099999999995E-01
       &END CHARGE
       &CHARGE
         ATOM Pb
         CHARGE     8.8906199999999991E-01
       &END CHARGE
       &CHARGE
         ATOM Br
         CHARGE    -4.4453099999999995E-01
       &END CHARGE
     &END FORCEFIELD
     &POISSON
       PERIODIC  XYZ
       &EWALD
         EWALD_TYPE  SPME
         GMAX  62 62 62
         O_SPLINE  4
       &END EWALD
     &END POISSON
     &PRINT
       &FF_INFO  LOW
         SPLINE_INFO  F
         SPLINE_DATA  F
       &END FF_INFO
     &END PRINT
   &END MM
   &SUBSYS
     &CELL
       A     1.0000000000000001E+02    0.0000000000000000E+00    0.0000000000000000E+00
       B     0.0000000000000000E+00    1.0000000000000001E+02    0.0000000000000000E+00
       C     0.0000000000000000E+00    0.0000000000000000E+00    1.0000000000000001E+02
       PERIODIC  XYZ
       MULTIPLE_UNIT_CELL  1 1 1
     &END CELL
     &COORD
Cs   -7.1915982087298336E-01   -1.4375890635046942E+00   -5.7161144856736072E+00
Cs    8.3944352146786042E-02   -7.0244729948321938E+00   -5.5269972697674383E+00
Cs    6.2564658677039153E-01   -1.1589126636980890E+01   -5.0814741654453277E+00
Cs   -5.1998886008000724E+00   -7.4630538976214407E+00   -5.2014283940625647E+00
Br   -7.3154345506147092E+00   -1.3409721073913351E+01   -6.8182271547363502E+00
Br    1.1298543864084760E+01   -1.9812128203754067E+00   -9.4041252219440103E+00
Br   -4.1131095637054322E+00    1.5526343711583599E+00   -1.1608302890821504E+01
Cs   -3.6545833524022908E-01    5.7296187081296726E+00   -6.3135330531408425E+00
Cs    6.6930736668747715E-01   -2.5248601611250507E-03   -3.0844489955495345E-02
Cs    1.1450015753515175E+00   -6.1553917160811036E+00    2.3955187339044368E-01
Br   -5.3024690646759440E+00   -3.4321354778599145E+00    3.5136015070638367E+00
Cs   -1.0280801735633016E+01   -5.7965893056444830E+00    1.2020408172517193E+01
Cs    1.2224140554370305E+01   -1.1151390724508424E+01    1.2498627691172608E+00
Cs   -6.1629766409938567E+00    5.5979341805512179E+00    4.7606225860570744E-01
Cs   -7.2272484162318085E-01    1.1531251970716095E+01   -1.2088602872955483E+00
Cs   -6.8506559405456913E-01    6.1161819971796323E+00   -9.9553168694800787E-01
Cs    1.1558026881618559E+00    5.7738146132600809E-01    5.9135913259335213E+00
Cs    3.2533481219785465E-01   -5.0202704627459465E+00    5.7070353129126348E+00
Cs    2.0418366319367669E+00   -1.0806307583906388E+01    7.5851498643765751E+00
Cs   -5.8526656067324536E+00    7.2770251253607858E+00    1.1771896911089845E+01
Cs   -6.8664839961622048E+00   -1.0851942910676851E+00   -1.1423819526330016E+01
Cs   -5.1394655408074383E+00   -1.2306165723303826E+01   -4.3250566001791482E+00
Cs   -5.4155549534974510E+00    3.9591158842930185E-01    5.9997807512984327E+00
Br   -2.7253222169558620E+00   -3.5263410178100347E+00    2.5196534786433824E-02
Cs   -5.1436399982219927E-01    6.4581262863611935E+00    5.3409147465258133E+00
Br    1.2719029318901635E+01   -8.5174383167171861E+00   -7.3480920676928934E+00
Cs    1.4207469498823786E+00   -4.4557817217402045E+00    1.1734623782552244E+01
Br   -3.3808231628258434E+00    1.4515481622701150E-02    2.9577954552820542E+00
Br   -7.6285914366304111E+00   -2.5517004872522913E+00    1.2120541319352247E+01
Cs    9.9476281399433351E+00    1.2123825230182909E+01   -7.9131060028004336E+00
Cs   -1.0225875038899721E+01   -6.3986792844444373E+00    7.1448043482991057E+00
Cs   -4.6949930292588329E+00   -4.9088080780758787E+00    6.4033463248520679E+00
Cs   -8.2265680475410452E+00    1.0262978375402206E+01   -6.3281745590519929E+00
Br   -1.0465169518346897E+01   -8.1609226226059413E+00    9.8274197864792097E+00
Br   -7.7926009919828969E+00   -9.2072165035216980E+00    7.1991767358891927E+00
Cs   -1.0949082555536787E+01   -7.8851170891778715E+00   -5.6130621264644303E+00
Cs   -6.8122090224113547E+00    4.2456780319717478E+00   -6.0306270561676572E+00
Br   -7.5496230521066181E+00   -5.6427987256934413E+00    9.0379826196094655E+00
Cs    1.1444681254379557E+01    7.3711264147650146E+00    1.0161017273312712E+01
Br   -1.2490192205988928E+01    8.2845201838477021E+00    7.1053211350668395E+00
Br   -5.6327148541152168E+00   -3.6178423128947439E+00   -2.7553605530898126E+00
Cs    1.1534189551259890E+00    8.7060239162033592E-01    1.1551206409218070E+01
Cs    1.0517369312604565E+01    6.5584076912233717E+00   -1.2750335981305310E+00
Cs   -1.0953818494238146E+01   -8.7481784327224705E+00   -1.0176600634459600E+01
Cs    1.1853972509568484E+01    1.9522378997246392E+00    5.9647790438640236E+00
Cs   -1.2971717052456775E+01    8.9616386727390847E+00   -7.0356605671709582E+00
Cs    1.3276411890157526E+01   -8.6903503489786864E+00    6.4383840362393547E+00
Cs    6.4557447329302784E+00   -6.6932369893065564E+00   -1.0336681107504683E+01
Cs    7.0703464715617201E+00   -1.0207380242339687E+01    6.9814562403783542E+00
Cs   -3.3006147174901974E+00   -1.1932919252571638E+01    1.4323581526826417E+00
Cs    6.7817624106125765E+00   -1.1802714952157823E+01   -1.1037462591721161E+01
Cs    1.0126684385138434E+01    6.1561454348565823E+00   -7.8887872640857974E+00
Cs    1.0644041696190055E+01    1.2571635752250131E+01    3.6688402427253779E+00
Cs    1.0240911049194654E+01    5.0917719720843104E+00   -1.2329362304269951E+01
Cs    5.7404359998959698E-01   -6.6917348057553285E+00   -1.2078495469495616E+01
Cs   -1.2000794478968757E+01   -1.0382364194094118E+00   -5.2393960767924987E+00
Cs    7.1167483502227000E+00   -4.0975412896986310E+00    1.1214648888631048E+01
Cs    1.2341004212810857E+01   -4.2978156034171668E+00    5.7120360423024445E+00
Cs   -5.0680679435174376E+00   -1.0143325875871758E+01    1.3283453296428480E+01
Cs   -3.7902473821102556E-01   -1.0388857327457774E+00   -1.1112090364766967E+01
Cs   -1.5195321310484917E+00    1.1982280966211883E+01    4.1079014382517487E+00
Cs   -1.3027586430509315E+00    4.8617920317812686E+00   -1.1693247426193203E+01
Cs    5.6115841721796649E+00   -5.0881796856524530E-01   -6.1295890752517863E+00
Cs    5.7229216954108493E+00   -6.2299074679210280E+00   -5.4375860004935355E+00
Cs   -5.1631466984418521E+00   -1.1397416649326601E+01    7.5432242554867974E+00
Cs   -1.0338234133028941E+01    1.9892467854020668E-01    6.5268311693951349E+00
Cs    4.4384077035254661E+00   -1.5969598726279830E+00   -1.1662143279363027E+01
Cs    4.4381689085989002E+00    1.1520651055773364E+01   -1.2544674814069772E+01
Cs   -6.5111946044812330E-01    8.0498916762261707E+00    1.0574026777607944E+01
Cs   -7.1624029633881801E+00    1.0797975462381398E+01    5.5770180523317672E+00
Cs    4.8133994819926569E+00    1.1584690388459352E+01   -7.7063610348364664E+00
Cs    5.1839549449106306E+00    6.3764841678183375E+00   -7.0005886543203282E+00
Cs    5.6137356591123853E+00    1.2065198861213173E+00   -8.2394000313522830E-01
Cs    7.1407696921823485E+00   -4.7438102195510305E+00    1.0230907781187701E+00
Cs    6.9570824024712898E+00   -1.0235692216670715E+01    1.0752607124069835E+00
Cs    4.5425069225521337E+00    5.6243095704730282E+00   -1.1472620226754803E+01
Cs   -6.7029429837400114E+00    5.8542238573419434E+00    5.8535653312358198E+00
Cs   -5.2269664855511877E+00   -8.1855212252349236E+00   -1.0329147756658074E+01
Cs    5.0172214436760179E+00    6.8153675251744614E+00   -1.4496631721639175E+00
Cs    6.3297912152691378E+00    5.9263328769517976E-01    5.5984638383740357E+00
Cs    6.3217786562133718E+00   -5.0450161090938854E+00    6.4838568276987978E+00
Cs   -6.4702335082556344E+00    1.1676712255950910E+01   -5.2202739357740868E-01
Cs    1.1687045228846170E+01    1.4137197385073408E+00   -9.3241727337404257E-01
Cs   -5.8084932899227768E+00   -6.9772017679474763E-01   -2.8047995151352756E-01
Cs   -1.1454247407394034E+01    5.0777138721322483E+00    6.5734948016828731E+00
Cs   -5.6395463017754155E+00    7.4692000856910756E-01    1.1426821359368436E+01
Cs    4.2169900698853242E+00    1.2434447411929490E+01    4.6607179801752476E+00
Cs    5.4566119647265232E+00    6.7261712793927986E+00    4.3550444240401678E+00
Cs    6.2927513489364744E+00    2.2220288172388836E+00    1.0869635157040769E+01
Cs    5.2188710943442249E+00    1.2020131670470809E+01   -2.3558371998145273E+00
Cs    1.1537713899017090E+01    8.2602883592681686E-01   -6.6673996723990543E+00
Cs    1.1687315626216249E+01   -5.2940612868285966E+00   -5.4908848197960856E+00
Cs    7.9127160814829463E+00   -9.2653148804868479E+00    1.2280065075248052E+01
Cs    1.0894281538316564E+01    1.1195568022134863E+01   -1.2919213159054168E+00
Cs   -1.0700314015017300E+01   -7.0623941139558985E-02    1.1539791625998102E+01
Cs   -6.4901872268066398E+00    4.2971158110870080E+00   -1.1790483552905290E+01
Cs   -1.2118503909283289E+01    1.2030129913619351E+01   -4.3687006692435593E-01
Cs   -4.6606702976547494E+00   -4.9486871594298956E+00    1.1529684986629826E+01
Cs    1.3773070491779917E+00   -9.5603851447605717E+00    1.3217436903858525E+01
Cs    6.1120323705451138E+00    7.4944266489948950E+00    9.8738830388836831E+00
Cs    1.1797004188017878E+01   -4.9877938591227515E+00    5.8445083622423755E-01
Cs   -1.0954796230747595E+01   -1.8900927294401539E+00    7.7253261373547244E-01
Cs   -8.2819020988542444E+00    9.6269646799390411E+00   -1.1701955788234608E+01
Cs   -1.1909375061120670E+01    5.1610602979065066E+00   -6.2056548091981900E-01
Cs   -9.7061856739230663E+00   -1.3426765049102853E+01   -4.3913668936278736E+00
Cs   -1.0072948551762765E+01   -6.5759028529498469E+00    8.7909503082193907E-01
Cs   -4.8590899099098692E+00   -6.1417162595271266E+00    6.3762634922886618E-01
Cs   -1.0398381262674514E+01   -1.0948473947338083E+01    7.8155643284574783E+00
Cs    1.2001444852047642E+01   -2.4302346668917596E+00    1.1411301335613855E+01
Cs    1.1594520300928767E+01    6.4469340681667289E+00    4.9083548548815701E+00
Cs   -1.1979352260783728E+01    3.9198671339626698E+00   -6.1542364555391318E+00
Cs   -6.1925183963007751E+00   -1.7576636596343089E+00   -5.8811006302725959E+00
Cs   -1.0667720066736228E+01   -1.1616201051257830E+01    1.7735091582292399E+00
Cs    1.2838363100415524E+01   -1.1017895493211990E+01   -5.6230447702380904E+00
Cs   -4.7220662119993344E+00   -1.3621473421381918E+01   -9.2103747663715705E+00
Cs   -2.4520398945884425E+00    9.4404148543490933E+00   -1.2751111507447659E+01
Cs   -6.7698213883915113E-03   -1.2317707511550150E+01   -1.0922994089948316E+01
Cs   -1.2013164449519471E+00    1.1054149315065734E+01   -6.2042421337279032E+00
Cs   -6.6552822092536656E+00    1.1749958197132774E+01    1.0575220486500449E+01
Cs    1.8535373686765508E+00   -1.2561552809522091E+01    2.0515552980418170E+00
Cs   -1.2005718930515144E+01   -2.8136554775372056E+00   -1.0130878957786917E+01
Cs   -1.2865046303995770E+01    1.0818875558471877E+01    5.3124610452301981E+00
Cs    7.2184703823029901E+00   -1.1194832667271893E+01   -5.3338105085025393E+00
Cs    1.0666277283815720E+01   -5.0592620355064399E-01   -1.2134877126201225E+01
Cs    4.6210664348101798E+00    1.2108420452191721E+01    9.9495984234298831E+00
Pb    3.0686890322160658E+00   -3.0225352767505003E+00   -2.8075174375774217E+00
Pb    3.8906273909075364E+00   -9.1884637405870588E+00   -2.4440075548216216E+00
Pb   -8.3222609311890494E+00   -3.5314792565365627E+00    3.3292657982210976E+00
Pb   -2.0156140472411490E+00   -9.4761601652631402E+00   -2.0339196107091628E+00
Pb    1.8394684912744652E+00    8.7885297880448725E+00   -3.8637845540978959E+00
Pb    2.3275201960063243E+00    2.7252600730649266E+00   -3.2879500562324462E+00
Pb    3.6917948534679690E+00   -2.2624224906491235E+00    2.8524349555253372E+00
Pb    4.2063364697410517E+00   -8.0482180039383167E+00    3.5703774561917747E+00
Pb   -3.6762840513065553E+00    8.6447131185917776E+00    2.0263940749207512E+00
Pb    2.0129882509070671E+00    9.1929944480775418E+00    1.9103638972461727E+00
Pb    3.1193202377149474E+00    3.4491510491818089E+00    2.6179617800660933E+00
Pb    3.8996654223980132E+00   -1.9573097081139204E+00    8.5641480849386316E+00
Pb    4.3332003904509095E+00   -7.5232221437866178E+00    1.0138570591672837E+01
Pb   -3.1055391037799738E+00    2.9869803367072696E+00    2.6366980704790328E+00
Pb    2.2054601920888168E+00    9.4624369213002097E+00    7.9902434992541052E+00
Pb    2.8483556586927117E+00    3.9003413966043121E+00    8.4305826832165387E+00
Pb   -2.0524063754844177E+00   -2.3947090984569952E+00    9.2171013449907715E+00
Pb   -7.3955905877294299E+00   -9.3555683207776248E+00    3.8784871912923404E+00
Pb   -9.2322019201827725E+00    1.8988146476867314E+00   -2.9047016546646707E+00
Pb   -2.8049664195116217E+00   -4.2315640843342219E+00   -8.5702325448364967E+00
Pb   -1.4884768031424067E+00   -8.6819277194657527E+00    3.8356198977080078E+00
Pb   -4.1621258715626235E+00    8.3309476073890689E+00   -3.7867767935138570E+00
Pb   -1.7174940835997075E+00   -8.2695321365898469E+00    9.7174753136157666E+00
Pb   -8.5683879515926780E+00   -4.2323151138011355E+00   -2.6024145640435550E+00
Pb   -8.2219654527765282E+00   -9.8454371724066974E+00   -1.8439215100205741E+00
Pb   -3.3949620399970848E+00    2.0868095781427387E+00   -2.9584262011537517E+00
Pb   -7.6139274541395112E+00   -8.6139775139592984E+00    1.0017877144480190E+01
Pb   -8.7451489794350703E+00   -4.8797706094080606E+00   -8.3503209909033416E+00
Pb    8.4537559423684243E+00   -3.0028725992429539E+00   -9.0044373316323156E+00
Pb    9.8832016130198213E+00   -8.7865533613114035E+00   -8.5456426450421628E+00
Pb   -2.2648851176893108E+00   -9.9326796259411783E+00   -8.1507365835928010E+00
Pb   -1.0156566177507463E+01    6.7522974899370523E+00   -9.3557530694297828E+00
Pb    2.8089605781052427E+00   -3.7243033600227933E+00   -8.4070751508059463E+00
Pb    3.5062606321347674E+00   -9.9213452728684572E+00   -8.3471321448725995E+00
Pb   -3.8285419841378392E+00    1.7133676561631392E+00   -8.7634046063295052E+00
Pb    1.2207523718095119E+00    8.4495122593525487E+00   -9.7329309706346052E+00
Pb    2.1929232682574185E+00    2.6753035177625448E+00   -9.1311455059617224E+00
Pb    8.9224367534381859E+00   -2.4891417022402025E+00   -3.3589180473357416E+00
Pb    9.6119745574283009E+00   -8.3247480974250792E+00   -2.4536141981378301E+00
Pb   -8.0296384470675459E+00   -2.7053140348667140E+00    9.3979364823960427E+00
Pb    7.6447971183157843E+00    8.5054609460744288E+00   -1.0494248384189063E+01
Pb   -9.7105481602311006E+00    8.8796071880619964E-01   -8.9381949131349394E+00
Pb   -3.8565661326924046E+00    9.6604286190200828E+00    7.9852793733936318E+00
Pb    7.6976496477087482E+00    9.4907548566049140E+00   -4.2954501649879964E+00
Pb    7.8463947354211268E+00    3.4356722028506392E+00   -3.8246060204710703E+00
Pb    9.7255571690069722E+00   -1.8969474201568384E+00    2.6768513901474167E+00
Pb    1.0021159957485773E+01   -7.4231238455916415E+00    3.5020069805275500E+00
Pb    7.8493645244954919E+00    2.8601494494440578E+00   -9.3633435168073920E+00
Pb   -2.9530888078874704E+00    3.6402969240850358E+00    8.8445999926687531E+00
Pb    7.8353947285940464E+00    9.9454517265351345E+00    1.4963811676100018E+00
Pb    8.6166481717674106E+00    4.0654320827822268E+00    2.0985097206756125E+00
Pb    9.4413240688956179E+00   -9.2457550905494912E-01    8.5820056646901044E+00
Pb    1.0189657567447551E+01   -6.5295250725366198E+00    9.4032249642445702E+00
Pb    8.6542485229640462E+00    1.0621107912606133E+01    7.3809905969535450E+00
Pb    8.5931658031961664E+00    4.6590664215580810E+00    7.9556185927733756E+00
Pb   -8.6527057415755042E+00    2.9933533991552115E+00    8.8625487813552173E+00
Pb   -2.5333166641508718E+00   -2.7038584579885345E+00    3.1004893299406340E+00
Pb   -9.7335908021301147E+00    8.4037791498227588E+00    2.5868819325399497E+00
Pb   -9.7936790670473961E+00    7.9930405716167883E+00   -3.3624598945689175E+00
Pb   -8.1265016369465979E+00   -1.0783832718762127E+01   -7.6789301999317985E+00
Pb   -4.6143072759268193E+00    7.7544045809523778E+00   -9.5341710908676589E+00
Pb   -9.0457756764321235E+00    2.4414901476510069E+00    2.8735383272205279E+00
Pb   -1.0092147944969405E+01    8.9273832785621234E+00    8.6163614008317779E+00
Pb   -2.6691329816521976E+00   -3.8156299399840319E+00   -2.7075939191678979E+00
Br    2.4070626007270415E-01   -3.3102336943476165E+00   -2.6416098529173806E+00
Br    2.9306809263273594E+00   -2.7006850493475727E+00   -5.5942285237111316E+00
Br    3.0350970959939247E+00   -2.4621905778571065E-02   -2.8208016017823381E+00
Br    9.2796978315889656E-01   -9.1061058988620953E+00   -2.5186794635738665E+00
Br    3.3463134391659901E+00   -9.3619930231156658E+00   -5.5570749206652392E+00
Br    3.2478540003727483E+00   -6.0722166833960225E+00   -2.7487116547771850E+00
Br   -3.0401587188883297E+00   -4.1659263304652878E+00   -5.6624262178263205E+00
Br   -8.5743168367898459E+00   -2.9953120129773896E+00    6.5299655290194947E+00
Br   -2.5698383928590940E+00   -7.0544821931717983E-01   -3.2532758810271547E+00
Br    2.9050615672134819E+00   -1.1756011696203487E+01   -1.1595300063857332E+00
Br    1.2450876935855133E+01   -2.4806051947858836E+00    2.8778045004703521E+00
Br   -5.2157223918649240E+00   -9.3015504854964615E+00   -2.2843622302953714E+00
Br   -1.1083502688998703E+01   -4.2024143122881199E+00    3.5554801266350249E+00
Br   -8.2950225464667540E+00   -3.7794780199102163E+00   -2.9106641837809734E-02
Br    1.2947254296176919E+01   -6.8040183740061648E+00    3.3632712370901077E+00
Br   -9.3045648028203665E-01    8.4003166066634201E+00   -3.5813798379454154E+00
Br    1.4426521757353963E+00    8.8519271317338681E+00   -6.6005491369208888E+00
Br    1.2640543598730953E+00    1.1781959212220720E+01   -3.8431071552528393E+00
Br   -6.7400921343016751E-01    2.7076528658167192E+00   -3.4207550090531589E+00
Br    2.7280917822085922E+00    3.1867993635497558E+00   -6.1884137190366184E+00
Br    1.9003163773934142E+00    5.8167486980698788E+00   -3.4713838359626070E+00
Br    9.4319740641916705E-01   -2.4401828940369006E+00    3.1694647196255614E+00
Br    3.8172869084093097E+00   -2.5849111276085512E+00    3.6750710377464611E-03
Br    3.3232423398281257E+00    6.4740182185767725E-01    2.6184258633812041E+00
Br    1.3921981052140504E+00   -8.3277016969072246E+00    3.4889761298156183E+00
Br    3.8858205730341964E+00   -8.8330929063897532E+00    7.4145633390498245E-01
Br    3.7850453705794376E+00   -4.9813192901414114E+00    3.7616595171826117E+00
Br   -7.4042434924019744E+00    7.4049345856603761E+00   -8.8720652388385961E+00
Br   -4.2480346778420710E+00    6.7589292719524305E+00   -1.2293294468201669E+01
Br    4.7774638424386691E+00   -1.1041258467824507E+01    3.8762196554873949E+00
Br   -5.1678381512263298E+00    1.0127464961262925E+01   -1.0910561058741173E+01
Br   -4.3029820883902152E+00    4.7711666404989810E+00   -8.9905762012394330E+00
Br   -8.7468416388961590E+00   -5.8715294453784062E-01    2.9970964154176878E+00
Br   -2.3272554988242047E+00   -9.5458300310959121E+00   -5.0903783298300196E+00
Br   -6.6021231347167948E+00    8.8101736808508058E+00    1.6486668910285789E+00
Br   -3.7466223437903028E+00    8.3393451751676828E+00   -7.8112542374024296E-01
Br   -3.6840496821604742E+00    1.1546762291539103E+01    1.5168949031158443E+00
Br   -9.6074874770895580E-01    8.0483318283345877E+00    1.7938126024754446E+00
Br    1.8727757736721908E+00    9.3692743073195910E+00   -1.0659822875574732E+00
Br    1.6430307755834213E+00    1.2002645314106136E+01    2.4693312505388909E+00
Br   -8.6378888044733620E-02    2.8454955118334153E+00    2.9023492792702297E+00
Br    2.1379428593137408E+00    2.8399221492626157E+00   -4.0865836308086456E-01
Br    2.7624409731232991E+00    6.4403804423562958E+00    2.1174850443596807E+00
Br    6.6082521804328775E-01   -2.5404435588596832E+00    8.6967657101099718E+00
Br    3.6572156874828607E+00   -1.6410890856580531E+00    5.6832468073761451E+00
Br    3.4933229649692281E+00    1.1012524841217142E+00    8.6181423127011048E+00
Br    1.5977730470974711E+00   -7.8417900266553113E+00    1.0067016523824611E+01
Br    4.0867162348658193E+00   -8.3205184136733994E+00    6.8670905705107836E+00
Br    4.0590715651424549E+00   -4.6224900764776304E+00    9.3344968747527588E+00
Br   -1.2110254791498019E+01    2.2183780692412460E+00    3.6516274559498765E+00
Br   -9.1641015934281125E+00    2.6095959977210752E+00   -7.4676153717075741E-02
Br    5.0733611222851529E+00   -1.0534515196243763E+01    1.0366662597997003E+01
Br   -9.2472612703238806E+00    5.2703630379106858E+00    2.5818795485715160E+00
Br   -8.1970933215432655E+00    1.5453347380723764E-01    9.3016384159328194E+00
Br   -2.2799282997113406E+00   -6.5783620512437757E+00   -2.6121177104328148E+00
Br   -6.2688243958832022E+00    2.9397731431015401E+00    3.1390690889516453E+00
Br   -3.5481501708979297E+00    2.7142773402645370E+00   -2.6300257771119645E-01
Br   -3.8077709709192229E+00    5.9136363778531909E+00    2.8511794274698978E+00
Br   -9.3831424522801232E-01    9.3398419439807157E+00    7.5940770676155136E+00
Br    1.6921789924051716E+00    9.0656939953869156E+00    5.1703399360315911E+00
Br    2.2754578212799030E+00    1.2448455919812137E+01    7.3737208138331143E+00
Br   -1.7313889866892884E-01    3.1613533288277975E+00    8.6853278688092601E+00
Br    2.6425342667252543E+00    3.5665754615051282E+00    5.6234745401927597E+00
Br    1.7663811744784379E+00    6.5743010826238475E+00    8.2561158154240939E+00
Br   -5.0893283436013572E+00   -2.6351072216757041E+00    9.1450440613140671E+00
Br    3.8017528530013189E+00   -1.2401078908709458E+00    1.1440733899304893E+01
Br   -1.9519528840106399E+00   -2.3864506451741656E+00    5.9574047994120205E+00
Br   -2.3954806110959965E+00    1.8270293175749111E-01    9.7207648786515097E+00
Br   -1.9458767347769836E+00   -1.2277877759516286E+01   -2.4277697289937881E+00
Br    4.4926149613601929E+00   -7.5272639502723830E+00    1.3065513783389779E+01
Br   -1.1996972218185089E+01    2.3312800153415458E+00   -2.8823488950487404E+00
Br   -5.9995640395914807E-01   -1.1302608077276007E+01    3.3989145999328843E+00
Br   -1.1459390533497871E+01   -4.8616507658486947E+00   -1.4662252512066498E+00
Br    2.7373460179603968E+00    9.6612904959646340E+00    1.0640948435242292E+01
Br   -8.3857723543505678E+00   -4.6823509867447743E+00   -5.3564070106763406E+00
Br   -9.0894686708134849E+00   -1.1650606432286317E+00   -2.6192098750799695E+00
Br    3.6127581807292000E+00    3.8789796923064972E+00    1.1150044353037838E+01
Br   -6.8003163665747017E+00    8.1897405082738075E+00   -3.5275325508635129E+00
Br   -3.8750445755295169E+00    8.6476741861978166E+00   -6.7630458167324239E+00
Br   -3.4792748683566894E+00    1.1118141868333907E+01   -3.5337441809507402E+00
Br   -6.1925109518281438E+00    1.5268739193464318E+00   -3.3209386765994804E+00
Br   -1.0382832514964388E+01   -9.4239850814025914E+00    4.3059735486819921E+00
Br   -3.5184622861655481E+00    1.2872110424191141E+00   -5.9843423962960287E+00
Br   -5.8864453769452050E+00   -4.7047115069960039E+00   -8.4432222981246152E+00
Br   -2.5906249695341095E+00   -4.1505162691039246E+00   -1.1453277604817369E+01
Br   -2.7258691757239788E+00   -1.2058631979790007E+00   -8.7886718683723792E+00
Br   -3.3650209697168774E+00    3.2355843844706049E+00    1.1675597869703465E+01
Br   -4.6923478613663603E+00   -8.2925690969056820E+00    9.6511529009756618E+00
Br   -5.1295408934264419E-01   -7.9908610512026268E+00    6.5824541182867033E+00
Br   -2.3085054191771173E+00   -5.3532268418853484E+00    9.0815006604828810E+00
Br   -7.9267102473102158E+00   -9.9268898088688449E+00    1.1310526751032288E+00
Br   -7.7109654269103567E+00   -6.3298042099120826E+00    2.9622438104911297E+00
Br   -9.2136101161966835E+00    9.8219882464534010E+00    1.1261662557828705E+01
Br    1.0672472848934710E+01    9.6409286745704055E+00    1.4585236581959944E+00
Br   -7.0008427545618588E+00   -7.4718559147966968E+00    1.2915779354466736E+01
Br    1.0524540800837011E+01    9.7557359782084632E+00   -4.2983336970850008E+00
Br    1.1223297326807634E+01    4.4047781830959973E+00    2.4249201584023785E+00
Br   -8.8323158934731438E+00    2.9881855019145531E+00    1.1664840271087009E+01
Br   -1.1433111775030760E+01   -5.3152629080136862E+00   -7.7389995899253572E+00
Br    1.2329663700117109E+01   -4.9879923890085265E-01    8.4929154621317569E+00
Br   -4.7302745830497308E+00   -8.9052515196691999E+00    4.2840547227320043E+00
Br    5.6056703022409335E+00   -3.6864196970965093E+00   -8.5125231705488478E+00
Br    7.8031148663603771E+00   -3.1691192335838072E+00   -1.1752900350857086E+01
Br    1.2837965586918305E+01   -5.8632158453752963E+00    8.5506423342670121E+00
Br    8.2613114758707287E+00    2.4750383517539533E-02   -8.3368238856029215E+00
Br   -7.8115611755395573E+00   -1.1597276546150690E+01    1.0058890765673228E+01
Br   -2.1403491957883403E+00   -8.8135980238062679E+00    7.5807402201350504E-01
Br   -2.5271936885303576E+00   -5.9202587991586704E+00    3.5579906080956873E+00
Br    6.3090790905931176E+00   -9.2084345356625334E+00   -8.0891449265430087E+00
Br   -5.3600214369771049E+00   -1.0338033633746914E+01   -7.6994537543997117E+00
Br    8.9404200575027648E+00   -9.2063010036689974E+00   -1.1129356048374968E+01
Br    9.1250149841955714E+00   -5.7178084957024513E+00   -9.0228028738735357E+00
Br   -1.9243478460821815E+00   -1.1042702250917735E+01    9.2563039502262221E+00