 # Version information for this restart file 
 # current date 2021-06-17 12:47:13.448
 # current working dir /user/ub2042/exercises/2_fitting/MM_MD_workdir/md_settings.005
 # Program compiled at                              Thu Apr 22 21:44:59 EDT 2021
 # Program compiled on                cpn-k07-07-02.compute.cbls.ccr.buffalo.edu
 # Program compiled for                                                    local
 # Source code revision number                                       git:36754bb
 &GLOBAL
   PRINT_LEVEL  LOW
   PROJECT_NAME cp2k
   RUN_TYPE  MD
 &END GLOBAL
 &MOTION
   &MD
     ENSEMBLE  NVT
     STEPS  10000
     TIMESTEP     2.4999999999999996E+00
     STEP_START_VAL  9990
     TIME_START_VAL     2.4974999999995493E+04
     ECONS_START_VAL    -1.5890036444644286E+01
     TEMPERATURE     3.0000000000000000E+02
     &BAROSTAT
       PRESSURE     1.0100000000000000E+00
       TIMECON     9.9999999999999982E+03
     &END BAROSTAT
     &THERMOSTAT
       TYPE  CSVR
       &CSVR
         TIMECON     9.9999999999999982E+03
         &THERMOSTAT_ENERGY
              -2.0428840930506853E-01
         &END THERMOSTAT_ENERGY
         &RNG_INIT
Wiener process for Thermostat # 1        1 F T F  -1.4436051593819570E+00        2305787847.0         317263915.0         649490368.0        2437808356.0        3240923174.0        2748373337.0             12345.0             12345.0             12345.0             12345.0             12345.0             12345.0             12345.0             12345.0             12345.0             12345.0             12345.0             12345.0
         &END RNG_INIT
       &END CSVR
     &END THERMOSTAT
     &AVERAGES  T
       &RESTART_AVERAGES
         ITIMES_START  1
         AVECPU     1.7449440264158962E-02
         AVEHUGONIOT     0.0000000000000000E+00
         AVETEMP_BARO     0.0000000000000000E+00
         AVEPOT    -1.6320474917337826E+01
         AVEKIN     5.3267714074914141E-01
         AVETEMP     2.7021033986507234E+02
         AVEKIN_QM     0.0000000000000000E+00
         AVETEMP_QM     0.0000000000000000E+00
         AVEVOL     6.7483345830912264E+06
         AVECELL_A     1.8897261328855686E+02
         AVECELL_B     1.8897261328855686E+02
         AVECELL_C     1.8897261328855686E+02
         AVEALPHA     9.0000000000000000E+01
         AVEBETA     9.0000000000000000E+01
         AVEGAMMA     9.0000000000000000E+01
         AVE_ECONS    -4.6516616792866143E+00
         AVE_PRESS     0.0000000000000000E+00
         AVE_PXX     0.0000000000000000E+00
       &END RESTART_AVERAGES
     &END AVERAGES
     &PRINT
       &ENERGY  SILENT
         &EACH
           MD  10
         &END EACH
       &END ENERGY
     &END PRINT
   &END MD
   &PRINT
     &TRAJECTORY  SILENT
       &EACH
         MD  10
       &END EACH
     &END TRAJECTORY
     &CELL  SILENT
       &EACH
         MD  10
       &END EACH
     &END CELL
     &VELOCITIES  SILENT
       &EACH
         MD  10
       &END EACH
     &END VELOCITIES
     &FORCES  SILENT
       &EACH
         MD  10
       &END EACH
     &END FORCES
     &RESTART  SILENT
       &EACH
         MD  10
       &END EACH
     &END RESTART
   &END PRINT
 &END MOTION
 &FORCE_EVAL
   METHOD  FIST
   &MM
     &FORCEFIELD
       VDW_SCALE14     1.0000000000000000E+00
       EI_SCALE14     1.0000000000000000E+00
       SHIFT_CUTOFF  T
       DO_NONBONDED  T
       IGNORE_MISSING_CRITICAL_PARAMS  T
       &SPLINE
         R0_NB     2.5000000000000000E-01
       &END SPLINE
       &NONBONDED
         &LENNARD-JONES
           ATOMS Br Br
           EPSILON     1.2630795322675199E+02
           SIGMA     3.6900000000000004E+00
         &END LENNARD-JONES
         &LENNARD-JONES
           ATOMS Cs Pb
           EPSILON     8.6920055954630968E+01
           SIGMA     3.6699999999999999E+00
         &END LENNARD-JONES
         &LENNARD-JONES
           ATOMS Cs Cs
           EPSILON     2.2644852172126850E+01
           SIGMA     4.3300000000000001E+00
         &END LENNARD-JONES
         &LENNARD-JONES
           ATOMS Pb Pb
           EPSILON     3.3363415533600227E+02
           SIGMA     5.9000000000000004E+00
         &END LENNARD-JONES
         &LENNARD-JONES
           ATOMS Br Cs
           EPSILON     5.3481070753900497E+01
           SIGMA     3.6300000000000003E+00
         &END LENNARD-JONES
         &LENNARD-JONES
           ATOMS Br Pb
           EPSILON     2.0528187276773045E+02
           SIGMA     2.9800000000000000E+00
         &END LENNARD-JONES
       &END NONBONDED
       &CHARGE
         ATOM Cs
         CHARGE     4.4453099999999995E-01
       &END CHARGE
       &CHARGE
         ATOM Pb
         CHARGE     8.8906199999999991E-01
       &END CHARGE
       &CHARGE
         ATOM Br
         CHARGE    -4.4453099999999995E-01
       &END CHARGE
     &END FORCEFIELD
     &POISSON
       PERIODIC  XYZ
       &EWALD
         EWALD_TYPE  SPME
         GMAX  62 62 62
         O_SPLINE  4
       &END EWALD
     &END POISSON
     &PRINT
       &FF_INFO  LOW
         SPLINE_INFO  F
         SPLINE_DATA  F
       &END FF_INFO
     &END PRINT
   &END MM
   &SUBSYS
     &CELL
       A     1.0000000000000001E+02    0.0000000000000000E+00    0.0000000000000000E+00
       B     0.0000000000000000E+00    1.0000000000000001E+02    0.0000000000000000E+00
       C     0.0000000000000000E+00    0.0000000000000000E+00    1.0000000000000001E+02
       PERIODIC  XYZ
       MULTIPLE_UNIT_CELL  1 1 1
     &END CELL
     &COORD
Cs   -3.2608330350141879E-01   -8.9708334083890762E-01   -5.8957849196162133E+00
Cs    2.6598866074586452E-01   -6.9542632068234971E+00   -5.3159832878881614E+00
Cs    1.4773856726962871E+00   -1.2481360729159658E+01   -3.7844449989015838E+00
Cs   -5.7722349408270137E+00   -8.1913600167342366E+00   -4.0639746727493895E+00
Br   -6.9738720099711653E+00   -1.4012114955884412E+01   -4.9305968919627681E+00
Br    1.1211907547358825E+01   -1.9239387062071058E+00   -9.0893841128949688E+00
Br   -3.8426170726794049E+00   -3.9502200093709650E-01   -1.1656492766348176E+01
Cs   -7.4555489274789088E-01    4.3485522152050526E+00   -6.1855495975870012E+00
Cs    8.7377957095531519E-03    4.9988024611219267E-01   -1.6044117577549710E-01
Cs    1.0262105230929675E+00   -4.6356141397551944E+00    9.7563739974925656E-01
Br   -5.2216675515930220E+00   -3.7693657896438282E+00    4.1713870507371729E+00
Cs   -8.9009852319084573E+00   -5.0721307311867179E+00    1.3296234071134863E+01
Cs    1.3102103504600109E+01   -9.7984432327391584E+00    4.5391890151548470E-01
Cs   -7.6986291416461015E+00    4.9380120649781727E+00   -5.9547966059773993E-01
Cs   -3.1167640531280121E+00    1.1597388263158118E+01   -2.4925277685628995E+00
Cs   -1.3004572458212573E+00    6.5399794319669562E+00   -9.3772294441630000E-01
Cs    4.9953248177535786E-01    7.4515984854218653E-01    5.5145178461273838E+00
Cs    8.3974426806646274E-01   -4.6638166472968603E+00    6.4111703341535389E+00
Cs    3.4457505250505296E+00   -1.0608263134730846E+01    6.6980952227198758E+00
Cs   -5.5913383614434817E+00    6.9978342210117725E+00    1.0200473414459504E+01
Cs   -6.2582882089826608E+00   -2.9511919506909354E+00   -1.1592619067473082E+01
Cs   -4.0167791996105962E+00   -1.3837781886225107E+01   -2.6380867806854238E+00
Cs   -4.4793489495223486E+00   -2.0721836918442499E-01    6.3642806173420086E+00
Br   -2.7813512836967886E+00   -3.6972797548440925E+00    1.0976662318019592E+00
Cs   -1.6949246878574848E+00    7.7055486704022194E+00    4.6982716969697913E+00
Br    1.1925393481792790E+01   -8.0608327538299580E+00   -8.6851290695448160E+00
Cs    1.9598288023631263E+00   -2.4430481193878451E+00    1.2323060193296547E+01
Br   -2.1778037054928681E+00    1.0807341209989463E-01    3.3994088958960611E+00
Br   -6.9255969022599784E+00   -2.4010298764760738E+00    1.2955702829465032E+01
Cs    8.6504003330651322E+00    1.2791644017730485E+01   -8.6501673235254533E+00
Cs   -1.0360550812284629E+01   -6.4405738096065024E+00    7.8060989639270959E+00
Cs   -4.0857388117165971E+00   -5.2019388197161440E+00    7.4938416038725917E+00
Cs   -8.2383907472542663E+00    9.0300034646926939E+00   -7.5543084141351100E+00
Br   -9.5227689831248785E+00   -8.9702496052058596E+00    1.0923185653260985E+01
Br   -6.3285342007307559E+00   -9.4850643656706488E+00    8.2163746749117141E+00
Cs   -1.1030699135072329E+01   -8.9476388357896539E+00   -4.7914761462276028E+00
Cs   -7.1093719664374015E+00    4.3335645248187182E+00   -6.4268402447354633E+00
Br   -6.7000058601909940E+00   -6.0131667484312032E+00    1.0224457895598501E+01
Cs    1.0945414914702940E+01    1.0359950671024205E+01    8.8338857054755184E+00
Br   -1.2564563551061806E+01    8.1148929607444202E+00    7.0757576778543241E+00
Br   -5.4244843412546349E+00   -3.8671637529430223E+00   -1.8299772195483461E+00
Cs    1.9250208216011759E+00    2.7003054639330784E+00    1.1128840185978509E+01
Cs    9.9521077739457784E+00    8.4220522022192501E+00   -1.8493890419230721E+00
Cs   -1.0396393832613413E+01   -9.6339257468401680E+00   -9.8187157165807815E+00
Cs    1.2893088432998562E+01    3.0579595256661811E+00    4.0244919056835302E+00
Cs   -1.2754430135864844E+01    8.7048630684057695E+00   -7.1336107875766706E+00
Cs    1.4132579705271388E+01   -8.0433333393724631E+00    6.2966814629992367E+00
Cs    5.7244585874278862E+00   -6.3320706242459472E+00   -1.1516762201847472E+01
Cs    8.9285236918217610E+00   -8.4917429697660314E+00    6.7439368717357615E+00
Cs   -3.7394116081090782E+00   -1.1863157170719417E+01    2.1921485214882308E+00
Cs    6.9507435326602280E+00   -1.2350849053305376E+01   -9.4645053700934820E+00
Cs    1.0147689193065561E+01    6.0881617946750941E+00   -7.3138097994992952E+00
Cs    7.8595618406385990E+00    1.4707888215851062E+01    3.2430750411107230E+00
Cs    1.0517456249839162E+01    6.9162162999951589E+00   -1.2360248055363824E+01
Cs   -1.9889163886375710E-02   -8.3232728247302834E+00   -1.0016308378108629E+01
Cs   -1.2034715755173565E+01   -2.4490362134068655E+00   -4.0648538764963407E+00
Cs    8.7123458456006979E+00   -2.6112820988365670E+00    1.0828812412422831E+01
Cs    1.2441620774779080E+01   -2.3751610018659379E+00    5.3679512582507671E+00
Cs   -3.8646449402004630E+00   -1.1910776000938803E+01    1.1819896036809224E+01
Cs   -1.1204066321691915E-01   -2.5910067481374739E+00   -1.0724484831148175E+01
Cs   -1.8613974358052687E+00    1.2509153530943003E+01    4.1259147917901711E+00
Cs   -1.5023987336997320E+00    2.4690573241881881E+00   -1.2760037267375891E+01
Cs    5.6386241013954876E+00    7.4479270561731947E-01   -6.2488047031583553E+00
Cs    5.6880523966872119E+00   -6.2865813151983829E+00   -5.2525827295144438E+00
Cs   -3.5022476448152076E+00   -1.0396181152096348E+01    8.2546810915455335E+00
Cs   -1.0098116632004411E+01   -1.5561341200976961E-01    7.5198119893865512E+00
Cs    4.9826806642380896E+00   -1.0266469744846298E+00   -1.1908194542723331E+01
Cs    6.0989954330224752E+00    1.2023110485211985E+01   -1.4141367283426064E+01
Cs    7.9126895142068965E-01    7.4030226955476666E+00    1.0558371807128751E+01
Cs   -7.6489294237472150E+00    1.0921425770940857E+01    4.5502374010591131E+00
Cs    3.3993820162266140E+00    1.0656323142864375E+01   -8.3045922170974862E+00
Cs    4.1842966420677188E+00    5.9450211840157872E+00   -7.0624481578355240E+00
Cs    5.3878819494997554E+00    1.0437606366099565E+00   -8.8956080869064247E-01
Cs    6.4905748166001596E+00   -4.0504654680083672E+00    1.0823996223621596E-01
Cs    7.3413502499116277E+00   -9.4664885561241441E+00    1.2905143028925452E+00
Cs    3.7230852387997491E+00    3.8269299282052942E+00   -1.2925999465255645E+01
Cs   -6.7550326350548699E+00    5.6590838701043520E+00    5.3089898628417931E+00
Cs   -4.6788150981568268E+00   -9.2007632159983608E+00   -9.2202611483945365E+00
Cs    3.7608902933165691E+00    7.0843780009616184E+00   -1.4714477860537594E+00
Cs    5.5557408257153389E+00    2.5320503349796848E+00    5.8792460488272438E+00
Cs    7.4656980475867929E+00   -3.3455596507187120E+00    6.0508324331678391E+00
Cs   -8.2518673360362289E+00    1.0091650652462523E+01   -1.9991398846158919E+00
Cs    1.0856465629366504E+01    2.7134791840748615E+00   -1.1211949346451047E+00
Cs   -5.9560834717811328E+00   -1.0498452181559295E+00    3.1054199720959386E-01
Cs   -1.1552136017174321E+01    4.4967231875697706E+00    6.5822624947507071E+00
Cs   -3.4905791593995601E+00    1.5448367674227763E+00    1.3393890465972897E+01
Cs    2.8311125080768478E+00    1.2788270907570611E+01    3.5831252176831359E+00
Cs    5.2220517846816445E+00    8.3145441653544392E+00    4.0107335284914294E+00
Cs    7.3044599088971749E+00    3.2129047266418373E+00    1.0641848998227498E+01
Cs    4.1091294414986024E+00    1.1842183804316829E+01   -2.2484927138065807E+00
Cs    1.0075313060690739E+01    7.4531112831452351E-01   -6.3318747688134556E+00
Cs    1.1797422079735453E+01   -4.7732857973893097E+00   -7.5448161704416625E+00
Cs    8.2735708718786327E+00   -8.7609342932240910E+00    1.2302542657215954E+01
Cs    8.6043681122572906E+00    1.3474849328898683E+01   -2.9339249782611958E+00
Cs   -9.0085300661490759E+00    2.1097135498871269E-01    1.2205014158560191E+01
Cs   -7.7013154813317746E+00    2.5606363460176116E+00   -1.1691659082715683E+01
Cs   -1.3856379308299347E+01    8.5764734853680924E+00   -8.3626842193245943E-01
Cs   -3.2062894087794525E+00   -5.1074450228791832E+00    1.2567139695915685E+01
Cs    1.7353613031016901E+00   -1.0400496368384852E+01    1.2837761315873481E+01
Cs    5.4435002025749526E+00    8.9983907190231438E+00    8.9517335858559992E+00
Cs    1.1612725021580076E+01   -3.3448192496153442E+00   -3.9124834762040978E-01
Cs   -1.1134576908953331E+01   -2.7657544539481185E+00    2.3280674260317711E+00
Cs   -8.2747726006796345E+00    7.3155841704240983E+00   -1.2898709825429556E+01
Cs   -1.3020351476676611E+01    2.8621625239686082E+00    1.6535876697331211E+00
Cs   -1.0168052738266761E+01   -1.3546200572471829E+01   -2.9241208094776399E+00
Cs   -9.5492265925897826E+00   -7.5316255449653298E+00    2.5519590391801175E+00
Cs   -4.6027836442859016E+00   -7.2417383398122093E+00    2.0600531678672498E+00
Cs   -9.2904822734544030E+00   -1.1639315777622350E+01    8.8185937273024102E+00
Cs    1.2604359878980503E+01   -1.2889719621971867E+00    1.0626529114341007E+01
Cs    1.0018433474532474E+01    9.2919534206848375E+00    4.2869716542111043E+00
Cs   -1.2811762381810565E+01    2.5338503916331163E+00   -4.9523080009993645E+00
Cs   -6.6513897091055005E+00   -1.9374800007798365E+00   -4.6520389449748656E+00
Cs   -9.0574098407577299E+00   -1.3717254968653885E+01    2.9763085225513537E+00
Cs    1.2556327222331154E+01   -1.0375879203223924E+01   -6.0306144071493790E+00
Cs   -4.6747731988211987E+00   -1.4536094789527414E+01   -7.8161123213812438E+00
Cs   -1.9362689412955327E+00    7.9103014561407203E+00   -1.3742953107181195E+01
Cs    9.8148655840575849E-01   -1.3795218110479791E+01   -8.7582481395759064E+00
Cs   -1.8227819368379288E+00    9.2179221460322953E+00   -8.0547675005637380E+00
Cs   -6.7585552669206557E+00    1.2529184937321684E+01    8.9936365342488589E+00
Cs    2.1512677173911352E+00   -1.1315199602659808E+01    1.8564061162227194E+00
Cs   -1.1775298435203450E+01   -3.7571259580968994E+00   -9.8904878397898877E+00
Cs   -1.2441084447799348E+01    1.0419500966024893E+01    4.6326942384317569E+00
Cs    7.2244189250631834E+00   -1.0938065659926359E+01   -3.9327701641069384E+00
Cs    1.0656956045847062E+01    4.0791424535299731E-01   -1.2097184506658804E+01
Cs    4.5228209948773941E+00    1.3976402323601896E+01    9.4398465055374619E+00
Pb    3.0270827811334335E+00   -3.0688944816989943E+00   -2.8865388966319325E+00
Pb    3.8349995819637872E+00   -8.6149055448865823E+00   -1.5191345448607669E+00
Pb   -7.9366396192226727E+00   -4.0142323910752360E+00    4.5247404561378577E+00
Pb   -1.7236090344344419E+00   -9.9034158891050961E+00   -7.7549958191805757E-01
Pb    1.2235772516330443E+00    8.7738175849860802E+00   -4.7704368236434860E+00
Pb    2.1304388905202929E+00    3.0013641396354247E+00   -3.9760155536241650E+00
Pb    3.5563847083326197E+00   -1.7196641216653226E+00    2.7664660038493887E+00
Pb    4.5803149762684985E+00   -7.4185598942635140E+00    4.0780808618004203E+00
Pb   -4.6369746867014365E+00    8.9610559098000735E+00    1.1457639073291710E+00
Pb    1.0883998008310514E+00    9.5863696607932400E+00    1.1933099666017020E+00
Pb    2.5792438984345383E+00    3.9374975703459163E+00    1.9467094119121069E+00
Pb    4.3597809890609840E+00   -8.3156464831511245E-01    8.7622807380672505E+00
Pb    5.1783415266454185E+00   -6.5230038074975294E+00    9.7333953040931043E+00
Pb   -3.0828784963942653E+00    2.8629827478673398E+00    2.6055123641918714E+00
Pb    1.4920460274643890E+00    1.0764631560653845E+01    7.1070554763852662E+00
Pb    3.0075372596389420E+00    5.2640052901187673E+00    7.4322435011374202E+00
Pb   -1.4105085149010281E+00   -1.3607861138171775E+00    9.3420215901038457E+00
Pb   -6.8892260684574778E+00   -9.6159440380050043E+00    5.3593008657809929E+00
Pb   -9.4219784595069846E+00    1.0409175233758627E+00   -2.5576204340758006E+00
Pb   -2.7206360646215280E+00   -5.4951120712733683E+00   -7.7824965887836974E+00
Pb   -9.4904517481365924E-01   -8.4951587519704894E+00    4.9677376588931450E+00
Pb   -4.6837042182685940E+00    7.3943330199043054E+00   -4.4729764643017793E+00
Pb   -7.8257591930994197E-01   -7.6555830799694018E+00    1.0606728639606279E+01
Pb   -8.5134492726584803E+00   -4.8493749381195617E+00   -1.3787065770344324E+00
Pb   -7.5863643856089729E+00   -1.0660737079832158E+01   -4.5214720904598482E-01
Pb   -3.6480552557476318E+00    1.8661496478541577E+00   -3.1712254672328815E+00
Pb   -6.7375937455853663E+00   -8.5376384357847517E+00    1.1505500987234820E+01
Pb   -8.6924853290170017E+00   -6.2083377409525013E+00   -7.5186181063410924E+00
Pb    8.4717781761526751E+00   -2.8074789703465699E+00   -9.2789093095886344E+00
Pb    9.0103865810738295E+00   -8.8265992838251108E+00   -8.2742834380808841E+00
Pb   -2.0529207394099283E+00   -1.1565454770160434E+01   -6.4642137268373103E+00
Pb   -1.0458941223023039E+01    5.3074994759336231E+00   -9.5407977307880536E+00
Pb    3.0915849474644821E+00   -4.2580362730613874E+00   -8.4314990540779142E+00
Pb    3.4694769229134064E+00   -1.0340661115479666E+01   -7.1959207200469946E+00
Pb   -3.9392331115894006E+00    4.2160279059492334E-01   -8.8194917865335078E+00
Pb    1.1780972494505406E+00    6.9284280905517814E+00   -1.0678771163889088E+01
Pb    1.9807833941248680E+00    1.2876692722414556E+00   -9.6560389263558335E+00
Pb    8.6899416166700956E+00   -1.9621280508599874E+00   -3.6258437332879354E+00
Pb    9.8212820669539163E+00   -8.1072428691008653E+00   -2.3133503857558866E+00
Pb   -7.0080737499358206E+00   -3.0010382106590558E+00    1.0198195949493998E+01
Pb    7.1496761754389242E+00    8.7456055186979373E+00   -1.0847034966811179E+01
Pb   -9.5790842257585389E+00   -3.5284779319605869E-01   -8.2815361201252973E+00
Pb   -4.1937033020737617E+00    1.0132252956501167E+01    7.0043114801583508E+00
Pb    7.0212045287873295E+00    9.8232774857096903E+00   -4.9785321510543508E+00
Pb    7.8906640501576693E+00    4.0517086390508297E+00   -3.8276241124458514E+00
Pb    9.1074615546712572E+00   -3.5170062990116563E-01    2.0411439561765397E+00
Pb    1.0553047208950517E+01   -6.0997601830151407E+00    3.1562891633539838E+00
Pb    7.7536152618515057E+00    3.0301801078507173E+00   -1.0104696606938495E+01
Pb   -2.7714493652561085E+00    4.4267870432399494E+00    8.0074014153208726E+00
Pb    7.1439571162963604E+00    1.1114777090951595E+01    7.3262675287759715E-01
Pb    8.6165587415407998E+00    5.5423849825334717E+00    1.7685445266192816E+00
Pb    9.9604818799297536E+00    6.9457033493181908E-01    7.9122689448578480E+00
Pb    1.1299065410296956E+01   -5.6614705318104281E+00    8.9063328882952071E+00
Pb    7.3186828698674820E+00    1.2039421116134406E+01    6.7108432757518113E+00
Pb    8.7747484506590467E+00    6.1869015507813563E+00    7.7567854856010428E+00
Pb   -8.0391382135890606E+00    2.7567073760883969E+00    9.1855443777329473E+00
Pb   -2.1681915880738463E+00   -2.9795869710043830E+00    3.7536621173676514E+00
Pb   -1.0413014324741848E+01    7.1407254752133351E+00    1.8393006817679836E+00
Pb   -1.0823827485073675E+01    6.7030129963814851E+00   -3.8964169904446821E+00
Pb   -8.0119217187012186E+00   -1.1822298548444163E+01   -6.3583800585647259E+00
Pb   -4.6326508981957817E+00    6.0490163296976016E+00   -1.0161049790387260E+01
Pb   -8.7860745797688029E+00    1.5645988180210801E+00    3.4935391509931852E+00
Pb   -9.8655950855037293E+00    8.3809188029336852E+00    7.5623032873029743E+00
Pb   -2.6527601835727563E+00   -4.1012064706900571E+00   -2.1779482047899505E+00
Br    2.6510381747351514E-01   -3.7132276364452523E+00   -2.4267820165662015E+00
Br    2.4577860143838812E+00   -3.5253559707492141E+00   -5.5769747990399896E+00
Br    2.7176790077430040E+00    1.8768630400669425E-01   -3.2161310568838983E+00
Br    1.1510443452402346E+00   -1.0301645211144416E+01   -1.1450239605544295E+00
Br    3.5008115639715793E+00   -9.9209764150202524E+00   -4.1756287953660793E+00
Br    3.7356716079529311E+00   -6.0107068468895246E+00   -2.5371233095470989E+00
Br   -2.8673049876941561E+00   -4.8182300562154232E+00   -4.9076533669439710E+00
Br   -6.9934217917642103E+00   -3.3018308797980489E+00    7.1992454102355783E+00
Br   -3.0134575538299542E+00   -1.0514904287660432E+00   -2.6592432394446690E+00
Br    5.0901614708885035E+00   -1.1158100957039695E+01   -8.4255363637192704E-01
Br    1.1782155000270775E+01    3.1707949636591620E-01    1.7672202023691759E+00
Br   -4.5738389555644599E+00   -9.7958423918464597E+00   -9.0616790553389970E-01
Br   -1.0757570021996916E+01   -4.8678937453349445E+00    4.7047704950059162E+00
Br   -7.8561622805504649E+00   -4.4271199748613315E+00    1.5338492372164860E+00
Br    1.3184685314576036E+01   -5.0150082989519591E+00    2.7989022654179427E+00
Br   -1.8649106546424121E+00    7.8486972138843187E+00   -4.5297720231316898E+00
Br    1.4612979855229797E+00    7.9934524534247728E+00   -7.7661378014007125E+00
Br   -1.2008490902130423E-01    1.1064640704750055E+01   -5.2148082199558736E+00
Br   -7.5930539368429162E-01    2.0017951806745011E+00   -3.3729276635197474E+00
Br    1.9292342868496832E+00    2.1744427333502507E+00   -6.7845389994210494E+00
Br    1.7437911653900415E+00    6.0077034753138205E+00   -4.4852048385411640E+00
Br    7.9532189690809996E-01   -2.6942199522932424E+00    3.4583774414281034E+00
Br    3.4642408779538041E+00   -2.4778814950919306E+00   -1.9526919454681319E-01
Br    2.5595830939332220E+00    9.1796884688724945E-01    1.8251420596275172E+00
Br    1.7728314588113419E+00   -7.6052341941039252E+00    5.2187291800346980E+00
Br    3.3697346521465987E+00   -7.7110097181052009E+00    1.1723526442315646E+00
Br    4.7348716567840592E+00   -4.5957217186122916E+00    3.4128904274825711E+00
Br   -7.5959935118033988E+00    5.1477937406456276E+00   -9.6059772895739304E+00
Br   -4.9800170333532199E+00    5.4839538190440411E+00   -1.2817351661832532E+01
Br    5.2906852992334601E+00   -1.0128097979743389E+01    3.8061503065017925E+00
Br   -4.8445174847585379E+00    8.9122727461916185E+00   -1.1171171309587912E+01
Br   -3.7047208440327908E+00    3.0716310249489585E+00   -1.0044113933689244E+01
Br   -9.0433451216278886E+00   -1.3922642009189272E+00    4.2009534846897063E+00
Br   -2.1560125478737682E+00   -9.9674908169540402E+00   -3.9535729852748518E+00
Br   -7.7168717970569469E+00    8.1442529900848957E+00    1.1907092736681624E+00
Br   -4.3599760015484881E+00    7.9955176534540930E+00   -1.7826137571850071E+00
Br   -5.7370891574259764E+00    1.1179376875337715E+01   -2.8770435686389151E-01
Br   -1.6815559289030482E+00    8.8350831080898935E+00    1.2660522516673851E+00
Br    1.1573490686456209E+00    8.7777023065270345E+00   -1.6222555152571005E+00
Br    5.6512330725599724E-01    1.2643238706575417E+01    6.8180562236647346E-01
Br   -3.6393623443162848E-01    3.2583944913886032E+00    2.2175155778866609E+00
Br    2.0279108002306283E+00    3.3558959298788933E+00   -1.0149864801759458E+00
Br    1.3514222486145380E+00    6.5307106147837981E+00    1.1166862132512025E+00
Br    1.3275195812851781E+00   -9.2290112537851898E-01    9.0260826227766824E+00
Br    3.7751508981950357E+00   -1.2361898070475132E+00    5.7004798600976461E+00
Br    3.6907782374346136E+00    2.8047714799486658E+00    8.5247628102278430E+00
Br    2.0565823701149291E+00   -7.6233225600419976E+00    9.9905816278075221E+00
Br    5.5384412811067110E+00   -6.2621878344650028E+00    6.7966519324766690E+00
Br    4.4381568075268980E+00   -3.7233293185001348E+00    9.5385308942499165E+00
Br   -1.2095285056431866E+01    1.0839897463080415E+00    4.5116101389647474E+00
Br   -9.0612627492638200E+00    1.3307633212875387E+00    5.1658695378435138E-01
Br    6.3988192334267593E+00   -9.6912790287608512E+00    9.2433623218352032E+00
Br   -1.0150497298759499E+01    4.2326331211408981E+00    2.9185544201858735E+00
Br   -7.1646989506891456E+00   -3.9519052423479233E-03    8.9993782287160577E+00
Br   -1.5960108968468498E+00   -6.7066766408922467E+00   -4.8343333125719379E-01
Br   -6.0677719918149124E+00    1.6612325167648681E+00    3.1292365311423631E+00
Br   -3.3060744352134543E+00    2.4005783938946141E+00   -1.7855025643470912E-01
Br   -4.2994850598980552E+00    6.0774375853504354E+00    2.4119145445093602E+00
Br   -1.3706048940237310E+00    1.0574104827492041E+01    6.8520707774963787E+00
Br    9.9321357738768501E-01    9.7864892423132837E+00    4.2597761921755142E+00
Br    5.2002261286813167E-01    1.3592506839359729E+01    5.9627405507088849E+00
Br    2.0006761929404512E-01    4.3824640784486997E+00    8.0847757304488663E+00
Br    2.8700391262551053E+00    4.5003292429642388E+00    4.6861162244330261E+00
Br    2.1913386104104471E+00    7.9242624194702129E+00    7.6643693396391654E+00
Br   -4.0950471513475826E+00   -2.7036491483820533E+00    9.7741687222313942E+00
Br    4.3433348690711853E+00   -6.2742958513259700E-02    1.1907142619939815E+01
Br   -1.5443960341269578E+00   -2.1972238925736964E+00    6.5321753899003294E+00
Br   -1.8763104071342727E+00    1.1272967886627727E+00    8.3490598272608150E+00
Br   -1.3387173292071388E+00   -1.2639889053084669E+01   -8.9853607998045082E-01
Br    5.1764168478586567E+00   -7.5546159745400168E+00    1.2526100693722748E+01
Br   -1.2174905882392677E+01    1.0320635418826001E+00   -2.1761187774047439E+00
Br    2.0579230879896201E-01   -1.1145322387891570E+01    5.2392049408790413E+00
Br   -1.1170447900955219E+01   -5.6482908554958096E+00   -9.8083620486807233E-01
Br    2.3440896733081669E+00    1.1204529406847053E+01    1.0061620060099582E+01
Br   -8.5766600024474009E+00   -5.9289596044162440E+00   -4.5019204122588663E+00
Br   -9.2405873531095928E+00   -2.1451741670459734E+00   -1.6281708202293801E+00
Br    3.6801510849299341E+00    6.0540643770668172E+00    1.0284058894664993E+01
Br   -7.8416034068018972E+00    6.9561037151205429E+00   -3.7111032989687365E+00
Br   -4.5170151827255554E+00    6.3048225739957324E+00   -7.3253372051230823E+00
Br   -5.2629740357362236E+00    1.0050853278491415E+01   -5.7491011520675732E+00
Br   -6.3681620438214637E+00    9.2218859177443824E-01   -2.7071119851187344E+00
Br   -9.8648180757482304E+00   -9.8109216440171689E+00    5.7513692623167243E+00
Br   -4.5112308414111242E+00    1.6913512687986827E+00   -6.0772503350448881E+00
Br   -5.3998269058117536E+00   -6.5630665097532077E+00   -7.2877162473251653E+00
Br   -3.0016136569154011E+00   -6.3945375204168746E+00   -1.0762825162538467E+01
Br   -2.9845305262918544E+00   -2.2570183529268868E+00   -7.9744701467746708E+00
Br   -2.5757021511297702E+00    5.3471158901133160E+00    1.0747387793589164E+01
Br   -3.7836157742138683E+00   -8.5746390901149621E+00    1.1122298554490019E+01
Br   -1.6813910489716319E+00   -7.6817872600506556E+00    7.9221141951701641E+00
Br   -5.7249616138496795E-01   -4.7657513647133802E+00    1.0453552017731663E+01
Br   -6.8490996928374370E+00   -9.9905993642680819E+00    2.1370452040722734E+00
Br   -7.1273099381430924E+00   -6.6488859139915011E+00    4.8858757744622796E+00
Br   -8.2606607841410629E+00    9.0459565571220661E+00    9.9878129651250980E+00
Br    9.6217121604330451E+00    1.2019818518822220E+01    7.7171071163712260E-02
Br   -6.6130170115650877E+00   -7.6665077543444404E+00    1.4273643893129265E+01
Br    9.7024238685059885E+00    1.0712642249793426E+01   -4.5511845500747325E+00
Br    1.1411078326923734E+01    5.2524670783850782E+00    1.8008844793241754E+00
Br   -7.0811728690420823E+00    2.7607839491178119E+00    1.1966787367349898E+01
Br   -1.1648655683403572E+01   -6.5688835062569524E+00   -7.1924978535844311E+00
Br    1.2380756539537822E+01    1.1788852351668351E+00    6.7680915398593804E+00
Br   -3.7040983411251740E+00   -9.3419934785563363E+00    4.9689290150250729E+00
Br    5.3981530239716884E+00   -3.1169516114726523E+00   -9.0883805255756140E+00
Br    8.0215578324738583E+00   -2.9751917552489600E+00   -1.2103873042305498E+01
Br    1.3864838941715069E+01   -4.7002997494349437E+00    7.9278454226980770E+00
Br    8.5106299441076114E+00    1.3121535053056255E-01   -9.5231719404797204E+00
Br   -6.9934566834766629E+00   -1.1646436121445523E+01    1.1314358491789635E+01
Br   -1.1419065171474552E+00   -9.6644738075420129E+00    2.0117416405627937E+00
Br   -1.6872806338757911E+00   -5.6606253864436704E+00    4.2371796008762805E+00
Br    6.3443133855292029E+00   -9.8067186924808993E+00   -7.1631977046837232E+00
Br   -4.9019523602313022E+00   -1.1415873029994840E+01   -6.4883813721534889E+00
Br    7.7726918050517906E+00   -8.8291681893096516E+00   -1.0777385610522353E+01
Br    8.5241014720924309E+00   -5.5909059957765912E+00   -8.3560586610819634E+00
Br   -8.3213240987837100E-01   -1.0457627681642842E+01    1.0510083651496695E+01