 # Version information for this restart file 
 # current date 2021-06-17 12:46:56.230
 # current working dir /user/ub2042/exercises/2_fitting/MM_MD_workdir/md_settings.005
 # Program compiled at                              Thu Apr 22 21:44:59 EDT 2021
 # Program compiled on                cpn-k07-07-02.compute.cbls.ccr.buffalo.edu
 # Program compiled for                                                    local
 # Source code revision number                                       git:36754bb
 &GLOBAL
   PRINT_LEVEL  LOW
   PROJECT_NAME cp2k
   RUN_TYPE  MD
 &END GLOBAL
 &MOTION
   &MD
     ENSEMBLE  NVT
     STEPS  10000
     TIMESTEP     2.4999999999999996E+00
     STEP_START_VAL  9000
     TIME_START_VAL     2.2499999999996515E+04
     ECONS_START_VAL    -1.5890036444644286E+01
     TEMPERATURE     3.0000000000000000E+02
     &BAROSTAT
       PRESSURE     1.0100000000000000E+00
       TIMECON     9.9999999999999982E+03
     &END BAROSTAT
     &THERMOSTAT
       TYPE  CSVR
       &CSVR
         TIMECON     9.9999999999999982E+03
         &THERMOSTAT_ENERGY
              -1.8097640754702515E-01
         &END THERMOSTAT_ENERGY
         &RNG_INIT
Wiener process for Thermostat # 1        1 F T F   1.8360017598728720E-01        2587283350.0         742073417.0         736784705.0        2193663472.0        2811323491.0        3638979434.0             12345.0             12345.0             12345.0             12345.0             12345.0             12345.0             12345.0             12345.0             12345.0             12345.0             12345.0             12345.0
         &END RNG_INIT
       &END CSVR
     &END THERMOSTAT
     &AVERAGES  T
       &RESTART_AVERAGES
         ITIMES_START  1
         AVECPU     1.7457153243116221E-02
         AVEHUGONIOT     0.0000000000000000E+00
         AVETEMP_BARO     0.0000000000000000E+00
         AVEPOT    -1.6324342062521609E+01
         AVEKIN     5.2781874664115824E-01
         AVETEMP     2.6774582952158210E+02
         AVEKIN_QM     0.0000000000000000E+00
         AVETEMP_QM     0.0000000000000000E+00
         AVEVOL     6.7483345830912245E+06
         AVECELL_A     1.8897261328855686E+02
         AVECELL_B     1.8897261328855686E+02
         AVECELL_C     1.8897261328855686E+02
         AVEALPHA     9.0000000000000000E+01
         AVEBETA     9.0000000000000000E+01
         AVEGAMMA     9.0000000000000000E+01
         AVE_ECONS    -4.6512447046505949E+00
         AVE_PRESS     0.0000000000000000E+00
         AVE_PXX     0.0000000000000000E+00
       &END RESTART_AVERAGES
     &END AVERAGES
     &PRINT
       &ENERGY  SILENT
         &EACH
           MD  10
         &END EACH
       &END ENERGY
     &END PRINT
   &END MD
   &PRINT
     &TRAJECTORY  SILENT
       &EACH
         MD  10
       &END EACH
     &END TRAJECTORY
     &CELL  SILENT
       &EACH
         MD  10
       &END EACH
     &END CELL
     &VELOCITIES  SILENT
       &EACH
         MD  10
       &END EACH
     &END VELOCITIES
     &FORCES  SILENT
       &EACH
         MD  10
       &END EACH
     &END FORCES
     &RESTART  SILENT
       &EACH
         MD  10
       &END EACH
     &END RESTART
   &END PRINT
 &END MOTION
 &FORCE_EVAL
   METHOD  FIST
   &MM
     &FORCEFIELD
       VDW_SCALE14     1.0000000000000000E+00
       EI_SCALE14     1.0000000000000000E+00
       SHIFT_CUTOFF  T
       DO_NONBONDED  T
       IGNORE_MISSING_CRITICAL_PARAMS  T
       &SPLINE
         R0_NB     2.5000000000000000E-01
       &END SPLINE
       &NONBONDED
         &LENNARD-JONES
           ATOMS Br Br
           EPSILON     1.2630795322675199E+02
           SIGMA     3.6900000000000004E+00
         &END LENNARD-JONES
         &LENNARD-JONES
           ATOMS Cs Pb
           EPSILON     8.6920055954630968E+01
           SIGMA     3.6699999999999999E+00
         &END LENNARD-JONES
         &LENNARD-JONES
           ATOMS Cs Cs
           EPSILON     2.2644852172126850E+01
           SIGMA     4.3300000000000001E+00
         &END LENNARD-JONES
         &LENNARD-JONES
           ATOMS Pb Pb
           EPSILON     3.3363415533600227E+02
           SIGMA     5.9000000000000004E+00
         &END LENNARD-JONES
         &LENNARD-JONES
           ATOMS Br Cs
           EPSILON     5.3481070753900497E+01
           SIGMA     3.6300000000000003E+00
         &END LENNARD-JONES
         &LENNARD-JONES
           ATOMS Br Pb
           EPSILON     2.0528187276773045E+02
           SIGMA     2.9800000000000000E+00
         &END LENNARD-JONES
       &END NONBONDED
       &CHARGE
         ATOM Cs
         CHARGE     4.4453099999999995E-01
       &END CHARGE
       &CHARGE
         ATOM Pb
         CHARGE     8.8906199999999991E-01
       &END CHARGE
       &CHARGE
         ATOM Br
         CHARGE    -4.4453099999999995E-01
       &END CHARGE
     &END FORCEFIELD
     &POISSON
       PERIODIC  XYZ
       &EWALD
         EWALD_TYPE  SPME
         GMAX  62 62 62
         O_SPLINE  4
       &END EWALD
     &END POISSON
     &PRINT
       &FF_INFO  LOW
         SPLINE_INFO  F
         SPLINE_DATA  F
       &END FF_INFO
     &END PRINT
   &END MM
   &SUBSYS
     &CELL
       A     1.0000000000000001E+02    0.0000000000000000E+00    0.0000000000000000E+00
       B     0.0000000000000000E+00    1.0000000000000001E+02    0.0000000000000000E+00
       C     0.0000000000000000E+00    0.0000000000000000E+00    1.0000000000000001E+02
       PERIODIC  XYZ
       MULTIPLE_UNIT_CELL  1 1 1
     &END CELL
     &COORD
Cs    8.9988766060243558E-02   -4.8514685795748658E-01   -5.8180238879202575E+00
Cs    1.3409910024573917E+00   -6.8289377614374578E+00   -5.2651930931689339E+00
Cs    1.9267064298257446E+00   -1.2261961319069915E+01   -4.7922646468975207E+00
Cs   -4.9917856012066508E+00   -6.6954152160678140E+00   -4.0840994784702440E+00
Br   -6.8342380575968624E+00   -1.3943376646932073E+01   -7.2579385963697804E+00
Br    1.1284072807290924E+01   -2.3100835011622149E+00   -9.3963430802696237E+00
Br   -4.3230567438834804E+00    4.7189481645835468E-01   -1.1912065600766143E+01
Cs   -1.0616672271087395E+00    5.7881811174940410E+00   -6.5898059517240331E+00
Cs   -2.4707121920347622E-01   -1.1521149942805674E-01    7.5912997812923888E-01
Cs    1.0329857177774189E+00   -6.1729617279588211E+00    7.1905585760611701E-01
Br   -5.2693554180656914E+00   -3.3707877485501960E+00    3.5964137009300750E+00
Cs   -8.4582920893848765E+00   -4.6195844845554044E+00    1.3685966088641685E+01
Cs    1.3175238208146830E+01   -9.3776978957424451E+00    1.4144125586280432E+00
Cs   -7.4653502657034032E+00    4.8667740581426209E+00   -9.2456700889625743E-01
Cs   -1.5924818420275393E+00    1.1208379853828056E+01   -5.6712821733270657E-01
Cs   -6.6449027299536001E-01    5.6701699847709683E+00   -1.2196774350702273E+00
Cs   -4.8615505403449794E-01    1.3391644275944068E+00    5.1784235597860500E+00
Cs    1.4371586008041020E+00   -4.6534103142186174E+00    6.6539011238262633E+00
Cs    2.4291070200303810E+00   -1.0525723697977117E+01    8.4288447138045921E+00
Cs   -6.7012731507287038E+00    6.1466375439868868E+00    1.0612450318799524E+01
Cs   -6.8343584848112222E+00   -2.3167402209287911E+00   -1.0491126490259898E+01
Cs   -3.6206777336455556E+00   -1.2604521423244268E+01   -2.8746317457266648E+00
Cs   -5.5272002461424137E+00   -1.1166740182960340E-01    5.8217459299474807E+00
Br   -2.1809803665562528E+00   -3.4349872297340669E+00    6.6366978637183704E-01
Cs   -1.5596550729667489E+00    6.9366216282474031E+00    5.0683500377586705E+00
Br    1.2915202950774903E+01   -8.1473985996295095E+00   -7.5729196708188908E+00
Cs    8.7888623434106039E-01   -2.5245579348337635E+00    1.2046384948682926E+01
Br   -2.7232850779038111E+00   -1.3877270533305913E-01    3.3551439553515316E+00
Br   -7.8229907993530752E+00   -1.5189332657403261E+00    1.2374526993655881E+01
Cs    8.8932993449521636E+00    1.1607484000065115E+01   -9.1079023925721039E+00
Cs   -1.0367986435465916E+01   -6.5478165331396054E+00    8.7534782549357182E+00
Cs   -4.8915536110446487E+00   -5.9071081558078662E+00    7.9133648832149621E+00
Cs   -7.7558031419857070E+00    9.0062253152669332E+00   -7.3227990173405786E+00
Br   -9.1354589779848165E+00   -8.1831482595983172E+00    1.1690618419950084E+01
Br   -7.0580108591755337E+00   -9.0780590742543161E+00    8.1899846181946252E+00
Cs   -1.0616236185684285E+01   -7.7123317272812413E+00   -3.7436612021324915E+00
Cs   -7.6576020551579775E+00    3.6766506088083672E+00   -7.1089424087099697E+00
Br   -6.8371575607000485E+00   -5.3928392071536546E+00    1.0617074988645431E+01
Cs    9.7030222530470933E+00    8.6393199394437854E+00    1.0157445883728311E+01
Br   -1.2766356714039738E+01    8.3154365380359696E+00    6.5176166519899477E+00
Br   -5.2178576998035187E+00   -3.9226188775752102E+00   -2.1297668883107499E+00
Cs    2.0675409439406203E-01    3.3391742764291648E+00    1.1488959023423378E+01
Cs    1.0545632799469074E+01    6.6388458346620602E+00   -2.3493611007031054E+00
Cs   -1.0931445402175299E+01   -9.0737801136239629E+00   -8.9200064158928960E+00
Cs    1.2561314111406954E+01    2.6185191885949779E+00    6.6184345415959642E+00
Cs   -1.3347875717038098E+01    9.1526276809102196E+00   -7.1248483079755038E+00
Cs    1.2686005511703904E+01   -9.2398048211319015E+00    7.3265618912136219E+00
Cs    5.8291810465652940E+00   -6.2650943560858323E+00   -1.0599017119837193E+01
Cs    7.9455428626997540E+00   -8.8861485841570396E+00    7.1106721796830996E+00
Cs   -3.8691097308118931E+00   -1.2228627177777948E+01    2.2579178372403534E+00
Cs    6.4233088509385050E+00   -1.0287770997508600E+01   -1.2832482777039701E+01
Cs    1.0090188756450818E+01    6.0602491453907632E+00   -7.3305445311095507E+00
Cs    1.0143279379140598E+01    1.2811343704341265E+01    2.8993450463905104E+00
Cs    9.6536304907507695E+00    5.4020614032801291E+00   -1.3282237932892865E+01
Cs    3.4689147136414250E-01   -8.0735525724500832E+00   -1.0708857866838638E+01
Cs   -1.2188525971064408E+01   -2.5938035922262741E+00   -4.3272557442265391E+00
Cs    7.2739800763697371E+00   -2.2876063795154491E+00    1.1916484899640633E+01
Cs    1.2880672459618234E+01   -3.6000787725568273E+00    5.1845812055524316E+00
Cs   -2.3140619858757616E+00   -9.8032222217361280E+00    1.3461793232843259E+01
Cs   -1.5641392464749642E+00   -1.5973624570757641E+00   -1.1001199930675078E+01
Cs   -1.1628816061265197E+00    1.2164701685999180E+01    4.3061171293183937E+00
Cs   -1.8026751539908012E+00    4.1584310525518644E+00   -1.1133306671896886E+01
Cs    4.7525480459345140E+00    1.9464801940310930E-01   -6.4651367383656915E+00
Cs    6.2339859097257655E+00   -5.1527652526600161E+00   -5.8970392170494437E+00
Cs   -3.5607060468362155E+00   -1.0494713661355231E+01    7.7320792781589605E+00
Cs   -1.1411792415658836E+01   -9.9342384435518949E-01    5.4549301321496122E+00
Cs    4.2745839283484566E+00   -3.5042295547470598E-01   -1.2083804202556657E+01
Cs    3.2440869871567406E+00    1.0051602882150990E+01   -1.3247091919888954E+01
Cs   -1.0192448703279400E+00    8.6912862005288964E+00    1.0775241324880806E+01
Cs   -7.3708971482620820E+00    1.1008262528773857E+01    4.5144946208854426E+00
Cs    3.4015967508099827E+00    1.1588394659923193E+01   -7.3241974064392332E+00
Cs    4.8906969535135634E+00    5.4745254933666674E+00   -6.7803343110525347E+00
Cs    5.9435353271637599E+00    1.7270307971215695E+00   -7.5776690851482720E-01
Cs    6.4562678474829900E+00   -4.3708217782219814E+00    5.0794865069422357E-01
Cs    7.6035888782957581E+00   -1.0064983600887915E+01    1.0703238419554035E+00
Cs    3.5535381875763665E+00    3.8034899929931769E+00   -1.3343548798322129E+01
Cs   -6.7434145369044369E+00    4.9171516725223814E+00    4.5117734743325073E+00
Cs   -6.2527331668730284E+00   -7.9380364113232105E+00   -1.0012645272563752E+01
Cs    5.2438963296280701E+00    6.4282020472184804E+00   -2.1612465217107406E+00
Cs    6.9054668919854896E+00    1.6797157347688698E+00    4.9631724181453105E+00
Cs    7.1987363565957043E+00   -3.8555919132408851E+00    6.1838912684763896E+00
Cs   -7.2206323171328126E+00    1.0206762158258405E+01   -1.3578107016251144E+00
Cs    1.1255374405462087E+01    1.2742879188750120E+00   -1.4817870793732073E+00
Cs   -6.1343569083740004E+00   -1.0450362564793054E+00   -1.8546478629330893E-01
Cs   -1.1733523133854661E+01    5.1874243010662102E+00    5.1631215544085061E+00
Cs   -5.7854049572554569E+00    1.1618359999504846E+00    1.2311523239691160E+01
Cs    3.6537049178045025E+00    1.3596043548326922E+01    4.5084141956255417E+00
Cs    4.8511659569099761E+00    7.1338244485861910E+00    4.4185026498196329E+00
Cs    6.6625004380143746E+00    2.3110023396009214E+00    1.0617883700891920E+01
Cs    4.2811737567832493E+00    1.2083566310911078E+01   -1.8504604320050089E+00
Cs    1.0976348086391013E+01    3.5399354418314793E-01   -7.4488308154851621E+00
Cs    1.1742243788608093E+01   -4.7932404246325158E+00   -6.2475894915309143E+00
Cs    9.4388342839538346E+00   -8.7089398092818300E+00    1.2797645796946133E+01
Cs    9.8205462228400773E+00    1.2720774552657359E+01   -2.4243306569335905E+00
Cs   -1.0656949604199099E+01    2.6423449707365049E-01    1.1251549181137726E+01
Cs   -7.7432511128977355E+00    3.3089540989951476E+00   -1.1161899539928338E+01
Cs   -1.3098760302637571E+01    9.4493860415695377E+00   -8.0317002151665029E-01
Cs   -3.7669497510596948E+00   -4.9539541185016391E+00    1.3055538821817690E+01
Cs    3.2050117020389193E+00   -7.7130554709924768E+00    1.3654049728181194E+01
Cs    4.5941825798931033E+00    8.3529100102803202E+00    1.0171663149484765E+01
Cs    1.2177208000517908E+01   -4.2460510143570245E+00    2.7308008048797455E-01
Cs   -1.0888205077636531E+01   -2.4776110219969261E+00    5.5887177073988170E-01
Cs   -8.4538250347440567E+00    8.7425987933559792E+00   -1.2473066212370009E+01
Cs   -1.2474492204254723E+01    3.5394237695895594E+00   -9.2504102163290991E-01
Cs   -9.7362476662305770E+00   -1.3231976244724166E+01   -2.6945849483126563E+00
Cs   -1.0612652888777506E+01   -7.1353819602696964E+00    1.6918766563331085E+00
Cs   -4.6433962296674425E+00   -6.3403742198583117E+00    2.5009734741604102E+00
Cs   -7.3777878117814311E+00   -1.2663612173842132E+01    8.5253744981102564E+00
Cs    1.3801077612587987E+01   -2.4290641007151810E+00    1.0307519749853892E+01
Cs    1.0547820291500708E+01    7.7987279447411630E+00    3.2325659879300765E+00
Cs   -1.1780605771029970E+01    3.3148618265381966E+00   -5.7827449511759292E+00
Cs   -6.1566604502585482E+00   -1.5267793760918251E+00   -4.7159932636871638E+00
Cs   -9.5516832813115187E+00   -1.2327725265324124E+01    2.9980617489435009E+00
Cs    1.2849863886607126E+01   -1.0405583457581615E+01   -4.8188809294946306E+00
Cs   -4.9262765531143842E+00   -1.2694855955853420E+01   -9.9608128780594427E+00
Cs   -2.2075326116847416E+00    9.4305349374914087E+00   -1.3110841520672933E+01
Cs    1.6252177251134317E+00   -1.2429918096875786E+01   -9.1655993257619830E+00
Cs   -1.6500450482159610E+00    1.1126618711581024E+01   -7.6189745967845521E+00
Cs   -7.3306447881044363E+00    1.1646096741956839E+01    9.7568546649255055E+00
Cs    2.1327035366807952E+00   -1.2161100824362668E+01    7.5708663648280616E-01
Cs   -1.2023017153083735E+01   -3.9703151573404964E+00   -9.2253260730362960E+00
Cs   -1.1937713512150529E+01    1.1049877304974707E+01    4.7031090183383801E+00
Cs    7.1662139102749656E+00   -1.2226466202132777E+01   -4.7627228233836405E+00
Cs    9.4735930657037564E+00   -5.2802391457225706E-01   -1.3180514821156319E+01
Cs    4.0764489919488645E+00    1.2946827642647513E+01    9.6591859815707153E+00
Pb    3.3294969402923194E+00   -2.9757753807259495E+00   -2.9860408393838385E+00
Pb    4.4070787318773101E+00   -8.3693894168264347E+00   -1.7961656659412675E+00
Pb   -7.9900425732229836E+00   -3.8063127548887490E+00    4.2136566226574876E+00
Pb   -1.4347963693687833E+00   -9.2593021634562955E+00   -1.6746228602601507E+00
Pb    1.6525391818612276E+00    8.8845607427036413E+00   -4.2826107577567898E+00
Pb    2.5224915864573814E+00    2.9440328595491772E+00   -3.4929578295356283E+00
Pb    3.5281735184010858E+00   -2.2013201033789658E+00    3.0822322545427312E+00
Pb    4.1407912662797361E+00   -7.9380411702340572E+00    4.0974581872339693E+00
Pb   -4.0125937196455554E+00    8.7512812109309230E+00    1.7702550274359112E+00
Pb    2.0006094917354988E+00    9.5427460762263117E+00    1.8005464350141374E+00
Pb    2.7696535388413186E+00    3.7206574349427632E+00    2.1478225507063025E+00
Pb    3.8719528457891248E+00   -1.1813563198608248E+00    8.6941536564361463E+00
Pb    5.2394179569650978E+00   -6.8123853336906883E+00    1.0181224598743336E+01
Pb   -3.5517359023470507E+00    2.7146748128264817E+00    2.2872940923074707E+00
Pb    1.3667669964888705E+00    1.0529751662708529E+01    7.5241436713247705E+00
Pb    2.7929889836268114E+00    5.0626064887884556E+00    8.2282895759052757E+00
Pb   -2.0879036545980880E+00   -1.8845935852909637E+00    9.4493363994894022E+00
Pb   -7.2777976394328592E+00   -9.5369543693232703E+00    5.1049448824660359E+00
Pb   -8.9875370745098113E+00    1.2868391337421357E+00   -3.0357952777873560E+00
Pb   -3.0919387331399042E+00   -4.9320113078673220E+00   -8.1872813123250729E+00
Pb   -1.3179355419539760E+00   -8.7248070228428922E+00    4.3998926406230785E+00
Pb   -4.1933628415891420E+00    7.7850703496635472E+00   -3.8893170544082110E+00
Pb   -5.9890415757016457E-01   -7.4542294457912375E+00    1.0297248011525935E+01
Pb   -8.2083012684995698E+00   -4.6822853624742793E+00   -1.6529049054934761E+00
Pb   -6.9745524250453288E+00   -1.0159968542945510E+01   -6.8471082431538743E-01
Pb   -3.3068217019102115E+00    2.1235218990559410E+00   -3.5297500034708262E+00
Pb   -6.4336771506854884E+00   -8.3084636049752270E+00    1.1487140318549850E+01
Pb   -8.7749985630586185E+00   -5.7545981664561783E+00   -7.4108458910945672E+00
Pb    8.2799188745033412E+00   -2.9798523881707299E+00   -9.4289758966946557E+00
Pb    9.6379187834238742E+00   -8.5778962507762309E+00   -7.9769655541008477E+00
Pb   -1.7153843640423119E+00   -1.0561471167025600E+01   -7.3814227054040034E+00
Pb   -1.0833706094374588E+01    5.7886188022723744E+00   -9.5045283585218421E+00
Pb    2.5008507262002202E+00   -3.9405175854112788E+00   -8.7534801373549893E+00
Pb    4.0674387849302809E+00   -9.2971739148746657E+00   -7.5610821518647295E+00
Pb   -4.2917127523860366E+00    1.2512905383189725E+00   -9.0847901918388594E+00
Pb    7.0065155248622124E-01    7.7768570443365084E+00   -1.0113330525348637E+01
Pb    1.7176914124424687E+00    1.9989887968620546E+00   -9.3057185031754610E+00
Pb    9.1417234466498041E+00   -2.1742504863781700E+00   -3.5542023356174566E+00
Pb    9.9548326828328051E+00   -7.6707377447629028E+00   -2.2689079748278793E+00
Pb   -7.7053540244600791E+00   -2.5629483898409631E+00    9.8505604783945326E+00
Pb    6.7792028515615073E+00    8.3133288332244248E+00   -1.1293559749909216E+01
Pb   -1.0036754190949539E+01   -3.3106499183595506E-01   -8.6847570499734310E+00
Pb   -4.2401613248457846E+00    9.2426949476276370E+00    7.5281893941130509E+00
Pb    7.8415989986997010E+00    9.0182111376026128E+00   -5.4687212419432596E+00
Pb    8.2669021108654857E+00    3.4151674379534027E+00   -4.2171488971349653E+00
Pb    9.8568031273055290E+00   -1.3621136090890757E+00    2.6849080491223094E+00
Pb    9.9625264395995750E+00   -7.0544941926383853E+00    3.5769348681288138E+00
Pb    7.6647781215478350E+00    2.7073256078222787E+00   -1.0367784211713694E+01
Pb   -3.1766055409606153E+00    3.6630935371921445E+00    8.1604985499253893E+00
Pb    7.9822421457529913E+00    1.0006261763939255E+01    6.9655658247478469E-01
Pb    8.5839413589803613E+00    4.1872418246687095E+00    1.6241631141070294E+00
Pb    9.9968571793628414E+00   -2.7769116286605428E-01    8.3725550733634275E+00
Pb    1.0860070070182090E+01   -5.9569155199214503E+00    9.5315874757806167E+00
Pb    7.1820328089640357E+00    1.1086432860368609E+01    6.5788921408564587E+00
Pb    8.4550899924557932E+00    5.4077608357491140E+00    7.4695253116685407E+00
Pb   -8.8087473328987738E+00    2.7136982686983595E+00    8.3405515567151731E+00
Pb   -2.1801725530310474E+00   -3.1269632824139619E+00    3.6105667987089340E+00
Pb   -9.9335873899114411E+00    7.6697424786214512E+00    2.0113908194450447E+00
Pb   -1.0534492988791163E+01    6.9753450712612981E+00   -3.8970093305382858E+00
Pb   -7.7985413120779574E+00   -1.1309624388209370E+01   -6.4225801082023368E+00
Pb   -4.9787626553219502E+00    6.9001039118559024E+00   -9.5044106248294256E+00
Pb   -9.3422818087150148E+00    1.9310642140770782E+00    2.8182239386136860E+00
Pb   -1.0149269236755398E+01    8.3553511258620450E+00    7.7080491091660690E+00
Pb   -2.4113610856287240E+00   -3.7485406081427519E+00   -2.3515975212165277E+00
Br    5.1138624091468454E-01   -3.2786120151710305E+00   -2.5902833864957744E+00
Br    2.8644625153278978E+00   -3.1863963378861322E+00   -5.7502510211582294E+00
Br    2.7079376819864991E+00    2.5336226395458750E-01   -3.2955614137342510E+00
Br    1.6434260888429872E+00   -9.1566612110531516E+00   -1.8942930150792576E+00
Br    4.2159647330311456E+00   -9.5040288706611964E+00   -4.5551741774723711E+00
Br    3.6865003829208551E+00   -5.8043387695334472E+00   -2.9008080710898216E+00
Br   -1.9462986209564173E+00   -4.5935339725815121E+00   -5.1250423298920404E+00
Br   -7.1899172035687533E+00   -3.6859598107613287E+00    7.1851921412170787E+00
Br   -2.4946712540858385E+00   -9.1357214463884195E-01   -2.9645497256449738E+00
Br    5.3177445233865850E+00   -1.1494841273112412E+01   -1.6447608750761584E+00
Br    1.2705934251608106E+01   -1.3183116358463633E+00    2.3961054449306167E+00
Br   -4.3914059015445446E+00   -9.5394576439183965E+00   -1.0987318724622812E+00
Br   -1.0930697948000748E+01   -3.8085568604656608E+00    3.7715453945291966E+00
Br   -7.6010545051876104E+00   -4.3489544793896728E+00    1.1644294713708174E+00
Br    1.2927682114501925E+01   -6.8638621006258580E+00    3.2161787525958307E+00
Br   -1.2577820128447808E+00    8.6254293173554863E+00   -3.9142633855074842E+00
Br    1.2065259702767175E+00    8.5005297543473937E+00   -7.3192859150434799E+00
Br    1.0783078072952319E+00    1.1659709678965179E+01   -4.3200554031298743E+00
Br   -4.9693094292262202E-01    2.7480637988538690E+00   -3.5817122030322599E+00
Br    2.2991884032468222E+00    2.6902559612814718E+00   -6.4670885901238604E+00
Br    2.2901938648168763E+00    6.2382557862069126E+00   -4.0821258298842098E+00
Br    7.4459206317022064E-01   -3.0114963121188860E+00    3.0590832530760421E+00
Br    3.1272283205714593E+00   -2.5561791211816671E+00    1.7471164782425527E-01
Br    2.5901264049313437E+00    8.0744333566015836E-01    2.6652741487222342E+00
Br    1.5825344190106447E+00   -9.3706671602998490E+00    3.7871419531746993E+00
Br    4.1126813219274085E+00   -7.8653578206222310E+00    9.8711783795195396E-01
Br    3.6222789546719891E+00   -5.0008946518029571E+00    3.8669475848625581E+00
Br   -7.7628897658185680E+00    6.4301659481842082E+00   -9.5366712480064670E+00
Br   -4.6382160273322404E+00    7.0933535249110413E+00   -1.2406564435541108E+01
Br    5.4534125114850296E+00   -1.0460867069773135E+01    3.2789751534143425E+00
Br   -5.4013395051813822E+00    9.7183753430871640E+00   -9.7001119882862259E+00
Br   -4.5151212064586073E+00    4.0392836719764542E+00   -9.2528646211263332E+00
Br   -8.3624579754896189E+00   -9.3718420035915095E-01    3.5062468028688238E+00
Br   -1.3731553036492348E+00   -1.0002456623844868E+01   -4.6157560116360692E+00
Br   -6.8936913265292743E+00    7.8160485448232322E+00    1.8785809907785596E+00
Br   -3.7258633412071709E+00    8.2391356787030325E+00   -1.0828610787677868E+00
Br   -4.7596384739822071E+00    1.1260586839419151E+01    9.9286387268070020E-01
Br   -9.7276599932350916E-01    8.8438148936182603E+00    1.9339399607251384E+00
Br    2.2476337486797404E+00    9.3471473470245066E+00   -1.5256106780193466E+00
Br    1.5594403926278522E+00    1.2702684749050368E+01    1.4793556479780177E+00
Br   -2.5301663974556077E-01    3.2204470492802253E+00    2.2224577004814603E+00
Br    2.7668873115310708E+00    3.4079448716666820E+00   -8.5953035660482968E-01
Br    2.8096891298456250E+00    6.7332123457874076E+00    1.2048196198433665E+00
Br    6.6819249833757866E-01   -1.2565143962484906E+00    8.8589858543687807E+00
Br    3.7627741497631564E+00   -2.0678583643107986E+00    6.1384610918376428E+00
Br    3.2419466877410992E+00    2.1928771427259761E+00    9.4680292759889930E+00
Br    2.3082708162212420E+00   -8.0004168641891731E+00    1.0644901523421730E+01
Br    4.0808284773139896E+00   -7.6397194497738470E+00    6.9826524977683322E+00
Br    3.5189275094363683E+00   -4.2472599907843396E+00    9.4482310318156522E+00
Br   -1.2135788502191966E+01    1.1729119653197044E+00    2.5922549448445866E+00
Br   -9.0465104968275227E+00    1.4869453226150060E+00    2.3107903677691145E-02
Br    6.1602693462722016E+00   -9.0196237552671956E+00    1.1873630598405226E+01
Br   -9.5408162060041359E+00    4.7918579276639148E+00    1.6617457907960644E+00
Br   -8.2171002182514616E+00   -2.0857623573219125E-01    8.1977519139246517E+00
Br   -1.9314579313121130E+00   -6.4566483110872257E+00   -1.8795950606814726E+00
Br   -6.3295336849142743E+00    2.2791137055919348E+00    2.4757478659217420E+00
Br   -3.1078964475731885E+00    1.8671677776743592E+00   -4.9713538276046282E-01
Br   -3.2359705378899104E+00    5.4861681199479380E+00    1.5578890521370092E+00
Br   -1.5786865443858697E+00    9.6480293859230812E+00    7.5944773376884971E+00
Br    1.5744117426737856E+00    1.0186300429151508E+01    4.5061569432996444E+00
Br    1.3743728056873246E+00    1.3508620678678755E+01    7.3858531123130353E+00
Br   -8.4163494947808740E-02    4.5423496984855776E+00    8.2574195857174395E+00
Br    2.5554810083611250E+00    4.7508600765609952E+00    5.0479332505345340E+00
Br    2.7226080618472985E+00    7.6955320213938814E+00    7.4211460988298308E+00
Br   -5.0069786638382130E+00   -1.7714251560117438E+00    9.5365479441981247E+00
Br    4.3836178823396619E+00   -1.0798986380325826E+00    1.1551824654565301E+01
Br   -1.7684720110219745E+00   -3.0588299246067807E+00    6.6568242607245462E+00
Br   -2.6573169094521694E+00    7.6258475959461791E-01    8.3323313763846976E+00
Br   -6.7175451898453620E-01   -1.2164873829523565E+01   -1.2766159850362142E+00
Br    5.3041055590111208E+00   -5.5012705405787523E+00    1.2811510576764817E+01
Br   -1.1789533117328512E+01    7.1370017557444398E-01   -2.9709399797002409E+00
Br   -2.0127696833845716E+00   -1.1538676518000374E+01    4.5834938230611373E+00
Br   -1.1131094639279842E+01   -4.9975530076120966E+00   -1.6753454624060395E+00
Br    1.6321535285961621E+00    1.0489962144535333E+01    1.0563468261036039E+01
Br   -8.5557127367503778E+00   -5.1745184326843274E+00   -4.4200034331889331E+00
Br   -8.6126354452877152E+00   -1.7352952941080571E+00   -2.1759944394972046E+00
Br    2.5113777575598659E+00    5.6660597728454576E+00    1.1097740161906918E+01
Br   -7.0910550377754840E+00    7.3298429128302862E+00   -3.8536998188949889E+00
Br   -4.3333017106506624E+00    6.6822032579775401E+00   -6.6619948475131050E+00
Br   -4.5924243563898397E+00    1.0642418658162313E+01   -4.0581658275109183E+00
Br   -6.1533327451367779E+00    1.9634774933877435E+00   -2.7999227472066157E+00
Br   -9.9428402364272426E+00   -1.0451180590176630E+01    5.8793104225172135E+00
Br   -4.4509276814187402E+00    1.3521391083764935E+00   -6.0569443447114466E+00
Br   -6.0148214130218562E+00   -4.9241044840851487E+00   -7.4498220339567087E+00
Br   -4.1802038838362030E+00   -4.6734289473102537E+00   -1.1039418569800883E+01
Br   -3.6834844106424542E+00   -1.9462032947477903E+00   -8.3526567177299444E+00
Br   -3.0998650862751060E+00    3.5187759595519816E+00    1.1233043512650518E+01
Br   -3.4221456957628664E+00   -7.4112696448571258E+00    1.0757700804950714E+01
Br   -1.3499304934253120E+00   -8.2207355425990691E+00    7.1111040102180185E+00
Br   -1.0472831663831264E+00   -4.6583400831884783E+00    1.0085890944062855E+01
Br   -7.0043443819377798E+00   -9.5779383480477325E+00    2.1823346325170867E+00
Br   -7.8629699022696062E+00   -6.8338197122048632E+00    4.4319185085799031E+00
Br   -9.1189949212512396E+00    8.8857721634034750E+00    1.0592836918919485E+01
Br    1.0931729697215705E+01    1.0547253587461618E+01    6.4530291070054935E-01
Br   -5.8525352008075169E+00   -7.0033037532397504E+00    1.3809855592883274E+01
Br    1.0490692288052339E+01    8.8514858331427835E+00   -5.9474855551910366E+00
Br    1.1763687154530015E+01    4.9347758292482995E+00    1.1959374155914408E+00
Br   -8.6787161935931412E+00    2.8650540928075809E+00    1.1212006327971507E+01
Br   -1.1530339492496132E+01   -6.4539701917099963E+00   -6.9371091147534907E+00
Br    1.3031323907125683E+01    4.5743556309103513E-03    8.2561361933356405E+00
Br   -4.4614429152121930E+00   -8.5067231517023387E+00    5.1003763805645468E+00
Br    5.3135032925072423E+00   -3.4564001581169164E+00   -9.1163107342730729E+00
Br    7.4084249377203433E+00   -3.0123744201021592E+00   -1.2607431926888262E+01
Br    1.3903406493228104E+01   -5.7955351941784521E+00    7.9590866011411059E+00
Br    7.3629172259130318E+00   -9.8605392377108372E-02   -9.8010123468586574E+00
Br   -5.1625993786042201E+00   -1.1168045737516756E+01    1.2485815683967072E+01
Br   -1.5970548783136798E+00   -9.2246275699862483E+00    1.5970548039505690E+00
Br   -1.1276649254360900E+00   -5.9606939227781943E+00    3.3776844817737826E+00
Br    6.5729495953803720E+00   -8.1723426261151602E+00   -7.3412569452047576E+00
Br   -4.8977284407217221E+00   -1.0422130226680247E+01   -7.4223103873460126E+00
Br    8.4483604119496718E+00   -8.7879490882315547E+00   -1.0827756588048183E+01
Br    8.8085820703831388E+00   -5.4775114347054963E+00   -8.1245323262779614E+00
Br   -9.6216380176596417E-01   -1.0497026530110238E+01    1.0236585925889937E+01