 # Version information for this restart file 
 # current date 2021-06-17 12:45:37.804
 # current working dir /user/ub2042/exercises/2_fitting/MM_MD_workdir/md_settings.005
 # Program compiled at                              Thu Apr 22 21:44:59 EDT 2021
 # Program compiled on                cpn-k07-07-02.compute.cbls.ccr.buffalo.edu
 # Program compiled for                                                    local
 # Source code revision number                                       git:36754bb
 &GLOBAL
   PRINT_LEVEL  LOW
   PROJECT_NAME cp2k
   RUN_TYPE  MD
 &END GLOBAL
 &MOTION
   &MD
     ENSEMBLE  NVT
     STEPS  10000
     TIMESTEP     2.4999999999999996E+00
     STEP_START_VAL  4500
     TIME_START_VAL     1.1250000000000349E+04
     ECONS_START_VAL    -1.5890036444644286E+01
     TEMPERATURE     3.0000000000000000E+02
     &BAROSTAT
       PRESSURE     1.0100000000000000E+00
       TIMECON     9.9999999999999982E+03
     &END BAROSTAT
     &THERMOSTAT
       TYPE  CSVR
       &CSVR
         TIMECON     9.9999999999999982E+03
         &THERMOSTAT_ENERGY
              -1.2065990791537418E-01
         &END THERMOSTAT_ENERGY
         &RNG_INIT
Wiener process for Thermostat # 1        1 F T F   4.8942508383968170E-01        1922692901.0         751943800.0        1824698526.0         472050684.0        2743543379.0         537116521.0             12345.0             12345.0             12345.0             12345.0             12345.0             12345.0             12345.0             12345.0             12345.0             12345.0             12345.0             12345.0
         &END RNG_INIT
       &END CSVR
     &END THERMOSTAT
     &AVERAGES  T
       &RESTART_AVERAGES
         ITIMES_START  1
         AVECPU     1.7476335935760246E-02
         AVEHUGONIOT     0.0000000000000000E+00
         AVETEMP_BARO     0.0000000000000000E+00
         AVEPOT    -1.6345596375657127E+01
         AVEKIN     4.9965805889770532E-01
         AVETEMP     2.5346079939002715E+02
         AVEKIN_QM     0.0000000000000000E+00
         AVETEMP_QM     0.0000000000000000E+00
         AVEVOL     6.7483345830906788E+06
         AVECELL_A     1.8897261328855762E+02
         AVECELL_B     1.8897261328855762E+02
         AVECELL_C     1.8897261328855762E+02
         AVEALPHA     9.0000000000000000E+01
         AVEBETA     9.0000000000000000E+01
         AVEGAMMA     9.0000000000000000E+01
         AVE_ECONS    -4.3628457109471341E+00
         AVE_PRESS     0.0000000000000000E+00
         AVE_PXX     0.0000000000000000E+00
       &END RESTART_AVERAGES
     &END AVERAGES
     &PRINT
       &ENERGY  SILENT
         &EACH
           MD  10
         &END EACH
       &END ENERGY
     &END PRINT
   &END MD
   &PRINT
     &TRAJECTORY  SILENT
       &EACH
         MD  10
       &END EACH
     &END TRAJECTORY
     &CELL  SILENT
       &EACH
         MD  10
       &END EACH
     &END CELL
     &VELOCITIES  SILENT
       &EACH
         MD  10
       &END EACH
     &END VELOCITIES
     &FORCES  SILENT
       &EACH
         MD  10
       &END EACH
     &END FORCES
     &RESTART  SILENT
       &EACH
         MD  10
       &END EACH
     &END RESTART
   &END PRINT
 &END MOTION
 &FORCE_EVAL
   METHOD  FIST
   &MM
     &FORCEFIELD
       VDW_SCALE14     1.0000000000000000E+00
       EI_SCALE14     1.0000000000000000E+00
       SHIFT_CUTOFF  T
       DO_NONBONDED  T
       IGNORE_MISSING_CRITICAL_PARAMS  T
       &SPLINE
         R0_NB     2.5000000000000000E-01
       &END SPLINE
       &NONBONDED
         &LENNARD-JONES
           ATOMS Br Br
           EPSILON     1.2630795322675199E+02
           SIGMA     3.6900000000000004E+00
         &END LENNARD-JONES
         &LENNARD-JONES
           ATOMS Cs Pb
           EPSILON     8.6920055954630968E+01
           SIGMA     3.6699999999999999E+00
         &END LENNARD-JONES
         &LENNARD-JONES
           ATOMS Cs Cs
           EPSILON     2.2644852172126850E+01
           SIGMA     4.3300000000000001E+00
         &END LENNARD-JONES
         &LENNARD-JONES
           ATOMS Pb Pb
           EPSILON     3.3363415533600227E+02
           SIGMA     5.9000000000000004E+00
         &END LENNARD-JONES
         &LENNARD-JONES
           ATOMS Br Cs
           EPSILON     5.3481070753900497E+01
           SIGMA     3.6300000000000003E+00
         &END LENNARD-JONES
         &LENNARD-JONES
           ATOMS Br Pb
           EPSILON     2.0528187276773045E+02
           SIGMA     2.9800000000000000E+00
         &END LENNARD-JONES
       &END NONBONDED
       &CHARGE
         ATOM Cs
         CHARGE     4.4453099999999995E-01
       &END CHARGE
       &CHARGE
         ATOM Pb
         CHARGE     8.8906199999999991E-01
       &END CHARGE
       &CHARGE
         ATOM Br
         CHARGE    -4.4453099999999995E-01
       &END CHARGE
     &END FORCEFIELD
     &POISSON
       PERIODIC  XYZ
       &EWALD
         EWALD_TYPE  SPME
         GMAX  62 62 62
         O_SPLINE  4
       &END EWALD
     &END POISSON
     &PRINT
       &FF_INFO  LOW
         SPLINE_INFO  F
         SPLINE_DATA  F
       &END FF_INFO
     &END PRINT
   &END MM
   &SUBSYS
     &CELL
       A     1.0000000000000001E+02    0.0000000000000000E+00    0.0000000000000000E+00
       B     0.0000000000000000E+00    1.0000000000000001E+02    0.0000000000000000E+00
       C     0.0000000000000000E+00    0.0000000000000000E+00    1.0000000000000001E+02
       PERIODIC  XYZ
       MULTIPLE_UNIT_CELL  1 1 1
     &END CELL
     &COORD
Cs   -6.4469779087154688E-01   -1.4950252992262951E+00   -6.0296839594557934E+00
Cs   -1.8790748368176866E-01   -6.8439747317079025E+00   -5.1707367829755162E+00
Cs    4.9545405782112617E-01   -1.1832366816294744E+01   -4.6306415508318732E+00
Cs   -5.4640846984930826E+00   -6.8495371479173910E+00   -5.9557539326584150E+00
Br   -8.2029483140561048E+00   -1.2957839155844942E+01   -8.4187208086218899E+00
Br    1.1223221277098041E+01   -2.9632748609420387E+00   -9.6604162837917276E+00
Br   -3.7448082391764430E+00    2.2844033534720150E+00   -1.1552039502854424E+01
Cs   -1.3708396107630563E-01    5.1980369887888651E+00   -6.0510307222611104E+00
Cs   -4.3956070585472573E-01    1.4311478995767329E-01   -1.6944817392587017E-01
Cs    1.3416896955685673E+00   -5.0090967058366704E+00   -2.3059272883343201E-01
Br   -5.2348858703304986E+00   -2.8530084218577505E+00    3.5332853606749652E+00
Cs   -1.0654174522096261E+01   -5.4763991431758638E+00    1.1851049144985097E+01
Cs    1.2161573201617861E+01   -1.0462232244742726E+01   -2.9197137575277543E-01
Cs   -6.5452756096498250E+00    5.1069643279971233E+00   -6.1056169042996344E-01
Cs   -9.9738903473938856E-01    1.1173609215769407E+01   -5.6819736277015920E-01
Cs   -1.7935484682064934E-01    5.8983163634812499E+00    6.6130995562438832E-01
Cs    6.0367158565333101E-01    2.8548441564373678E-01    5.9565567794867258E+00
Cs    8.5406200673971411E-01   -5.3774034531869210E+00    6.3662313747282973E+00
Cs    2.7398349608623335E-01   -1.0969177277660132E+01    6.0937764246482402E+00
Cs   -7.3012382121194648E+00    6.4813244402726982E+00    1.1884726200735454E+01
Cs   -6.3662455490310990E+00   -1.4236604105546735E+00   -1.1524306009890145E+01
Cs   -5.3261790135898019E+00   -1.2130961328351622E+01   -4.7136952596075155E+00
Cs   -5.2664487040677042E+00   -3.9002115116699904E-01    5.7082443647927859E+00
Br   -2.5598505439359598E+00   -2.8791390885010100E+00    3.6163102030449451E-01
Cs   -7.7912609939831645E-01    6.1293482236631434E+00    5.9489739739958960E+00
Br    1.1939240680327275E+01   -8.5420766855299863E+00   -8.8952679955668508E+00
Cs    1.3701554666945059E+00   -5.2854173986639985E+00    1.1272805912957848E+01
Br   -2.4130606360755826E+00    2.1638401123845125E-01    2.7338019054025038E+00
Br   -8.0033955013245848E+00   -2.0792522323947487E+00    1.1774010491954471E+01
Cs    1.0302721420982953E+01    1.2118860916129400E+01   -6.4219344046343068E+00
Cs   -1.1165252275438474E+01   -5.8256658280128502E+00    6.8159715319312957E+00
Cs   -4.7524339939574398E+00   -5.4297738558802964E+00    6.2047025055964244E+00
Cs   -6.6923751056067511E+00    1.1013846699278208E+01   -5.8345689823533213E+00
Br   -1.0791716987439790E+01   -7.6117413585157516E+00    9.5418043269235024E+00
Br   -8.1790414653430208E+00   -9.2489950007700195E+00    6.7701450857386938E+00
Cs   -1.1816031100098183E+01   -7.8912918470198514E+00   -5.7197162916539623E+00
Cs   -6.4569413805027018E+00    5.2891372827815575E+00   -6.1523300395210168E+00
Br   -7.3374682607140507E+00   -5.7200674960485607E+00    9.7973546007245140E+00
Cs    1.1008193524938337E+01    7.5476489040273975E+00    1.0162207924230781E+01
Br   -1.2133126824275671E+01    8.8952286645567753E+00    8.0335087769545712E+00
Br   -5.9755643019076841E+00   -3.6004610978971114E+00   -3.3298114119513533E+00
Cs   -6.0102336289002145E-01    8.1678258264743653E-01    1.1443787707284640E+01
Cs    1.1416463062598504E+01    6.1971397866580995E+00   -4.9714660465541977E-01
Cs   -1.0972896949791982E+01   -7.5182098916204563E+00   -1.0824092895771333E+01
Cs    1.1477083626048682E+01    1.6981474504751397E+00    5.0734045355546167E+00
Cs   -1.1551916498255954E+01    1.0487404485175281E+01   -6.7414433907428775E+00
Cs    1.2811013003854667E+01   -9.4284829897962279E+00    7.2098405360181648E+00
Cs    6.2528787027999133E+00   -5.9669674363673986E+00   -1.1752205731677234E+01
Cs    7.1971920255415931E+00   -1.0799390188936856E+01    5.7627807164929692E+00
Cs   -4.6948135744952442E+00   -1.1577472644167250E+01    6.9265371992067215E-01
Cs    5.8005768886571438E+00   -1.1649281821699079E+01   -1.0332610367084365E+01
Cs    1.0766971105125100E+01    6.3090097610386398E+00   -6.9630647773562204E+00
Cs    1.0280484593971089E+01    1.2836480463466252E+01    4.6977123344423264E+00
Cs    1.1005429624583780E+01    5.6111585781669717E+00   -1.2472442686255205E+01
Cs    3.3183704352550664E-02   -5.8538502420012515E+00   -1.1121275602543394E+01
Cs   -1.1913803283174063E+01   -1.3106047295268453E+00   -5.7652086641259173E+00
Cs    6.6114992609498895E+00   -4.4633017058549456E+00    1.1586939847832396E+01
Cs    1.2487167091272244E+01   -4.4423740449088056E+00    6.4968726143499440E+00
Cs   -8.3964975314178414E+00   -1.1337162394845798E+01    1.3614334653308388E+01
Cs    8.0842822810984274E-02   -9.0903545451847889E-01   -1.0822996420992054E+01
Cs   -1.0618173389397039E+00    1.2337735262830989E+01    6.4438044994161254E+00
Cs   -2.6730163797836642E-01    3.7545021037978552E+00   -1.2191982601344900E+01
Cs    6.1793251868716537E+00    5.5048075265611583E-02   -5.9702016605347774E+00
Cs    6.2141846094686395E+00   -6.0104372993664708E+00   -5.9861339492694627E+00
Cs   -4.8086242906225003E+00   -1.0828537626692610E+01    6.6995916960781381E+00
Cs   -1.0865588402184192E+01   -1.4223271779272262E-01    5.2983568405141668E+00
Cs    5.4624892250258510E+00   -1.0227969419610590E+00   -1.1146448037964953E+01
Cs    5.7307697713526009E+00    1.0796694043106376E+01   -1.1994572350710010E+01
Cs    5.5599779291897866E-01    6.8308272770802700E+00    1.1215435294606751E+01
Cs   -6.9401129219103845E+00    1.1579128410851023E+01    4.9849652871780084E+00
Cs    4.6233648528910898E+00    1.0925950287307439E+01   -5.8496063042825304E+00
Cs    5.4175632028923273E+00    5.6210211342594336E+00   -6.9762501280536888E+00
Cs    6.3710571229979243E+00    6.2686991659795244E-01   -8.1761765870008196E-01
Cs    6.3205479017088173E+00   -5.7508641880360241E+00    1.0238599225667635E+00
Cs    7.0403144431138678E+00   -1.0809651192853849E+01    8.6825651199916964E-01
Cs    5.8109138170123931E+00    6.3667909146134507E+00   -1.3146453678925305E+01
Cs   -6.0242993774613245E+00    4.9987704277490712E+00    5.6270344424644732E+00
Cs   -5.6731814039567308E+00   -7.5240746039814006E+00   -1.0618660179739875E+01
Cs    5.5046789844639168E+00    6.2991133420657262E+00   -1.4696918586858182E-01
Cs    5.8217012325349931E+00    1.2189551028206698E+00    6.3057450404813293E+00
Cs    6.7386888354148473E+00   -4.9413498066337418E+00    6.2746760161150226E+00
Cs   -6.8575013819499366E+00    1.1540096214736144E+01    1.6543201738182578E-01
Cs    1.1723838547329303E+01    2.2647913880393994E-01   -9.6684104136539195E-01
Cs   -6.3462904060968537E+00   -1.0926407595900925E-01   -2.6202927006050741E-01
Cs   -1.1612819002986992E+01    5.3935430906589952E+00    6.1277310767027471E+00
Cs   -5.8810418059612921E+00    5.3031826132156701E-01    1.1176675542393175E+01
Cs    4.2175873817591505E+00    1.2347904908655574E+01    4.4958658587550078E+00
Cs    4.9601078787151911E+00    6.6751171454740517E+00    6.1055621808456628E+00
Cs    7.1788049676251324E+00    1.2773593039077429E+00    1.1397475073621424E+01
Cs    5.4371884192893578E+00    1.1291128657041018E+01   -7.8879915005548062E-01
Cs    1.0853408173795703E+01    4.2559854612902021E-01   -6.8173260593495995E+00
Cs    1.1343941314652355E+01   -4.7082967792452246E+00   -6.5303942115392211E+00
Cs    7.1702506015323202E+00   -1.0407839545456762E+01    1.1103977208911184E+01
Cs    1.1521930787539409E+01    1.1412585734151310E+01   -9.7000793133486718E-01
Cs   -1.0603661864134983E+01    2.3965748556808486E-01    1.0875247083222805E+01
Cs   -6.2776497035318570E+00    4.7475618454837267E+00   -1.1550521941171155E+01
Cs   -1.2820131467782716E+01    9.8815772544714324E+00   -1.0948034144637409E+00
Cs   -4.9619119656564017E+00   -4.6605560224249194E+00    1.2242058901178142E+01
Cs    1.7981921201508715E+00   -9.3594313950597723E+00    1.3043994824742905E+01
Cs    5.9112612321174840E+00    6.6932273194186473E+00    1.0908172237430861E+01
Cs    1.2301810569580191E+01   -4.5339603930984937E+00   -9.0445632872688242E-01
Cs   -1.1575873970566555E+01   -6.1936522910690228E-01   -1.2742252819670877E-01
Cs   -6.0284286589669627E+00    9.3760550996286973E+00   -1.1596477909571615E+01
Cs   -1.2044888788128111E+01    4.7278716442286761E+00    7.2774154387860490E-01
Cs   -1.0607372089156323E+01   -1.2864056894917484E+01   -4.9514453191036001E+00
Cs   -1.1573967915847229E+01   -5.9029926112917463E+00    1.0225512593294095E+00
Cs   -5.0489011223519062E+00   -5.6189771980360810E+00    1.1138775085929253E+00
Cs   -9.7711443989857134E+00   -1.1960817766996980E+01    6.8309241960925489E+00
Cs    1.1549773340595097E+01   -3.9110726365184276E+00    1.2203195287648779E+01
Cs    1.0444386767171681E+01    6.5436254111565724E+00    4.7681975123502882E+00
Cs   -1.2501310398926613E+01    4.2438822254295188E+00   -7.0466011947146567E+00
Cs   -6.3516956754170968E+00   -8.1554135062144872E-01   -5.7263216035043429E+00
Cs   -1.1415647767866067E+01   -1.1156036983154520E+01    1.2144136100039866E+00
Cs    1.1994783358922897E+01   -9.8288350384793226E+00   -5.7445300994618416E+00
Cs   -4.8909975525787379E+00   -1.1992376924007010E+01   -1.0768567325038052E+01
Cs   -3.6452534929165809E-01    1.1093341358833861E+01   -1.1726402472297083E+01
Cs    2.5899988045781513E-01   -1.1247905606031656E+01   -1.1348718210773916E+01
Cs   -7.5320679701417792E-01    1.1306945446616297E+01   -6.4690123094026113E+00
Cs   -6.6334472845717629E+00    1.1241901220177402E+01    1.0557886272273178E+01
Cs    4.8041499827370349E-01   -1.1197138774804968E+01    1.0583596036213698E+00
Cs   -1.1882803428234157E+01   -1.2544880762291692E+00   -1.1349172684878685E+01
Cs   -1.2344467247171142E+01    1.0187573921789214E+01    5.2107671344930724E+00
Cs    6.5349445897865088E+00   -1.0594766824677132E+01   -5.3621486991153278E+00
Cs    1.0246650880507129E+01   -7.1081753957913385E-01   -1.2513139909569780E+01
Cs    5.8096902075818093E+00    1.2789203552761306E+01    9.9941390305347984E+00
Pb    3.1890909536574035E+00   -2.8310388313513584E+00   -2.8903373201268829E+00
Pb    3.3541550457060847E+00   -8.5835534470269454E+00   -2.6425094443338422E+00
Pb   -8.5534838474462092E+00   -3.2076730713122297E+00    3.2743393851646894E+00
Pb   -2.5185053379064057E+00   -9.1750219347080293E+00   -2.1394866599909297E+00
Pb    1.8956558258988978E+00    8.5245148291893660E+00   -3.6006384981274868E+00
Pb    2.8061844361964159E+00    2.9858068731603455E+00   -3.0675304846099687E+00
Pb    3.6894474377980528E+00   -2.4506522931318462E+00    3.2461565429675798E+00
Pb    3.7475747014469074E+00   -8.1752453933985052E+00    3.2495232088495629E+00
Pb   -3.6517245707105759E+00    9.0803119509864203E+00    2.8746426742421463E+00
Pb    2.2277153553772142E+00    9.1729249469202596E+00    2.2926997884624551E+00
Pb    2.8775278237778248E+00    3.2960656971517972E+00    2.6738902335881174E+00
Pb    3.6894106897844425E+00   -2.1504492360328817E+00    9.1044177273240710E+00
Pb    3.7456325633467906E+00   -8.2139248213198695E+00    9.0720422930539435E+00
Pb   -2.9414231124934389E+00    3.2283429043541361E+00    2.7969355195381671E+00
Pb    2.5500755484282727E+00    9.6606281594307859E+00    8.4235937402730183E+00
Pb    2.9525034943512822E+00    3.3494788353354390E+00    8.7471526591551747E+00
Pb   -2.0546676763492924E+00   -2.6801077155237434E+00    9.3274248539009204E+00
Pb   -8.1496015554016932E+00   -8.9700155798411867E+00    3.8399671795527848E+00
Pb   -9.3590468274265266E+00    2.1394437433438807E+00   -3.0358479875648521E+00
Pb   -3.0574805660502156E+00   -3.8691247469895442E+00   -8.6042609565400525E+00
Pb   -2.2218556345403440E+00   -8.5058546368322911E+00    3.7730252190395812E+00
Pb   -3.8712351727688024E+00    8.5308324387262608E+00   -3.0155430959858505E+00
Pb   -2.0408301242473308E+00   -8.7434583744070373E+00    9.5666650617038478E+00
Pb   -8.8136752368775646E+00   -3.9930618740571568E+00   -2.6926030648705073E+00
Pb   -8.2249968354948848E+00   -1.0004524080526807E+01   -2.4066443376067559E+00
Pb   -2.9310292907646969E+00    2.7650956416898271E+00   -3.0607614677741921E+00
Pb   -8.0386657279789198E+00   -8.9054085675950070E+00    1.0159060277570395E+01
Pb   -9.3378647379348934E+00   -4.4998916025120028E+00   -8.4921209194473661E+00
Pb    8.1820375666031016E+00   -3.1628925866856088E+00   -9.4704288270537358E+00
Pb    9.2782822337883122E+00   -8.9146019762133353E+00   -9.6395379127696614E+00
Pb   -2.8536519998494208E+00   -9.7773379493287855E+00   -8.2367112682952186E+00
Pb   -9.0656577034118229E+00    7.4700682172230790E+00   -9.2721049062165299E+00
Pb    2.7179069295186187E+00   -3.6527015631992743E+00   -8.4919669701674163E+00
Pb    3.0568459334901181E+00   -9.3438903175091266E+00   -8.7616037891564336E+00
Pb   -3.6265947506815772E+00    1.7225313440846803E+00   -8.7694669983421587E+00
Pb    2.5658095843528224E+00    8.2920046446053153E+00   -9.3467211108987307E+00
Pb    2.3459694507619804E+00    2.2359794407960880E+00   -8.6211283079621168E+00
Pb    8.8836605637755941E+00   -2.5994774118677650E+00   -3.2267078196447634E+00
Pb    9.0379579355615718E+00   -8.1380393655621628E+00   -2.3612640355719994E+00
Pb   -8.2972581405101113E+00   -3.1056143940745762E+00    8.9716331941630028E+00
Pb    8.3685669230068207E+00    8.6625606133139872E+00   -9.8247210743635591E+00
Pb   -9.4631730916405683E+00    1.5100057499496105E+00   -8.8693049064561222E+00
Pb   -3.3250672547082178E+00    9.0502954022296720E+00    8.6192178699077697E+00
Pb    8.2560914714137503E+00    9.2375321511983373E+00   -3.7622042270818623E+00
Pb    8.9175470432127142E+00    3.3911688966434679E+00   -3.5624310857352106E+00
Pb    9.5048386979304471E+00   -2.5027518421953605E+00    2.6434518822748356E+00
Pb    9.9197532727335265E+00   -8.2650322757482737E+00    3.4530030004210110E+00
Pb    8.2235840739959229E+00    3.1245504950821874E+00   -1.0066112485271761E+01
Pb   -3.1874065970031973E+00    3.0648315376098920E+00    8.8275253837872469E+00
Pb    8.3773261460568484E+00    9.6455169712656375E+00    2.1648035165331976E+00
Pb    8.5580218938483537E+00    3.4346787240036720E+00    2.1669472157832779E+00
Pb    9.6030656231166311E+00   -1.4403151395785441E+00    8.8260616200677369E+00
Pb    9.5697618786801861E+00   -7.2455663389519671E+00    9.1108560425850253E+00
Pb    8.3557945433929177E+00    9.6991419089532762E+00    7.9856808403039370E+00
Pb    8.7484843791746592E+00    4.1166987058300286E+00    8.2213647681923092E+00
Pb   -8.7515847969560312E+00    2.9565559961108923E+00    8.6276839024033780E+00
Pb   -2.2887248694608022E+00   -2.6077681933965531E+00    3.1661274213180621E+00
Pb   -9.4096211584695020E+00    8.3813508830728942E+00    2.4151727254066877E+00
Pb   -9.6000707674658496E+00    8.2769488522377195E+00   -3.4011421340259389E+00
Pb   -8.8110617701945895E+00   -1.0214287608121568E+01   -8.2623033513639310E+00
Pb   -3.2237945783070261E+00    7.8157373485531672E+00   -8.8829957741295296E+00
Pb   -9.1147465613738383E+00    2.5382068103045574E+00    3.0794797509482663E+00
Pb   -9.1657180460187746E+00    8.9915140049657616E+00    8.1637046902237067E+00
Pb   -2.9803557811621308E+00   -3.3098752411739518E+00   -2.6208343538846419E+00
Br    2.0164177922045562E-01   -3.3159439015261531E+00   -2.6449117919250607E+00
Br    2.4422749441816398E+00   -3.6439549069923736E+00   -5.6188225058533208E+00
Br    3.1138347925657666E+00    4.4619602197701384E-02   -2.9707010954723367E+00
Br    2.0075606596840925E-01   -8.4634933896311058E+00   -2.4469761748205099E+00
Br    2.4693209735965302E+00   -9.4646303926538060E+00   -5.6705345654727823E+00
Br    3.4673172669905843E+00   -5.8144226685676674E+00   -2.8658207875950623E+00
Br   -2.7996782005941236E+00   -4.0332111844706713E+00   -5.6968818493835593E+00
Br   -8.6130344387677482E+00   -3.2835963936189159E+00    6.1810088541069890E+00
Br   -3.0515414493779707E+00   -3.0906128088049795E-01   -2.4139505272736694E+00
Br    3.2010136420264765E+00   -1.1277917116391114E+01   -2.1955631472545480E+00
Br    1.2354326760851823E+01   -2.2168128362286708E+00    1.8647141339164077E+00
Br   -5.2676079832464833E+00   -9.6950566396167019E+00   -2.3479401890281206E+00
Br   -1.1296015052308709E+01   -2.9491534324413879E+00    2.7602142315671934E+00
Br   -8.0952986180690960E+00   -3.3573370784074892E+00    3.6045135921483262E-01
Br    1.2658228343963318E+01   -8.7284509303612285E+00    3.6335872441807773E+00
Br   -9.0407315936118771E-01    8.8377130151298111E+00   -3.0417676627462433E+00
Br    2.0369753662198482E+00    7.9992452244684138E+00   -6.3266344938698023E+00
Br    2.2374548792570979E+00    1.1449054228906983E+01   -3.4785277327494271E+00
Br   -2.9579874485984520E-01    2.6301988002628245E+00   -3.9783172937110551E+00
Br    3.1478101421034590E+00    2.5231215136009362E+00   -5.8548861359018174E+00
Br    2.0520955717350278E+00    5.7349738604436320E+00   -3.3198865675096760E+00
Br    7.6052539515170614E-01   -2.3819613027019679E+00    2.4844568513574830E+00
Br    3.8785326303070020E+00   -2.6168190144091477E+00    2.2203418702699043E-01
Br    3.8442501980131674E+00    6.3002763838141929E-01    3.4884555053073352E+00
Br    7.5331721990360012E-01   -8.7258811663841414E+00    3.2779937074568291E+00
Br    2.4254144394884825E+00   -7.9983071598240834E+00    3.0897264974935723E-01
Br    3.8306831038807805E+00   -5.4362357618614521E+00    3.0738892526792090E+00
Br   -6.0753968116868426E+00    7.2328495280342588E+00   -8.7257596088018161E+00
Br   -3.3579892411556767E+00    6.3032045751354557E+00   -1.1357793219344487E+01
Br    3.6401784208332373E+00   -1.1036127003435155E+01    3.1806301828964814E+00
Br   -3.5055242643073274E+00    1.0659909047282650E+01   -9.8515267050697393E+00
Br   -3.3081815064297500E+00    4.7074889608597283E+00   -8.2358312842307235E+00
Br   -8.5607924393418084E+00   -2.7243727554822805E-01    2.8863688923568716E+00
Br   -2.5372755755293817E+00   -9.6845134857593393E+00   -4.8981208281015451E+00
Br   -6.4614546167001601E+00    8.7877016180381418E+00    2.5717108671050415E+00
Br   -3.5997164431124098E+00    8.2478818171052541E+00   -6.5940319898144797E-03
Br   -3.9001125163302501E+00    1.1855437825644367E+01    1.9256229589386820E+00
Br   -3.7585520376875925E-01    8.7355767591994535E+00    2.5317589137774825E+00
Br    2.6378180160888172E+00    8.4138944517546985E+00   -6.0815348045990902E-01
Br    1.7436938404790063E+00    1.2169162447360794E+01    2.0993877838934862E+00
Br    1.3092990634461599E-01    3.5910563948089065E+00    3.1700657474608258E+00
Br    2.3492466422438256E+00    3.2954845619487458E+00   -2.7474553191764023E-01
Br    2.7753210398439752E+00    6.0086788205213306E+00    2.5426307391547849E+00
Br    9.7403081595996210E-01   -2.6870766988616359E+00    9.5327718486870090E+00
Br    3.1843793939091660E+00   -2.7598563637490745E+00    6.0761984985241995E+00
Br    2.7965798782021523E+00    5.2142410426816554E-01    8.5450221945935976E+00
Br    1.0261092484236418E+00   -8.0069771305197097E+00    8.9768083933880014E+00
Br    3.6147869896018703E+00   -8.2310704672261412E+00    6.1403282918016533E+00
Br    3.8284000192338934E+00   -5.0997332089059917E+00    8.8247419854863480E+00
Br   -1.1774637845405582E+01    3.0236670410130593E+00    3.5662675893903986E+00
Br   -9.5435033746600784E+00    2.1344088561921519E+00   -1.1280041532321053E-02
Br    4.3039919065285099E+00   -1.0935040052023414E+01    9.3902722996769299E+00
Br   -8.8566928093985506E+00    5.5102522224621495E+00    2.5402400785778472E+00
Br   -8.0910596935589254E+00   -3.4824899072560600E-01    8.0969568260401648E+00
Br   -2.7842179422729396E+00   -6.3782550019476618E+00   -2.6933097604601137E+00
Br   -6.0774412214995861E+00    2.6697189650365867E+00    2.4048281970970478E+00
Br   -2.3885380854998446E+00    3.2801557155390451E+00    5.4010390407544580E-02
Br   -3.0511251097436105E+00    6.1038205603257936E+00    3.1733752061273783E+00
Br   -2.8447653672756357E-01    9.2319836573999652E+00    8.5885587972525261E+00
Br    2.7609821399995194E+00    9.3081326185178117E+00    5.1483560676006777E+00
Br    2.6764762420440964E+00    1.2519707561133334E+01    8.8775486547390265E+00
Br   -1.4236601701167884E-01    3.0085744939535433E+00    9.0118132754793319E+00
Br    3.1778884376051288E+00    3.6231824710787914E+00    5.7729850659907020E+00
Br    2.2272633041380905E+00    6.4290865628634535E+00    8.2602759387795146E+00
Br   -5.1179862534874694E+00   -3.0851469560927534E+00    8.5661570944766119E+00
Br    4.3744239585929288E+00   -8.6148264260189167E-01    1.1520457633150297E+01
Br   -2.2732686645030382E+00   -2.4451812020690116E+00    5.9697564031804058E+00
Br   -2.6800949717378759E+00    1.7164995361078411E-01    9.2812636000647206E+00
Br   -1.4611367267954463E+00   -1.1975991053486450E+01   -1.5090840371577865E+00
Br    4.1429245317691255E+00   -7.6167524716921875E+00    1.2362882962607202E+01
Br   -1.2107374541863134E+01    9.7758628772066236E-01   -2.6626974870800169E+00
Br   -2.8873551778218602E+00   -1.1325307702024395E+01    3.9449708906914500E+00
Br   -1.1787983308272304E+01   -3.8767466639718569E+00   -1.9238953973856283E+00
Br    2.9548920311880043E+00    9.1198637273705092E+00    1.1065151670244459E+01
Br   -9.2770606278934444E+00   -4.2146961475683735E+00   -5.6791111737577342E+00
Br   -8.8403235896032495E+00   -6.1647253687978942E-01   -2.5788627876122683E+00
Br    3.2591272590572409E+00    4.5461561694518702E+00    1.1383134711420606E+01
Br   -6.5739272041454049E+00    8.2993393510971902E+00   -3.0961478171664325E+00
Br   -3.2563079783416904E+00    8.6487015857265011E+00   -5.8340579118605218E+00
Br   -3.9154033333219096E+00    1.1668708837141020E+01   -3.0510017559778735E+00
Br   -6.4773678503223886E+00    2.4432622352511117E+00   -2.5683201286722834E+00
Br   -1.0995983864532366E+01   -8.7844339572786367E+00    3.7859004064578308E+00
Br   -4.3661778814002643E+00    2.4179016519295038E+00   -5.8464229554504685E+00
Br   -6.1468194597514056E+00   -4.2088543076746010E+00   -8.8771667530513980E+00
Br   -3.0037756261347539E+00   -3.2055671842356617E+00   -1.1406218608209940E+01
Br   -3.3001021414494125E+00   -9.9600832632722502E-01   -8.1387550424084871E+00
Br   -3.2690586262070100E+00    3.0655957696537279E+00    1.1665979914517584E+01
Br   -5.1536031643873068E+00   -8.9840044136024719E+00    1.0426683307932132E+01
Br   -2.2816799733998110E+00   -8.4533504323452409E+00    6.6853898326768952E+00
Br   -1.7598036034990219E+00   -5.5165404321652671E+00    8.7460839219996362E+00
Br   -8.1609884549340901E+00   -9.6684266911351209E+00    9.9677370052397063E-01
Br   -8.2102610187485876E+00   -6.0148499982245758E+00    3.5196562037729748E+00
Br   -9.0112656489348115E+00    9.1490219408038520E+00    1.1122790763232540E+01
Br    1.1179011858815466E+01    1.0234623598606696E+01    2.5146352669485696E+00
Br   -8.7215055896690821E+00   -7.9762862733368829E+00    1.2859495729333501E+01
Br    1.0945589475669422E+01    1.0030653228923734E+01   -3.8723638285953434E+00
Br    1.1599571446671632E+01    4.1137520782090764E+00    2.6598151472423646E+00
Br   -8.4219270978214738E+00    2.7370918407848897E+00    1.1248703132713885E+01
Br   -1.2325779392224399E+01   -5.0643851707070411E+00   -8.1328709744734571E+00
Br    1.2332943739610686E+01   -1.9365366299385998E+00    8.8795753989179200E+00
Br   -5.0901768800425478E+00   -8.3011763580042732E+00    3.7463780908511053E+00
Br    5.6302962369232779E+00   -3.4168702942102147E+00   -8.7485397417503066E+00
Br    8.1228211689250589E+00   -3.4956190481697065E+00   -1.2364781334483631E+01
Br    1.2544854873274126E+01   -6.6855670823774407E+00    8.8890801731759694E+00
Br    8.5497222905057466E+00   -6.4062533516870829E-02   -9.8718699640834071E+00
Br   -9.2614003100728510E+00   -1.1482746832908624E+01    1.0128041354581894E+01
Br   -2.9526808537158149E+00   -8.8239589189829726E+00    5.7233295324118005E-01
Br   -1.9558797852021765E+00   -5.4356883970117469E+00    3.6471628420823681E+00
Br    5.8527049653874954E+00   -8.8059867413870041E+00   -8.7730718299691439E+00
Br   -5.8309960399422183E+00   -9.7504395043545387E+00   -8.1925133064333711E+00
Br    7.8870078820134539E+00   -9.1592312998843823E+00   -1.1802005496256117E+01
Br    8.5013084756344153E+00   -5.9390042014552593E+00   -9.0746474176569727E+00
Br   -2.5446018284571905E+00   -1.1474295467784779E+01    9.0469373437750438E+00