 # Version information for this restart file 
 # current date 2021-06-17 12:44:27.960
 # current working dir /user/ub2042/exercises/2_fitting/MM_MD_workdir/md_settings.005
 # Program compiled at                              Thu Apr 22 21:44:59 EDT 2021
 # Program compiled on                cpn-k07-07-02.compute.cbls.ccr.buffalo.edu
 # Program compiled for                                                    local
 # Source code revision number                                       git:36754bb
 &GLOBAL
   PRINT_LEVEL  LOW
   PROJECT_NAME cp2k
   RUN_TYPE  MD
 &END GLOBAL
 &MOTION
   &MD
     ENSEMBLE  NVT
     STEPS  10000
     TIMESTEP     2.4999999999999996E+00
     STEP_START_VAL  500
     TIME_START_VAL     1.2500000000000068E+03
     ECONS_START_VAL    -1.5890036444644286E+01
     TEMPERATURE     3.0000000000000000E+02
     &BAROSTAT
       PRESSURE     1.0100000000000000E+00
       TIMECON     9.9999999999999982E+03
     &END BAROSTAT
     &THERMOSTAT
       TYPE  CSVR
       &CSVR
         TIMECON     9.9999999999999982E+03
         &THERMOSTAT_ENERGY
              -7.2325589469078855E-03
         &END THERMOSTAT_ENERGY
         &RNG_INIT
Wiener process for Thermostat # 1        1 F T F  -1.6641838422452651E-01        2082254386.0        4002166886.0         820843889.0        3085297725.0        3956791434.0        2489169757.0             12345.0             12345.0             12345.0             12345.0             12345.0             12345.0             12345.0             12345.0             12345.0             12345.0             12345.0             12345.0
         &END RNG_INIT
       &END CSVR
     &END THERMOSTAT
     &AVERAGES  T
       &RESTART_AVERAGES
         ITIMES_START  1
         AVECPU     1.7689539802260675E-02
         AVEHUGONIOT     0.0000000000000000E+00
         AVETEMP_BARO     0.0000000000000000E+00
         AVEPOT    -1.6367044942384027E+01
         AVEKIN     4.7987167258299263E-01
         AVETEMP     2.4342378867227515E+02
         AVEKIN_QM     0.0000000000000000E+00
         AVETEMP_QM     0.0000000000000000E+00
         AVEVOL     6.7483345830899505E+06
         AVECELL_A     1.8897261328856513E+02
         AVECELL_B     1.8897261328856513E+02
         AVECELL_C     1.8897261328856513E+02
         AVEALPHA     9.0000000000000000E+01
         AVEBETA     9.0000000000000000E+01
         AVEGAMMA     9.0000000000000000E+01
         AVE_ECONS    -3.7690012085504585E+00
         AVE_PRESS     0.0000000000000000E+00
         AVE_PXX     0.0000000000000000E+00
       &END RESTART_AVERAGES
     &END AVERAGES
     &PRINT
       &ENERGY  SILENT
         &EACH
           MD  10
         &END EACH
       &END ENERGY
     &END PRINT
   &END MD
   &PRINT
     &TRAJECTORY  SILENT
       &EACH
         MD  10
       &END EACH
     &END TRAJECTORY
     &CELL  SILENT
       &EACH
         MD  10
       &END EACH
     &END CELL
     &VELOCITIES  SILENT
       &EACH
         MD  10
       &END EACH
     &END VELOCITIES
     &FORCES  SILENT
       &EACH
         MD  10
       &END EACH
     &END FORCES
     &RESTART  SILENT
       &EACH
         MD  10
       &END EACH
     &END RESTART
   &END PRINT
 &END MOTION
 &FORCE_EVAL
   METHOD  FIST
   &MM
     &FORCEFIELD
       VDW_SCALE14     1.0000000000000000E+00
       EI_SCALE14     1.0000000000000000E+00
       SHIFT_CUTOFF  T
       DO_NONBONDED  T
       IGNORE_MISSING_CRITICAL_PARAMS  T
       &SPLINE
         R0_NB     2.5000000000000000E-01
       &END SPLINE
       &NONBONDED
         &LENNARD-JONES
           ATOMS Br Br
           EPSILON     1.2630795322675199E+02
           SIGMA     3.6900000000000004E+00
         &END LENNARD-JONES
         &LENNARD-JONES
           ATOMS Cs Pb
           EPSILON     8.6920055954630968E+01
           SIGMA     3.6699999999999999E+00
         &END LENNARD-JONES
         &LENNARD-JONES
           ATOMS Cs Cs
           EPSILON     2.2644852172126850E+01
           SIGMA     4.3300000000000001E+00
         &END LENNARD-JONES
         &LENNARD-JONES
           ATOMS Pb Pb
           EPSILON     3.3363415533600227E+02
           SIGMA     5.9000000000000004E+00
         &END LENNARD-JONES
         &LENNARD-JONES
           ATOMS Br Cs
           EPSILON     5.3481070753900497E+01
           SIGMA     3.6300000000000003E+00
         &END LENNARD-JONES
         &LENNARD-JONES
           ATOMS Br Pb
           EPSILON     2.0528187276773045E+02
           SIGMA     2.9800000000000000E+00
         &END LENNARD-JONES
       &END NONBONDED
       &CHARGE
         ATOM Cs
         CHARGE     4.4453099999999995E-01
       &END CHARGE
       &CHARGE
         ATOM Pb
         CHARGE     8.8906199999999991E-01
       &END CHARGE
       &CHARGE
         ATOM Br
         CHARGE    -4.4453099999999995E-01
       &END CHARGE
     &END FORCEFIELD
     &POISSON
       PERIODIC  XYZ
       &EWALD
         EWALD_TYPE  SPME
         GMAX  62 62 62
         O_SPLINE  4
       &END EWALD
     &END POISSON
     &PRINT
       &FF_INFO  LOW
         SPLINE_INFO  F
         SPLINE_DATA  F
       &END FF_INFO
     &END PRINT
   &END MM
   &SUBSYS
     &CELL
       A     1.0000000000000001E+02    0.0000000000000000E+00    0.0000000000000000E+00
       B     0.0000000000000000E+00    1.0000000000000001E+02    0.0000000000000000E+00
       C     0.0000000000000000E+00    0.0000000000000000E+00    1.0000000000000001E+02
       PERIODIC  XYZ
       MULTIPLE_UNIT_CELL  1 1 1
     &END CELL
     &COORD
Cs   -1.9486007020235488E-01   -9.4454524461353190E-02   -5.6702737326486856E+00
Cs   -2.4724220358756230E-01   -6.1926727656844269E+00   -5.8751783598286194E+00
Cs   -6.2874542992658033E-01   -1.1884458159979303E+01   -5.2607505948100037E+00
Cs   -5.6795774691835144E+00   -6.4449160497270661E+00   -5.6224784015394249E+00
Br   -9.0383858113864939E+00   -1.2171203998536631E+01   -8.5240435271694821E+00
Br    1.1431267361055813E+01   -2.8897670858504290E+00   -7.9546613185864903E+00
Br   -2.3684073003518127E+00    2.8346132624454521E+00   -1.1272929303985199E+01
Cs    3.9774627268394319E-01    5.5549645521113149E+00   -5.4713196909632504E+00
Cs    1.5687334249544432E-01   -5.6903326719817049E-01    8.4990893670015694E-02
Cs    3.4060663364936611E-01   -6.3014913975144990E+00   -2.9480791781417370E-01
Br   -5.7325817295709394E+00   -2.9270626764773251E+00    3.1805630041518786E+00
Cs   -1.0117832898674008E+01   -6.1132222711236617E+00    1.1977242632519511E+01
Cs    1.0999661475179932E+01   -1.1167568685699679E+01   -2.3193162492479316E-01
Cs   -5.6360008339525285E+00    5.5349558469514912E+00    2.6222362057534815E-01
Cs   -1.6234289503342827E-01    1.1085379965073988E+01    5.4851484446695642E-01
Cs   -1.0085872265523427E-02    5.8993127109111061E+00   -1.1235092500218356E-01
Cs    2.8660923492174945E-01    7.3216666413766984E-01    5.7779736907812014E+00
Cs    3.6424366049240375E-01   -5.1626383084069154E+00    6.2981491415705788E+00
Cs    6.0679147882873385E-01   -1.0405988229010024E+01    5.5762416029649300E+00
Cs   -7.8010334026642036E+00    6.0170151985072966E+00    1.2147842891805011E+01
Cs   -5.7449916519319721E+00   -1.7522592624131333E-02   -1.1673246624249090E+01
Cs   -5.3996330694312977E+00   -1.1353706098463949E+01   -6.3710507725448879E+00
Cs   -6.3526862212394972E+00    9.3527813710119256E-02    5.4276312207450133E+00
Br   -3.2036051948643203E+00   -2.6709217965730652E+00    2.0500019883857492E-03
Cs    5.6199170142817256E-01    5.3212726969114676E+00    6.2183570456015067E+00
Br    1.2039035463346718E+01   -8.4464167779439521E+00   -8.6550491356633934E+00
Cs    8.4573627139837115E-01   -5.5628932313567070E+00    1.1223781185721302E+01
Br   -2.8620181544331071E+00    2.3733402897552999E-01    2.6727201029914314E+00
Br   -8.4320733420188088E+00   -2.9584510635210419E+00    1.1855637155879370E+01
Cs    1.0937573949891645E+01    1.0911803069506602E+01   -5.7727679984517861E+00
Cs   -1.1205126435606603E+01   -5.5507566316245436E+00    5.7167289889501740E+00
Cs   -5.0971890582091124E+00   -5.4035995140082225E+00    5.4267075122593464E+00
Cs   -6.5753111439648864E+00    1.0819738312174048E+01   -5.9197222757962900E+00
Br   -1.1482232426988636E+01   -8.0708313284424094E+00    8.6569536881129530E+00
Br   -8.9571706535305147E+00   -8.8317245216015028E+00    5.6299638500994424E+00
Cs   -1.0987917550026244E+01   -6.2891206964733897E+00   -5.8611733902807499E+00
Cs   -5.2456851773333373E+00    5.8209219709915274E+00   -5.2592219574816141E+00
Br   -8.5691114985192893E+00   -5.8685321866686531E+00    8.8825838603477028E+00
Cs    1.1818549263104394E+01    6.0594976555424154E+00    1.0139177773880723E+01
Br   -1.1764849627112108E+01    8.3654169046628954E+00    8.2768106991845425E+00
Br   -5.9541878780134567E+00   -2.9050144041796861E+00   -2.7712365536365065E+00
Cs   -1.0124874143580920E-01    5.8491172178507667E-01    1.1414673354524089E+01
Cs    1.1283438282058244E+01    5.3003190407869178E+00   -3.1845998135291759E-01
Cs   -1.0733245141521087E+01   -5.4401636739534451E+00   -1.0985188096845446E+01
Cs    1.1580198651373417E+01    1.6764814269131464E-01    5.7912245037452266E+00
Cs   -1.1489383670503045E+01    1.0528073422883374E+01   -6.1794681145216526E+00
Cs    1.1280808503890000E+01   -1.1714352771168315E+01    5.3134945771271562E+00
Cs    5.9648812074654716E+00   -5.7511617536500159E+00   -1.1050869328599283E+01
Cs    5.3772818820646293E+00   -1.1124793499608909E+01    5.8660348485143672E+00
Cs   -5.6039141195436057E+00   -1.1600920653637484E+01    6.8978723387433816E-01
Cs    6.4339096709625094E+00   -1.2080930225898634E+01   -1.0990481156306867E+01
Cs    1.1634628887567967E+01    5.8313388895538045E+00   -5.9226039732493057E+00
Cs    1.1243234032285477E+01    1.1592836530809096E+01    5.7917644847921643E+00
Cs    9.7781621340149893E+00    5.8890677934126279E+00   -1.2232679523788029E+01
Cs    7.9198801079321546E-01   -6.0227401806122778E+00   -1.1678687098059660E+01
Cs   -1.0870233200036276E+01   -1.5016372514023399E-01   -5.2628734700873467E+00
Cs    6.0366476379214262E+00   -4.9218114504820392E+00    1.1897076168206375E+01
Cs    1.2185920366975909E+01   -5.3441007801933775E+00    6.4857834372331586E+00
Cs   -1.0903768656103088E+01   -1.1600693682914995E+01    1.1483969094578340E+01
Cs    1.1860911003015104E-02   -3.2136744506236814E-01   -1.1115113051269986E+01
Cs    4.2071456902078995E-02    1.0994675026893614E+01    6.0971435688075308E+00
Cs   -4.0879964303319871E-01    5.6236500083208600E+00   -1.0728184086043717E+01
Cs    5.2204747923236452E+00    8.8542739531705314E-03   -5.2321773209127294E+00
Cs    5.6549653876669206E+00   -5.3314861163936884E+00   -5.3962071974813499E+00
Cs   -5.0570188530462037E+00   -1.1348769163495882E+01    5.5605776983551056E+00
Cs   -1.1740151920278194E+01    7.8370596726960762E-01    5.6769970738836575E+00
Cs    5.2296782425543524E+00   -6.4620958942317774E-01   -1.1834318487101188E+01
Cs    7.0258303825766051E+00    1.2007923809026011E+01   -1.1615720844226512E+01
Cs    2.5303439840515873E-01    5.5451798287099319E+00    1.1650433370647958E+01
Cs   -5.3464088470796360E+00    1.1880025784517423E+01    6.2637663934427019E+00
Cs    4.7586786638036376E+00    1.0986572856726523E+01   -6.3230587167398919E+00
Cs    5.5234787416713669E+00    5.8615724351006504E+00   -5.1577118104196691E+00
Cs    5.3696790240830978E+00    2.4539667497039833E-01    5.8542538426098101E-01
Cs    5.8360013652783413E+00   -6.5082289997781801E+00   -4.9232309523950524E-01
Cs    5.3462623186859055E+00   -1.1270900046323858E+01    3.4217703698152541E-01
Cs    5.2231593539386392E+00    5.9897590160033003E+00   -1.0957715238084054E+01
Cs   -5.9775322149408305E+00    6.0980599162967968E+00    5.5291294611957342E+00
Cs   -6.1729270940669227E+00   -6.1479889198483280E+00   -1.0612551033177809E+01
Cs    5.8107988974552702E+00    5.5853603641403247E+00    5.8413484203769361E-01
Cs    5.8938548634835586E+00   -3.4540834421226307E-01    5.6573639245149989E+00
Cs    6.4853781391238110E+00   -5.4282757438237059E+00    5.0633925963051833E+00
Cs   -5.4628026808948080E+00    1.1750046645824478E+01    3.6955653685367090E-01
Cs    1.1742288730039961E+01    1.8569740718474456E-01   -4.6624202848096452E-01
Cs   -4.9836757241421514E+00   -4.8478825363616057E-02   -3.3106983316047361E-01
Cs   -1.0396585889236457E+01    5.4663673090468388E+00    5.7659087435788354E+00
Cs   -4.8816090207813012E+00    7.9168502955153564E-01    1.1095140343365617E+01
Cs    6.2393362852862744E+00    1.0707222478333065E+01    5.3430498887225104E+00
Cs    5.6152511577806008E+00    5.8315069990935884E+00    5.4750002321653017E+00
Cs    6.2991430192895663E+00    6.4385433916738988E-01    1.1219290230776059E+01
Cs    5.6493325617330026E+00    1.1044462757601366E+01   -3.1992630303033298E-01
Cs    1.1162641082365029E+01   -4.5743872642865768E-01   -5.4070228469814472E+00
Cs    1.1001623944238872E+01   -5.5296058940132315E+00   -5.5402901198616439E+00
Cs    5.9556543074793309E+00   -1.0668278189281242E+01    1.1133084123024611E+01
Cs    1.0773627396748253E+01    1.1146646022535618E+01   -1.8355737665476185E-01
Cs   -1.0739319081637717E+01    5.1707912561311131E-01    1.1290998632492235E+01
Cs   -5.8593793412044226E+00    5.4595021857354178E+00   -1.0431511453858214E+01
Cs   -1.1549807572367339E+01    1.0479821096797421E+01   -1.1338711025073452E-01
Cs   -4.5763734164763887E+00   -5.0420607196002090E+00    1.1843637611490140E+01
Cs   -4.7334758978888427E+00   -1.0605016651323028E+01    1.1331196699522202E+01
Cs    6.5275466567127207E+00    6.1969660191622555E+00    1.0614907640647697E+01
Cs    1.1424728171179275E+01   -5.5279067698048525E+00    2.9109510270027977E-02
Cs   -1.1218516783653447E+01   -4.5354686912947356E-01    9.9183273690004611E-02
Cs   -6.3762349904414846E+00    1.1101593812411593E+01   -1.0710878807622585E+01
Cs   -1.1072397487631314E+01    5.2802720079421386E+00   -5.8084017051726644E-01
Cs   -1.1398321399436458E+01   -1.1735709690636531E+01   -6.1294724653762938E+00
Cs   -1.0983865928125033E+01   -6.0478995008653582E+00    1.9659650782641466E-01
Cs   -5.8932518468002941E+00   -4.8387274996791314E+00    5.1773283947873028E-01
Cs   -1.2504908845112190E+01   -9.5076494957968212E+00    5.6373707210529123E+00
Cs    1.0577810272776105E+01   -6.0381778385970941E+00    1.1512740586328865E+01
Cs    1.1655281930810117E+01    5.8766213596626917E+00    4.6947920134579437E+00
Cs   -1.1334624515394278E+01    4.5911894293810516E+00   -6.2606182062080915E+00
Cs   -6.1226698360207967E+00   -1.0851950528441514E+00   -5.6068952198301023E+00
Cs   -1.1606120520103790E+01   -1.0558836394935478E+01   -4.8241970710536514E-01
Cs    1.2355883340531255E+01   -1.1616798256990670E+01   -1.0091777055329359E+01
Cs   -1.2246587359661882E+01   -9.9263029599503998E+00   -1.2016929873979329E+01
Cs   -3.4349332701409829E-01    1.0811527202418729E+01   -1.0538517151034570E+01
Cs    2.4854272515289891E-01   -1.0773756484884803E+01   -1.2040319559541370E+01
Cs    3.9948990449724864E-01    1.1039739211484644E+01   -5.5182662612835829E+00
Cs   -1.1705171581210061E+01    1.0952454910714518E+01    1.0444049575492064E+01
Cs    1.9491486541366684E-01   -1.0875774329433302E+01    1.6156130039989852E-01
Cs   -1.0936914646538758E+01   -3.9046644963569260E-01   -1.1359322178372514E+01
Cs   -1.1531676450110149E+01    1.0342945834112657E+01    5.6082431583812271E+00
Cs    6.1580566831100398E+00   -1.1114828212125692E+01   -5.7871109253455391E+00
Cs    1.0428689670048950E+01    1.2028695108168629E-01   -1.1672747073863437E+01
Cs   -2.1646024161248881E-01    1.0841910787321188E+01    1.1246239881594553E+01
Pb    2.7448802006659094E+00   -3.0452086195217989E+00   -2.3625642471502091E+00
Pb    2.8546291529311389E+00   -9.3624259991325722E+00   -3.3567426149163766E+00
Pb   -8.8869536653933121E+00   -2.9592158786114968E+00    3.0904916134161282E+00
Pb   -2.9815850441139991E+00   -9.1177236785980842E+00   -3.1030026203901366E+00
Pb    2.7073650998726522E+00    8.6257966040087979E+00   -2.7604001045070135E+00
Pb    2.9815297548032125E+00    2.7814876235114303E+00   -2.8275979910105540E+00
Pb    3.1832259711157644E+00   -2.6519373664281507E+00    3.3248854147336115E+00
Pb    3.0263654655535626E+00   -8.3877942333153346E+00    2.7443479613269450E+00
Pb   -2.8974789801581906E+00    9.0042286565910743E+00    3.0315836209068876E+00
Pb    2.8931264422510328E+00    9.0089332457570102E+00    2.9685576859200862E+00
Pb    3.2948531689078022E+00    3.1955427241162946E+00    3.0857756238056000E+00
Pb    3.3328241541343964E+00   -2.5715967914932301E+00    9.1336234343911045E+00
Pb    3.1272921624081795E+00   -8.3969450737856466E+00    8.7390822427906691E+00
Pb   -3.0528641504578085E+00    3.1117640253706007E+00    2.9676560101081781E+00
Pb    3.0356371437100140E+00    9.1726351193538900E+00    8.9623710829498631E+00
Pb    3.2068334305488229E+00    3.1620597107125898E+00    9.0856135621633367E+00
Pb   -2.5811889543659876E+00   -2.8512846494183979E+00    8.8253947060543521E+00
Pb   -8.5345705187960519E+00   -8.9898071957192069E+00    2.8576430785441689E+00
Pb   -8.7143989905207491E+00    2.8719953768134188E+00   -3.1790615889301641E+00
Pb   -3.0316296558301294E+00   -2.9708451487508114E+00   -9.0350225953229124E+00
Pb   -2.5685709235366616E+00   -8.6841052928640448E+00    2.6947423445815692E+00
Pb   -2.7601029804558399E+00    8.8990097851569594E+00   -2.7987898821738106E+00
Pb   -2.6881931012295821E+00   -8.5698797444576407E+00    8.6188947227502499E+00
Pb   -8.7554361183972773E+00   -3.0596651422198744E+00   -2.7443445209987449E+00
Pb   -9.2201559089465608E+00   -9.0548436716357994E+00   -3.5091173774660023E+00
Pb   -2.8559480447416306E+00    2.9328651540874899E+00   -2.7596299095113181E+00
Pb   -8.6261836128996023E+00   -8.7091370125744056E+00    8.5696828061493591E+00
Pb   -8.6665343258491490E+00   -3.3386572990236512E+00   -8.3992077933158598E+00
Pb    8.5909897947011000E+00   -3.0591308423201449E+00   -8.6255300681071958E+00
Pb    9.0496616022016028E+00   -8.8888148011829404E+00   -8.8407291908457069E+00
Pb   -2.7911675359268107E+00   -9.2079514822485855E+00   -9.1809623371390963E+00
Pb   -9.1771218913322627E+00    8.0665313052869685E+00   -9.1007195236968688E+00
Pb    2.7410184873623176E+00   -2.9336216252231568E+00   -8.6487250320172873E+00
Pb    2.9260984461158195E+00   -9.1323901796923579E+00   -9.1655878229166969E+00
Pb   -2.6634829128266335E+00    2.7429465610086172E+00   -8.6435917099682253E+00
Pb    2.6745502096329705E+00    8.5010965035653925E+00   -8.7401316489060772E+00
Pb    3.2788085775199920E+00    2.6114985422590862E+00   -8.6057553019133675E+00
Pb    8.9207981398653331E+00   -2.8870812392190746E+00   -2.6941580203196729E+00
Pb    8.8196632697291619E+00   -8.5745205747396209E+00   -3.0581799101759080E+00
Pb   -8.3316734553098115E+00   -2.6517436304134168E+00    8.9106329283746142E+00
Pb    8.6301733150932041E+00    9.0015942018312458E+00   -9.1165413697426771E+00
Pb   -8.5053526000429436E+00    2.2966979432374361E+00   -8.9349166542222633E+00
Pb   -3.0121430682289341E+00    9.0229472791805474E+00    8.7368749037960676E+00
Pb    8.6967056294933105E+00    8.7776569346708886E+00   -3.1280240595890487E+00
Pb    8.8401543692289621E+00    2.8466688052314559E+00   -2.8356262999136517E+00
Pb    9.1828249268806665E+00   -2.7340259555109117E+00    2.8372454810172525E+00
Pb    9.0917958303771975E+00   -8.6132184907349885E+00    2.8124461642564986E+00
Pb    9.0026990608580650E+00    3.0295987855649709E+00   -8.7710203074362454E+00
Pb   -2.7002457857680171E+00    3.2442573093169216E+00    8.5411150769747195E+00
Pb    9.0441030524218391E+00    8.8852668339581733E+00    2.7305280271408416E+00
Pb    9.1279718895246340E+00    3.0752223420944627E+00    2.8691170924317442E+00
Pb    8.8736211321176572E+00   -2.6447632952618343E+00    8.7617278393180289E+00
Pb    9.1121045282124413E+00   -8.4523086718569882E+00    8.4947670992834894E+00
Pb    9.4363934357789763E+00    8.9647512461335985E+00    8.7508869543961314E+00
Pb    9.2612352682025580E+00    3.2816710223294820E+00    8.6575399048345894E+00
Pb   -8.3687512108798803E+00    3.1669908855674587E+00    8.5015040517749068E+00
Pb   -2.8217128364894832E+00   -2.8259173434687770E+00    3.0745308843446084E+00
Pb   -8.5808527750669334E+00    8.6766580762349950E+00    2.5950287482095735E+00
Pb   -8.8465454590835666E+00    8.8938215901752837E+00   -3.1362275855149342E+00
Pb   -8.6834490041135037E+00   -9.3691510326206231E+00   -9.1149965759448417E+00
Pb   -3.1384841941037971E+00    8.2994407894127900E+00   -8.7867724791143509E+00
Pb   -8.8727377259051874E+00    2.8072097729200545E+00    2.6066203869704583E+00
Pb   -8.6477698259048150E+00    8.9392736004997051E+00    8.5956626593419685E+00
Pb   -2.9606558330680919E+00   -3.0445823022652294E+00   -2.6800857554855124E+00
Br   -1.0231481730557317E-01   -3.4467242216054546E+00   -2.3306674527550597E+00
Br    2.7423939826311008E+00   -3.3628463558149613E+00   -5.8237275015640115E+00
Br    2.6077248050314905E+00   -2.0853396107766378E-01   -3.1445820956915602E+00
Br   -9.2457841520984588E-02   -8.9653346015591993E+00   -3.5508788205159907E+00
Br    3.4008722581625990E+00   -9.2370369583286589E+00   -6.3087172971946286E+00
Br    2.5719023950320992E+00   -5.9080437449680474E+00   -2.7526131468974344E+00
Br   -2.8054337757924594E+00   -3.1499782108958718E+00   -5.9640659824515652E+00
Br   -7.9729029936653166E+00   -2.8297546011160022E+00    6.1545086093264025E+00
Br   -2.6223707074071734E+00   -1.8259049144978029E-02   -3.1518399092456746E+00
Br    2.4079913480594630E+00   -1.1969828432694529E+01   -2.5764646158195283E+00
Br    1.2027887779643743E+01   -2.3126612610025714E+00    2.6230239472629293E+00
Br   -5.8715102237241341E+00   -9.1129782605267060E+00   -3.8065013670177250E+00
Br   -1.1699927634600272E+01   -3.4061608283464682E+00    3.1668085604250384E+00
Br   -8.4981159826778168E+00   -2.4527347740369687E+00    2.9716121306223037E-01
Br    1.1774619603809795E+01   -9.0072687227369208E+00    2.6237097177391053E+00
Br   -5.0567088451765475E-02    8.8265868695508054E+00   -2.9314439019049874E+00
Br    2.7007568653498186E+00    8.1947536412367565E+00   -5.7073776594476424E+00
Br    3.0755656073171385E+00    1.1442859379437499E+01   -3.2002949534695553E+00
Br    2.1869780949808573E-01    2.5770918022290550E+00   -2.4694285809223642E+00
Br    3.0397796832299870E+00    3.2978701283818723E+00   -5.6256515588886282E+00
Br    3.0174595572450609E+00    5.7148260559663759E+00   -2.6831107617368866E+00
Br   -1.1802710147435863E-01   -2.5904189813266396E+00    3.4323634693443172E+00
Br    2.9970943115502306E+00   -2.7285505009791899E+00    4.4408585300572034E-01
Br    3.1379362437380491E+00    1.5613132842310343E-01    3.6080772351066024E+00
Br    2.0374687111213877E-01   -8.4474197060045437E+00    2.4829918030611680E+00
Br    3.0149557406456000E+00   -8.9041791028528792E+00   -1.3246928196152799E-01
Br    3.6090921788395827E+00   -5.5186014722357672E+00    2.5455266299913091E+00
Br   -6.0888189404094666E+00    8.5836659851700574E+00   -8.3086800400227361E+00
Br   -2.7009987455503279E+00    7.5337215250610798E+00   -1.1431342664741894E+01
Br    3.1011121603753740E+00   -1.1223415232733334E+01    3.0298303075111312E+00
Br   -3.1671066783744704E+00    1.1132923067662951E+01   -9.4304097256615496E+00
Br   -2.7450664624088796E+00    5.6125233823079910E+00   -8.1189817253667158E+00
Br   -9.2424593587518569E+00   -6.6198617949077401E-02    2.9194023198275802E+00
Br   -3.1402969849773661E+00   -8.6525923000467220E+00   -6.3819401766018125E+00
Br   -5.6770563724100374E+00    8.7820079746812940E+00    2.8167130345469857E+00
Br   -2.1537741825746135E+00    8.4680278875602326E+00    1.5540473101937477E-01
Br   -3.0723559818352633E+00    1.1699550990515647E+01    2.7238402556157473E+00
Br   -7.3663141840434876E-02    8.8386777287447860E+00    3.3578544615560144E+00
Br    2.7806026809036579E+00    9.3071940716840853E+00    1.5373949281996041E-01
Br    2.7460299427181845E+00    1.2007328673624935E+01    3.0138387845889976E+00
Br    2.4535875600850926E-01    3.0444848165736969E+00    3.4721675605007940E+00
Br    2.8240376785519041E+00    3.0501657995537652E+00    7.8212587705321260E-02
Br    2.7111759344746851E+00    6.2205138755876730E+00    2.3142101291079356E+00
Br    4.7978979793931581E-01   -2.8093882789261722E+00    8.6763745045833165E+00
Br    3.3652533521527879E+00   -2.8860277960440675E+00    6.1816002426697692E+00
Br    3.5458290406439583E+00    2.0069235928509113E-01    8.7473021273990383E+00
Br    3.0540603541941502E-01   -8.4308151139159513E+00    8.6328877090949305E+00
Br    3.0298418751207867E+00   -8.0723753775738896E+00    5.6130636909389606E+00
Br    3.2831023218899262E+00   -5.6261519309199439E+00    9.0986343309569691E+00
Br   -1.1555744601810714E+01    3.6737862269938568E+00    2.6289123921637123E+00
Br   -8.9233055734143250E+00    2.4519834302174064E+00   -3.8702777140425504E-01
Br    2.6923114205856229E+00   -1.1125047797542967E+01    8.1027165373619390E+00
Br   -7.7719232393774620E+00    5.6527918668692987E+00    3.1438490968074473E+00
Br   -8.0439477905235055E+00    1.0120020918872859E-01    8.4298723850297730E+00
Br   -3.4797554294126214E+00   -6.2171065680571767E+00   -2.8976756949210407E+00
Br   -5.9731028604691447E+00    2.5087061087847329E+00    2.5326471223875457E+00
Br   -2.9527650268029433E+00    3.0109551799894403E+00    1.1328877888124103E-01
Br   -2.9845340232792568E+00    6.1262291660057064E+00    2.9496013102400869E+00
Br   -1.1761666384989574E-02    8.4681604864972027E+00    8.5129544364167131E+00
Br    2.9625210246305747E+00    9.1803106862007109E+00    5.9645756090780111E+00
Br    1.9961741250328748E+00    1.1739781502792500E+01    9.0562113806452462E+00
Br    2.1020299547446761E-01    3.4126692831184848E+00    8.8719006785559333E+00
Br    3.1607529752551788E+00    3.3204092055277070E+00    5.8818256345030413E+00
Br    3.3184739576414435E+00    6.1738549964165026E+00    8.3988949994575286E+00
Br   -5.4841010548999600E+00   -2.7625364072923633E+00    9.3325676850285131E+00
Br    3.3364794428583444E+00   -2.4064543477184714E+00    1.1922002429393707E+01
Br   -3.1281177016627209E+00   -2.9250047908047687E+00    5.8401029554186810E+00
Br   -2.6123507991441470E+00    2.1387431532559495E-01    8.9158428038077346E+00
Br   -2.9726932982148297E+00   -1.1817954390368563E+01   -2.9622391513570339E+00
Br    3.0817001553533938E+00   -8.5404686948463375E+00    1.1540874570878890E+01
Br   -1.1430065626374734E+01    2.7419854679223556E+00   -3.4418308695478603E+00
Br   -2.4519676600930733E+00   -1.1504853906906192E+01    2.4196870213233614E+00
Br   -1.1606438329752761E+01   -2.8056177226001107E+00   -2.6088428673755470E+00
Br    2.7476686291972903E+00    8.0813289119618741E+00    1.1663483812493988E+01
Br   -8.4737034123851043E+00   -3.2508874606661533E+00   -5.4896582676953178E+00
Br   -8.3366131134145629E+00   -4.3879276728056103E-02   -2.9979413694463366E+00
Br    2.5867303066025373E+00    2.9024983194680565E+00    1.1679024227573830E+01
Br   -5.7254898864015384E+00    8.6887320534026866E+00   -3.2963151925178829E+00
Br   -2.6308606732522026E+00    8.8694195773250737E+00   -5.8042072739913566E+00
Br   -2.8833411689064889E+00    1.1595917302285281E+01   -1.9585990545953280E+00
Br   -5.6663691813392107E+00    3.5367794535931116E+00   -2.5855692700776851E+00
Br   -1.1977461486971388E+01   -8.4684724062127259E+00    2.2969702282159110E+00
Br   -2.8634562398288508E+00    2.7406461318653470E+00   -5.7294961268452358E+00
Br   -5.7495511966069897E+00   -3.4040326935787326E+00   -8.7929038734470648E+00
Br   -3.1363404894896778E+00   -2.4937957846835359E+00   -1.1779676799536643E+01
Br   -2.6006653422805592E+00   -8.6573756536400107E-02   -8.9113387481504933E+00
Br   -2.5368556245692688E+00    3.1171976908788679E+00    1.1615797361625921E+01
Br   -5.6999112966742613E+00   -9.0197977262324702E+00    8.3388001177206803E+00
Br   -2.3908299304001641E+00   -8.7225516669629339E+00    5.7219049851374173E+00
Br   -2.7084044785936499E+00   -5.6238186905129686E+00    8.2945131477787584E+00
Br   -8.3832931535786237E+00   -8.9688484252676712E+00    2.3349006205984069E-02
Br   -8.5294696735489257E+00   -5.8066069159665785E+00    2.4004211756315290E+00
Br   -9.1994694716757088E+00    8.8856332538084732E+00    1.1329336730411585E+01
Br    1.2159787011181587E+01    8.8088437691312311E+00    2.3497594185880031E+00
Br   -8.1815051835962418E+00   -9.1752819666106156E+00    1.1538092786755598E+01
Br    1.1427390356870047E+01    8.4747231901290494E+00   -2.2287379900319362E+00
Br    1.1833890945144001E+01    2.9522632985067858E+00    2.1972824080250350E+00
Br   -7.9501210842510117E+00    2.6645008388842242E+00    1.1320291125371000E+01
Br   -1.1307586720584778E+01   -3.2937174681867085E+00   -8.6404114845952869E+00
Br    1.1444915214724311E+01   -2.3618144510638448E+00    7.9495508663348975E+00
Br   -5.6198807709829817E+00   -8.3023218713044926E+00    3.2209671609043045E+00
Br    5.6544906803712509E+00   -3.0831684757065494E+00   -8.8330916373271400E+00
Br    7.7530696094426839E+00   -2.9871149023763479E+00   -1.1822031252876405E+01
Br    1.1948489468565844E+01   -7.8138941994981792E+00    8.9003693859898210E+00
Br    8.4252747207413545E+00    1.6978453114459147E-01   -8.5377446407423996E+00
Br   -9.6198589442766007E+00   -1.1698584374320163E+01    8.6644411217311230E+00
Br   -2.7954257903279189E+00   -9.0581143723524740E+00   -1.6873070817275079E-01
Br   -2.2719926997303261E+00   -5.5533857451499182E+00    2.5441111961705354E+00
Br    6.0738074503540460E+00   -8.7853769257922707E+00   -9.1873758726242816E+00
Br   -5.7444242637544551E+00   -9.6711311632786892E+00   -9.2686561129094720E+00
Br    9.4590674711505756E+00   -9.2894607747475941E+00   -1.1579613577003355E+01
Br    8.5130681042335006E+00   -5.8598795869937730E+00   -8.8204451620628319E+00
Br   -2.8533236374643658E+00   -1.1319819836648927E+01    8.2311439108285605E+00