&inputpp
  prefix = 'x0',
  outdir = './',
  pseudo_dir    = '/u/fzheng/0.qe_calculations/pseudos/SSSP_efficiency_pseudos',
  psfile(1) = 'C.pbe-n-kjpaw_psl.1.0.0.UPF',
  psfile(2) = 'N.pbe-n-radius_5.UPF',
  psfile(3) = 'H.pbe-rrkjus_psl.1.0.0.UPF',
  psfile(4) = 'Zn_pbe_v1.uspp.F.UPF',
  psfile(5) = 'O.pbe-n-kjpaw_psl.0.1.UPF',
  single_file = .FALSE.,
  ascii = .TRUE.,
  uspp_spsi = .FALSE.,
/
