&CONTROL
  calculation   = 'scf',
  pseudo_dir    = '/util/academic/espresso/6.2.1/pseudopotentials/upf_files/',
  outdir        = './',
  prefix        = 'x0',
  disk_io       = 'low',
/

&SYSTEM
  ibrav       = 0,
  nat         = 25,
  ntyp        = 4,
  nspin       = 1,
  nbnd        = 100
  ecutwfc     = 30,
  ecutrho     = 300,
  occupations = 'smearing',
  smearing    = 'gaussian',
  degauss     = 0.01,
  nosym       = true,
/

&ELECTRONS
  electron_maxstep = 300,
  conv_thr         = 1.D-4,
  mixing_beta      = 0.30,
/

ATOMIC_SPECIES
C  12.010     C.pbe-n-rrkjus_psl.0.1.UPF 
H  1.007      H.pbe-rrkjus_psl.0.1.UPF 
Ir 192.217    Ir.pbe-n-rrkjus_psl.0.2.3.UPF
N  14.006     N.pbe-n-rrkjus_psl.0.1.UPF

K_POINTS gamma

CELL_PARAMETERS  angstrom
        7.0652699470        0.0000000000         0.0000000000
        0.0000000000        7.0652699470         0.0000000000
        0.0000000000        0.0000000000         7.0652699470 

ATOMIC_POSITIONS (angstrom)
Ir       0.002536417   0.026623545   0.008113035
N        1.115943659  -1.336620780  -1.140307291
N       -1.696470740   0.012360639  -1.181226586
N        0.780757673   1.490428694  -1.179160912
C       -0.552898636   1.616890736   1.074612644
C        1.490965448  -0.371091446   1.281061396
C        2.013568696  -1.943195413  -0.394640001
C        2.188963041  -1.502980301   0.915764643
C       -1.083958942  -1.240831244   0.960109132
C        0.512688939   2.689700870  -0.665944217
C       -0.085359307   2.782610130   0.592189282
C       -2.510910017  -0.925186870  -0.853116932
C       -2.220011436  -1.683470163   0.274159915
H        1.825531043   0.164979296   2.225996660
H        2.895830592  -1.913369497   1.626384619
H        2.631086693  -2.806636645  -0.732337796
H        0.543963342   3.579030403  -1.449269024
H       -0.153566595   3.813934757   1.082395577
H       -1.087400181   1.584865114   2.096494495
H       -2.809008372  -2.490587165   0.598321911
H       -0.868013543  -1.555902280   2.021070652
H       -3.261232861  -1.285437033  -1.588131500
H        0.841017716  -1.691311992  -2.025798372
H        0.999184988   1.584800976  -2.199497006
H       -1.881331459   0.510733617  -2.018208474


