&CONTROL
  calculation   = 'scf',
  pseudo_dir    = '/util/academic/espresso/6.2.1/pseudopotentials/upf_files/',
  outdir        = './',
  prefix        = 'x0',
  disk_io       = 'low',
/

&SYSTEM
  ibrav       = 0,
  nat         = 25,
  ntyp        = 4,
  nspin       = 1,
  nbnd        = 100
  ecutwfc     = 30,
  ecutrho     = 300,
  occupations = 'smearing',
  smearing    = 'gaussian',
  degauss     = 0.01,
  nosym       = true,
/

&ELECTRONS
  electron_maxstep = 300,
  conv_thr         = 1.D-4,
  mixing_beta      = 0.30,
/

ATOMIC_SPECIES
C  12.010     C.pbe-n-rrkjus_psl.0.1.UPF 
H  1.007      H.pbe-rrkjus_psl.0.1.UPF 
Ir 192.217    Ir.pbe-n-rrkjus_psl.0.2.3.UPF
N  14.006     N.pbe-n-rrkjus_psl.0.1.UPF

K_POINTS gamma

CELL_PARAMETERS  angstrom
        7.0652699470        0.0000000000         0.0000000000
        0.0000000000        7.0652699470         0.0000000000
        0.0000000000        0.0000000000         7.0652699470 

ATOMIC_POSITIONS (angstrom)
Ir      -0.002736413   0.034172716   0.015169683
N        1.133341755  -1.314776196  -1.120104556
N       -1.666049448   0.029480911  -1.210371412
N        0.751161620   1.531585523  -1.211917078
C       -0.571785859   1.603019067   1.054930005
C        1.542854995  -0.386862732   1.264754818
C        2.009773841  -1.996973471  -0.342685815
C        2.233365760  -1.504294236   0.953703233
C       -1.087540758  -1.290909624   0.927665211
C        0.524520662   2.688999776  -0.699231681
C       -0.069687745   2.766773350   0.607908545
C       -2.536259253  -0.983864349  -0.890644494
C       -2.245236752  -1.656369624   0.286463455
H        1.745832282   0.128801573   2.223064879
H        2.938908555  -1.980136150   1.603278364
H        2.610952999  -2.818880731  -0.718685442
H        0.548109616   3.594558807  -1.264193390
H       -0.062003295   3.747606181   1.074132143
H       -1.191171794   1.554279089   1.968577883
H       -2.785528085  -2.677849526   0.414091453
H       -0.859588049  -1.699307083   1.875181598
H       -3.251048020  -1.192104121  -1.652176331
H        1.002626690  -1.462819612  -2.122893953
H        0.999739123   1.407844753  -2.209078804
H       -1.827782773   0.519425866  -2.066466084


