&CONTROL
  calculation   = 'scf',
  pseudo_dir    = '/util/academic/espresso/6.2.1/pseudopotentials/upf_files/',
  outdir        = './',
  prefix        = 'x0',
  disk_io       = 'low',
/

&SYSTEM
  ibrav       = 0,
  nat         = 25,
  ntyp        = 4,
  nspin       = 1,
  nbnd        = 100
  ecutwfc     = 30,
  ecutrho     = 300,
  occupations = 'smearing',
  smearing    = 'gaussian',
  degauss     = 0.01,
  nosym       = true,
/

&ELECTRONS
  electron_maxstep = 300,
  conv_thr         = 1.D-4,
  mixing_beta      = 0.30,
/

ATOMIC_SPECIES
C  12.010     C.pbe-n-rrkjus_psl.0.1.UPF 
H  1.007      H.pbe-rrkjus_psl.0.1.UPF 
Ir 192.217    Ir.pbe-n-rrkjus_psl.0.2.3.UPF
N  14.006     N.pbe-n-rrkjus_psl.0.1.UPF

K_POINTS gamma

CELL_PARAMETERS  angstrom
        7.0652699470        0.0000000000         0.0000000000
        0.0000000000        7.0652699470         0.0000000000
        0.0000000000        0.0000000000         7.0652699470 

ATOMIC_POSITIONS (angstrom)
Ir       0.001138772   0.027844218   0.008802888
N        1.119189457  -1.329173703  -1.135548676
N       -1.689573072   0.013884924  -1.185685083
N        0.775677660   1.495776147  -1.186837373
C       -0.549546337   1.609142219   1.080704092
C        1.499943047  -0.372419914   1.279890441
C        2.014401694  -1.950920202  -0.384472063
C        2.195853485  -1.505386653   0.915149170
C       -1.080505892  -1.246121616   0.951452349
C        0.516667724   2.693955690  -0.668727294
C       -0.083988970   2.778452084   0.598941514
C       -2.515160772  -0.933734454  -0.853320263
C       -2.233398484  -1.684994603   0.275302691
H        1.817373302   0.156001941   2.212889228
H        2.905667865  -1.920378510   1.635195611
H        2.637065268  -2.808161206  -0.720123793
H        0.536619214   3.587152519  -1.437409030
H       -0.123539506   3.795039781   1.058988271
H       -1.093674009   1.578105874   2.062089224
H       -2.794377185  -2.507179913   0.545991266
H       -0.859170076  -1.571856176   2.028220558
H       -3.259238881  -1.283356272  -1.613942365
H        0.852503939  -1.647803024  -2.034248541
H        0.997121825   1.564923627  -2.204673107
H       -1.877720573   0.531604135  -2.052549535


