&CONTROL
  calculation   = 'scf',
  pseudo_dir    = '/util/academic/espresso/6.2.1/pseudopotentials/upf_files/',
  outdir        = './',
  prefix        = 'x0',
  disk_io       = 'low',
/

&SYSTEM
  ibrav       = 0,
  nat         = 25,
  ntyp        = 4,
  nspin       = 1,
  nbnd        = 100
  ecutwfc     = 30,
  ecutrho     = 300,
  occupations = 'smearing',
  smearing    = 'gaussian',
  degauss     = 0.01,
  nosym       = true,
/

&ELECTRONS
  electron_maxstep = 300,
  conv_thr         = 1.D-4,
  mixing_beta      = 0.30,
/

ATOMIC_SPECIES
C  12.010     C.pbe-n-rrkjus_psl.0.1.UPF 
H  1.007      H.pbe-rrkjus_psl.0.1.UPF 
Ir 192.217    Ir.pbe-n-rrkjus_psl.0.2.3.UPF
N  14.006     N.pbe-n-rrkjus_psl.0.1.UPF

K_POINTS gamma

CELL_PARAMETERS  angstrom
        7.0652699470        0.0000000000         0.0000000000
        0.0000000000        7.0652699470         0.0000000000
        0.0000000000        0.0000000000         7.0652699470 

ATOMIC_POSITIONS (angstrom)
Ir      -0.003115020   0.032839004   0.014599169
N        1.133873961  -1.308956298  -1.112757881
N       -1.664370317   0.025639465  -1.209890716
N        0.753872326   1.529434944  -1.214042725
C       -0.567888186   1.605334230   1.058428796
C        1.538520432  -0.385034657   1.268458162
C        2.012978999  -1.992119899  -0.346940295
C        2.228319175  -1.506575609   0.943265411
C       -1.082922407  -1.283915590   0.929512941
C        0.527184841   2.699511974  -0.698200956
C       -0.072400462   2.767677235   0.612795021
C       -2.535412526  -0.979865092  -0.880388666
C       -2.246974482  -1.661134593   0.284327777
H        1.755740205   0.123265507   2.201431097
H        2.934138540  -1.969100754   1.613038396
H        2.616762056  -2.809547928  -0.707274461
H        0.537333045   3.554587107  -1.268091772
H       -0.068005782   3.743345239   1.048536171
H       -1.159325372   1.555155629   1.955545466
H       -2.783603387  -2.711018754   0.377588061
H       -0.858041394  -1.669524123   1.904180828
H       -3.240324067  -1.208077410  -1.650853217
H        0.963626285  -1.488848399  -2.130213708
H        0.996184690   1.430190918  -2.201786871
H       -1.838330837   0.537438046  -2.087792763


