&CONTROL
  calculation   = 'scf',
  pseudo_dir    = '/util/academic/espresso/6.2.1/pseudopotentials/upf_files/',
  outdir        = './',
  prefix        = 'x0',
  disk_io       = 'low',
/

&SYSTEM
  ibrav       = 0,
  nat         = 25,
  ntyp        = 4,
  nspin       = 1,
  nbnd        = 100
  ecutwfc     = 30,
  ecutrho     = 300,
  occupations = 'smearing',
  smearing    = 'gaussian',
  degauss     = 0.01,
  nosym       = true,
/

&ELECTRONS
  electron_maxstep = 300,
  conv_thr         = 1.D-4,
  mixing_beta      = 0.30,
/

ATOMIC_SPECIES
C  12.010     C.pbe-n-rrkjus_psl.0.1.UPF 
H  1.007      H.pbe-rrkjus_psl.0.1.UPF 
Ir 192.217    Ir.pbe-n-rrkjus_psl.0.2.3.UPF
N  14.006     N.pbe-n-rrkjus_psl.0.1.UPF

K_POINTS gamma

CELL_PARAMETERS  angstrom
        7.0652699470        0.0000000000         0.0000000000
        0.0000000000        7.0652699470         0.0000000000
        0.0000000000        0.0000000000         7.0652699470 

ATOMIC_POSITIONS (angstrom)
Ir      -0.000936862   0.029731914   0.011134962
N        1.126962556  -1.315269374  -1.121489161
N       -1.675083370   0.017191630  -1.195681135
N        0.766469097   1.509731302  -1.202241667
C       -0.556760686   1.610141675   1.071008571
C        1.518072033  -0.376605805   1.277429717
C        2.016226611  -1.968614362  -0.366186377
C        2.209862971  -1.508314360   0.920247948
C       -1.076872752  -1.259812490   0.938705174
C        0.524324898   2.702807144  -0.680757079
C       -0.078960436   2.773882422   0.613185965
C       -2.524299280  -0.954194766  -0.858401038
C       -2.253158552  -1.685693026   0.279932179
H        1.791966172   0.131865099   2.183768731
H        2.922780499  -1.939036562   1.639411683
H        2.635416368  -2.804253408  -0.702193331
H        0.528089365   3.560578585  -1.367352486
H       -0.108622212   3.771758356   1.018299362
H       -1.101029535   1.566718650   1.986364579
H       -2.791478287  -2.587710605   0.462550279
H       -0.850973108  -1.606931012   2.006011070
H       -3.248678807  -1.261979060  -1.645171721
H        0.881303208  -1.577432990  -2.084834433
H        0.993341790   1.512873953  -2.198258046
H       -1.867842840   0.562355183  -2.108495624


