&CONTROL
  calculation   = 'scf',
  pseudo_dir    = '/util/academic/espresso/6.2.1/pseudopotentials/upf_files/',
  outdir        = './',
  prefix        = 'x0',
  disk_io       = 'low',
/

&SYSTEM
  ibrav       = 0,
  nat         = 25,
  ntyp        = 4,
  nspin       = 1,
  nbnd        = 100
  ecutwfc     = 30,
  ecutrho     = 300,
  occupations = 'smearing',
  smearing    = 'gaussian',
  degauss     = 0.01,
  nosym       = true,
/

&ELECTRONS
  electron_maxstep = 300,
  conv_thr         = 1.D-4,
  mixing_beta      = 0.30,
/

ATOMIC_SPECIES
C  12.010     C.pbe-n-rrkjus_psl.0.1.UPF 
H  1.007      H.pbe-rrkjus_psl.0.1.UPF 
Ir 192.217    Ir.pbe-n-rrkjus_psl.0.2.3.UPF
N  14.006     N.pbe-n-rrkjus_psl.0.1.UPF

K_POINTS gamma

CELL_PARAMETERS  angstrom
        7.0652699470        0.0000000000         0.0000000000
        0.0000000000        7.0652699470         0.0000000000
        0.0000000000        0.0000000000         7.0652699470 

ATOMIC_POSITIONS (angstrom)
Ir       0.000018421   0.028798145   0.009958564
N        1.122901041  -1.322042589  -1.129021810
N       -1.682248914   0.015414620  -1.190199717
N        0.770973335   1.502190953  -1.194493683
C       -0.553138356   1.610204957   1.075550592
C        1.509116629  -0.374283503   1.278956693
C        2.015401944  -1.959577094  -0.374741436
C        2.202834865  -1.507219429   0.916709514
C       -1.078077058  -1.252510424   0.944409592
C        0.520642275   2.698373598  -0.673718253
C       -0.081922669   2.775671440   0.606369362
C       -2.519716777  -0.943711275  -0.854821524
C       -2.244410771  -1.685752622   0.277392908
H        1.805468960   0.143840133   2.197134013
H        2.915125911  -1.929302280   1.640078264
H        2.638245727  -2.806875832  -0.709593513
H        0.531132274   3.579298485  -1.408356953
H       -0.094924911   3.766577839   1.035075594
H       -1.096821346   1.572030432   2.022982268
H       -2.789093802  -2.540271581   0.500845243
H       -0.853407692  -1.589090820   2.023775062
H       -3.255010433  -1.275299166  -1.633142419
H        0.865351257  -1.610366436  -2.055819270
H        0.995017160   1.540320104  -2.203007590
H       -1.873759942   0.550819431  -2.085792417


