&CONTROL
  calculation   = 'scf',
  pseudo_dir    = '/util/academic/espresso/6.2.1/pseudopotentials/upf_files/',
  outdir        = './',
  prefix        = 'x0',
  disk_io       = 'low',
/

&SYSTEM
  ibrav       = 0,
  nat         = 25,
  ntyp        = 4,
  nspin       = 1,
  nbnd        = 100
  ecutwfc     = 30,
  ecutrho     = 300,
  occupations = 'smearing',
  smearing    = 'gaussian',
  degauss     = 0.01,
  nosym       = true,
/

&ELECTRONS
  electron_maxstep = 300,
  conv_thr         = 1.D-4,
  mixing_beta      = 0.30,
/

ATOMIC_SPECIES
C  12.010     C.pbe-n-rrkjus_psl.0.1.UPF 
H  1.007      H.pbe-rrkjus_psl.0.1.UPF 
Ir 192.217    Ir.pbe-n-rrkjus_psl.0.2.3.UPF
N  14.006     N.pbe-n-rrkjus_psl.0.1.UPF

K_POINTS gamma

CELL_PARAMETERS  angstrom
        7.0652699470        0.0000000000         0.0000000000
        0.0000000000        7.0652699470         0.0000000000
        0.0000000000        0.0000000000         7.0652699470 

ATOMIC_POSITIONS (angstrom)
Ir       0.003325913   0.026017745   0.008010342
N        1.112094256  -1.343376090  -1.143378392
N       -1.694669505   0.015040162  -1.178210330
N        0.785338416   1.487137466  -1.171498836
C       -0.557474585   1.624005355   1.070727066
C        1.481532893  -0.369292450   1.282869886
C        2.012221880  -1.935733540  -0.404697864
C        2.181158997  -1.499084501   0.918264616
C       -1.086353414  -1.243219145   0.955692974
C        0.508006882   2.686640825  -0.665533375
C       -0.084126978   2.779415129   0.592541617
C       -2.508591475  -0.919129107  -0.852574731
C       -2.205716292  -1.680835231   0.274322462
H        1.820082327   0.150370715   2.220742587
H        2.886658812  -1.908514482   1.615897145
H        2.619505045  -2.800893029  -0.745484019
H        0.551709713   3.555066027  -1.442653650
H       -0.184122323   3.818141328   1.100901410
H       -1.076037204   1.593530480   2.119255122
H       -2.829681344  -2.483288510   0.654531440
H       -0.880032920  -1.541573091   2.006693550
H       -3.263437915  -1.280696340  -1.558196450
H        0.829990448  -1.739001295  -2.029499259
H        1.000295510   1.599413142  -2.186476822
H       -1.837025037   0.508286179  -2.054419477


