 # Version information for this restart file 
 # current date 2021-06-17 12:42:52.198
 # current working dir /user/ub2042/exercises/2_fitting/MM_MD_workdir/md_settings.004
 # Program compiled at                              Thu Apr 22 21:44:59 EDT 2021
 # Program compiled on                cpn-k07-07-02.compute.cbls.ccr.buffalo.edu
 # Program compiled for                                                    local
 # Source code revision number                                       git:36754bb
 &GLOBAL
   PRINT_LEVEL  LOW
   PROJECT_NAME cp2k
   RUN_TYPE  MD
 &END GLOBAL
 &MOTION
   &MD
     ENSEMBLE  NVT
     STEPS  10000
     TIMESTEP     2.4999999999999996E+00
     STEP_START_VAL  5500
     TIME_START_VAL     1.3750000000000124E+04
     ECONS_START_VAL    -1.4028929475949734E+01
     TEMPERATURE     3.0000000000000000E+02
     &BAROSTAT
       PRESSURE     1.0100000000000000E+00
       TIMECON     9.9999999999999982E+03
     &END BAROSTAT
     &THERMOSTAT
       TYPE  CSVR
       &CSVR
         TIMECON     9.9999999999999982E+03
         &THERMOSTAT_ENERGY
              -1.7942583849844274E-01
         &END THERMOSTAT_ENERGY
         &RNG_INIT
Wiener process for Thermostat # 1        1 F T F   3.9545893096156498E-01         256144355.0        3009584448.0         998109704.0        3723005416.0        4037023628.0        4248548337.0             12345.0             12345.0             12345.0             12345.0             12345.0             12345.0             12345.0             12345.0             12345.0             12345.0             12345.0             12345.0
         &END RNG_INIT
       &END CSVR
     &END THERMOSTAT
     &AVERAGES  T
       &RESTART_AVERAGES
         ITIMES_START  1
         AVECPU     1.7451456894547825E-02
         AVEHUGONIOT     0.0000000000000000E+00
         AVETEMP_BARO     0.0000000000000000E+00
         AVEPOT    -1.4419636058266867E+01
         AVEKIN     4.7429701647441197E-01
         AVETEMP     2.4059594117048138E+02
         AVEKIN_QM     0.0000000000000000E+00
         AVETEMP_QM     0.0000000000000000E+00
         AVEVOL     6.7483345830908539E+06
         AVECELL_A     1.8897261328855762E+02
         AVECELL_B     1.8897261328855762E+02
         AVECELL_C     1.8897261328855762E+02
         AVEALPHA     9.0000000000000000E+01
         AVEBETA     9.0000000000000000E+01
         AVEGAMMA     9.0000000000000000E+01
         AVE_ECONS    -4.5436996747131984E+00
         AVE_PRESS     0.0000000000000000E+00
         AVE_PXX     0.0000000000000000E+00
       &END RESTART_AVERAGES
     &END AVERAGES
     &PRINT
       &ENERGY  SILENT
         &EACH
           MD  10
         &END EACH
       &END ENERGY
     &END PRINT
   &END MD
   &PRINT
     &TRAJECTORY  SILENT
       &EACH
         MD  10
       &END EACH
     &END TRAJECTORY
     &CELL  SILENT
       &EACH
         MD  10
       &END EACH
     &END CELL
     &VELOCITIES  SILENT
       &EACH
         MD  10
       &END EACH
     &END VELOCITIES
     &FORCES  SILENT
       &EACH
         MD  10
       &END EACH
     &END FORCES
     &RESTART  SILENT
       &EACH
         MD  10
       &END EACH
     &END RESTART
   &END PRINT
 &END MOTION
 &FORCE_EVAL
   METHOD  FIST
   &MM
     &FORCEFIELD
       VDW_SCALE14     1.0000000000000000E+00
       EI_SCALE14     1.0000000000000000E+00
       SHIFT_CUTOFF  T
       DO_NONBONDED  T
       IGNORE_MISSING_CRITICAL_PARAMS  T
       &SPLINE
         R0_NB     2.5000000000000000E-01
       &END SPLINE
       &NONBONDED
         &LENNARD-JONES
           ATOMS Br Br
           EPSILON     1.2630795322675199E+02
           SIGMA     3.6900000000000004E+00
         &END LENNARD-JONES
         &LENNARD-JONES
           ATOMS Cs Pb
           EPSILON     8.6920055954630968E+01
           SIGMA     3.6699999999999999E+00
         &END LENNARD-JONES
         &LENNARD-JONES
           ATOMS Cs Cs
           EPSILON     2.2644852172126850E+01
           SIGMA     4.3300000000000001E+00
         &END LENNARD-JONES
         &LENNARD-JONES
           ATOMS Pb Pb
           EPSILON     3.3363415533600227E+02
           SIGMA     5.9000000000000004E+00
         &END LENNARD-JONES
         &LENNARD-JONES
           ATOMS Br Cs
           EPSILON     5.3481070753900497E+01
           SIGMA     3.6300000000000003E+00
         &END LENNARD-JONES
         &LENNARD-JONES
           ATOMS Br Pb
           EPSILON     2.0528187276773045E+02
           SIGMA     2.9800000000000000E+00
         &END LENNARD-JONES
       &END NONBONDED
       &CHARGE
         ATOM Cs
         CHARGE     4.1739999999999999E-01
       &END CHARGE
       &CHARGE
         ATOM Pb
         CHARGE     8.3479999999999999E-01
       &END CHARGE
       &CHARGE
         ATOM Br
         CHARGE    -4.1739999999999999E-01
       &END CHARGE
     &END FORCEFIELD
     &POISSON
       PERIODIC  XYZ
       &EWALD
         EWALD_TYPE  SPME
         GMAX  62 62 62
         O_SPLINE  4
       &END EWALD
     &END POISSON
     &PRINT
       &FF_INFO  LOW
         SPLINE_INFO  F
         SPLINE_DATA  F
       &END FF_INFO
     &END PRINT
   &END MM
   &SUBSYS
     &CELL
       A     1.0000000000000001E+02    0.0000000000000000E+00    0.0000000000000000E+00
       B     0.0000000000000000E+00    1.0000000000000001E+02    0.0000000000000000E+00
       C     0.0000000000000000E+00    0.0000000000000000E+00    1.0000000000000001E+02
       PERIODIC  XYZ
       MULTIPLE_UNIT_CELL  1 1 1
     &END CELL
     &COORD
Cs    1.3988832461374506E-01   -2.8477557624652972E-01   -6.2361554351292119E+00
Cs    1.9742018648246562E-01   -6.9283659881709010E+00   -5.0972219199276836E+00
Cs    1.4289935291584102E+00   -1.2968105477694731E+01   -4.8415599912770109E+00
Cs   -5.1817816874217417E+00   -6.5763718691143804E+00   -5.5952347106012965E+00
Br   -8.1843312316941184E+00   -1.3060255842996426E+01   -6.9278069413890160E+00
Br    1.2076898707263856E+01   -3.8790414533399864E+00   -1.0133071708574228E+01
Br   -4.3556704211124000E+00    3.4896898062958254E-01   -1.1984274246214692E+01
Cs   -1.0196904698514297E+00    5.1657946315897085E+00   -5.7939965766670678E+00
Cs    1.7866166833034614E-01   -4.2754719590030044E-01   -4.2633684251396971E-02
Cs    7.7847310366555444E-01   -5.7989075117074425E+00    7.9494260498890656E-01
Br   -5.6049861713392168E+00   -3.0179168596027228E+00    4.4513287347598798E+00
Cs   -9.7479108230298444E+00   -5.5361290106783034E+00    1.3205233066263464E+01
Cs    1.3339470382730038E+01   -1.0467700664490060E+01    4.1611363801615719E-01
Cs   -6.9303450846562225E+00    5.4001090436543970E+00   -3.6475880906742481E-01
Cs   -1.0275549370558390E+00    1.0817753592415292E+01   -1.1406513612173581E+00
Cs   -1.5093983639937572E-01    5.5494041003297312E+00   -8.2164462051866527E-01
Cs    2.0850719950435162E-01    9.8560157706951224E-01    5.7447732710989170E+00
Cs    9.7310425901991870E-01   -5.3288964582912213E+00    6.1020558735041774E+00
Cs    2.0760590668080554E+00   -1.1184524481192158E+01    7.2730956771506285E+00
Cs   -6.9766296360434668E+00    6.8010007725108323E+00    1.1201739815202087E+01
Cs   -6.6217580402271814E+00   -1.6643259550833962E+00   -1.1938987837691755E+01
Cs   -4.9216103938393072E+00   -1.1974027458360810E+01   -4.8616694022716933E+00
Cs   -5.7933311838939847E+00    8.6145177640623252E-02    6.3985830900825897E+00
Br   -2.5552103890008095E+00   -2.8033953743814304E+00    4.4497536331205900E-01
Cs   -5.9447443575906056E-01    5.9693041446343234E+00    4.9238275988179572E+00
Br    1.2452787877091078E+01   -8.9111202005266410E+00   -9.4237458912172851E+00
Cs    5.7628513161964545E-01   -5.7649056372596741E+00    1.2474587789012698E+01
Br   -2.5770332531947941E+00    7.7594883666252668E-02    3.1370116543933371E+00
Br   -7.3507698354888529E+00   -2.3522310939994160E+00    1.2628584925579499E+01
Cs    8.9549547905400004E+00    1.2901822183986869E+01   -7.6313398116414008E+00
Cs   -1.0744342249822981E+01   -6.7447809856031080E+00    7.0138149199972410E+00
Cs   -5.8696698304563162E+00   -6.0903115829935759E+00    7.4239888187530694E+00
Cs   -6.2951776630222929E+00    1.0162481490454343E+01   -7.2500563266735663E+00
Br   -1.0777324344225010E+01   -8.7049918358025966E+00    9.5753261123995586E+00
Br   -7.5445936903786972E+00   -9.1581927655130144E+00    7.2698422811350403E+00
Cs   -1.1091348642920895E+01   -7.2387047292586573E+00   -4.9220181032559633E+00
Cs   -6.6629828309787698E+00    3.6015847960043597E+00   -6.1099855432445755E+00
Br   -7.8850851465470795E+00   -5.8039706900939345E+00    1.0467123444897437E+01
Cs    1.0896452073279878E+01    7.9141567818297078E+00    1.0314771667892563E+01
Br   -1.2616765449001281E+01    9.6104507700567670E+00    8.7580811610952658E+00
Br   -5.6820367687437177E+00   -3.9189925472723788E+00   -1.7882714339351815E+00
Cs    1.3285732006034648E-01    9.0160384944496208E-01    1.0535899889862382E+01
Cs    1.1452357080336657E+01    6.4447605302362634E+00   -3.4355784592136257E-01
Cs   -1.0501570080547683E+01   -7.3780604669769927E+00   -1.0553105247366432E+01
Cs    1.1650477596150642E+01    2.4489739490881468E+00    5.6106545472718388E+00
Cs   -1.1809016992545144E+01    1.0680676873956971E+01   -5.5505002904323995E+00
Cs    1.2531762443626388E+01   -9.4375630987639916E+00    6.4496170409448315E+00
Cs    6.1721073993206099E+00   -6.3556986060700469E+00   -1.0855514430709697E+01
Cs    7.4349822266408632E+00   -9.5913905639024364E+00    6.6852457828812248E+00
Cs   -4.8635951019780554E+00   -1.1617969297728090E+01    8.1882399740047074E-01
Cs    6.6469183755252894E+00   -1.0720274259984732E+01   -1.1998141540972322E+01
Cs    1.0850936008676085E+01    6.4554080345305955E+00   -7.4925852549823828E+00
Cs    1.0647707796404182E+01    1.2492606019407161E+01    4.3321560050646326E+00
Cs    9.9870301131272434E+00    5.6381280909765463E+00   -1.2886700132607952E+01
Cs    3.9679701718311416E-01   -6.3262060009906236E+00   -1.1186354267275073E+01
Cs   -1.1836070683943353E+01   -1.4837353802458790E+00   -5.2156124653566280E+00
Cs    7.1883950692371217E+00   -3.3637462006717649E+00    1.3308196926822461E+01
Cs    1.2823916865688084E+01   -4.8356556350515332E+00    5.7038840458257623E+00
Cs   -1.1530715586100563E+01   -1.0846072126125030E+01    1.2032908911686492E+01
Cs   -1.0859360828867004E+00   -1.7326801537803889E+00   -1.2238870408203750E+01
Cs   -1.4141680901686215E+00    1.1556037646803849E+01    4.7687151584476268E+00
Cs    1.7787159801381298E-02    4.9568078765516113E+00   -1.2567074104616980E+01
Cs    6.4483659869464276E+00   -3.1728563062720794E-01   -6.1219948280783631E+00
Cs    7.3652224244034548E+00   -6.6483451469982979E+00   -5.4482754446526549E+00
Cs   -4.1400401890390466E+00   -1.2067314077842015E+01    7.9297556267751776E+00
Cs   -1.0365625459866155E+01   -3.9331728263968024E-01    6.4515489610538257E+00
Cs    5.4587356125920916E+00    2.7076455160506324E-01   -1.1351392801502794E+01
Cs    4.4655877884262516E+00    1.0910072969374495E+01   -1.2345180000521989E+01
Cs   -1.1545082996816916E+00    6.6287792039641475E+00    1.0524868237238259E+01
Cs   -6.3016104202914072E+00    1.1559408188073467E+01    4.6477447446905318E+00
Cs    4.6330807071619864E+00    1.1351103665109845E+01   -7.2572488585851680E+00
Cs    5.4853067608484496E+00    6.0078085323367629E+00   -7.5624225407678756E+00
Cs    5.8376046962118737E+00    2.1250486672561245E-01    4.5919207012977070E-01
Cs    6.9853299408214902E+00   -6.2077967033101675E+00   -2.6482430356710843E-02
Cs    6.7924956350713828E+00   -1.1232321432934732E+01    4.1041064078239337E-01
Cs    5.0437486616031295E+00    4.8357667436860812E+00   -1.2274712134850777E+01
Cs   -6.2390380606378066E+00    6.0833075657974263E+00    5.6982938724426937E+00
Cs   -5.7204190014772820E+00   -7.1623191130315575E+00   -1.0328696338814659E+01
Cs    5.3091667752516027E+00    6.8284075601091603E+00   -6.3489054854137994E-01
Cs    6.6194664552194720E+00    9.5377033130245203E-01    6.0940592038491177E+00
Cs    7.6195269631130556E+00   -4.5237391578416526E+00    6.8974590235073077E+00
Cs   -6.9450897816820234E+00    1.1372350276319644E+01   -1.0084498773222930E+00
Cs    1.1112681763975090E+01    9.4758214684640985E-01   -3.9094950046184873E-01
Cs   -6.1888805548553751E+00   -7.5508647047112432E-01    6.1069746366561352E-02
Cs   -1.1266420084196261E+01    5.7888670567525908E+00    6.2863830629220123E+00
Cs   -5.5200070871880031E+00    1.3146975569284383E+00    1.1961816246256323E+01
Cs    4.5902452524581099E+00    1.3024747711938343E+01    4.0413987516238796E+00
Cs    5.2878493487171623E+00    7.0677741283914575E+00    3.8666625733032260E+00
Cs    7.1279152816961533E+00    2.5347368940930095E+00    1.1974121606856681E+01
Cs    4.2956849552492065E+00    1.2294950196307781E+01   -1.0009233906225881E+00
Cs    1.1440186148506774E+01    2.5222927685651025E-01   -5.5816425865601893E+00
Cs    1.1992173146454045E+01   -6.5686665024784254E+00   -5.9560012479873539E+00
Cs    7.1924444430170320E+00   -9.7072335774251055E+00    1.2494018074353891E+01
Cs    1.0544204823886034E+01    1.1844747623126690E+01   -2.0157630204934605E+00
Cs   -1.1512601491078721E+01    1.3659636649190990E-02    1.1461071898303480E+01
Cs   -7.2599150351349344E+00    4.7702395810262557E+00   -1.2107395236809033E+01
Cs   -1.2673643319636220E+01    1.0818253557404370E+01   -8.2928279706788821E-01
Cs   -4.2923952565754959E+00   -4.6359266140886408E+00    1.2346222732142072E+01
Cs   -4.7287055271599128E+00   -9.9690083765813036E+00    1.3554570755175702E+01
Cs    5.4898445040209163E+00    7.4249105883455666E+00    1.0089858358498875E+01
Cs    1.2378733303801370E+01   -5.5098125216147311E+00   -4.8534914229928072E-01
Cs   -1.0809037325219739E+01   -8.6988782166217882E-01    5.2472699464906170E-01
Cs   -6.7436748690314854E+00    9.6980705789614792E+00   -1.1845673092048402E+01
Cs   -1.1902590278896843E+01    4.6642676764602742E+00    1.5010514594234964E-01
Cs   -1.1953237804171327E+01   -1.2230119038066750E+01   -3.8220488486917796E+00
Cs   -1.1044276330304612E+01   -6.2078176035309651E+00    8.4416799966258782E-01
Cs   -5.2973692021693797E+00   -6.0009184559024842E+00    1.0073550375908393E+00
Cs   -1.0505702758210568E+01   -1.2220574474208217E+01    6.8403388967422671E+00
Cs    1.2694638920815947E+01   -4.0349088659020378E+00    1.1325555664198278E+01
Cs    1.0570182255763481E+01    7.1388736432358053E+00    5.0981215399615873E+00
Cs   -1.2599595171479354E+01    4.6092908818683096E+00   -6.6477378780313590E+00
Cs   -5.2140544773667425E+00   -1.2176480723558616E+00   -5.6370744475559009E+00
Cs   -1.0830200968309871E+01   -1.2494452784741735E+01    1.2557055486347899E+00
Cs    1.1268332805103391E+01   -6.4377932039641053E+00   -1.2571768531665407E+01
Cs   -5.7974407829875592E+00   -1.2424927728236014E+01   -9.7954193175590589E+00
Cs   -1.3177798707924011E+00    1.0928963619893644E+01   -1.1468221802900949E+01
Cs    5.6640740214673613E-01   -1.2050551246306924E+01   -1.0469488415364767E+01
Cs   -7.8621719920967981E-01    1.0771310379504994E+01   -6.5518091134938725E+00
Cs   -6.4236548549308861E+00    1.2190224627510988E+01    9.8534186270148236E+00
Cs    1.2744191587895781E+00   -1.1202813300160955E+01    1.1751966490735579E+00
Cs   -1.1648773350350162E+01   -2.1233666745240245E+00   -1.0681727402345265E+01
Cs   -1.2328838688452185E+01    1.1891871727737723E+01    6.1284057133076928E+00
Cs    6.6138668007743799E+00   -1.2217450953952405E+01   -7.1938210152880924E+00
Cs    1.1483108828449399E+01   -1.2458466968692032E+00   -1.2382620867105080E+01
Cs   -3.0696978522233614E-01    1.2162602144296256E+01    1.0931645542234239E+01
Pb    3.1452825458797702E+00   -3.4244153278880956E+00   -3.1485611238607616E+00
Pb    3.6984786788379482E+00   -9.0415838630962142E+00   -2.2569785724158544E+00
Pb   -8.2666348020969984E+00   -3.4046907320825692E+00    4.0141131401883090E+00
Pb   -2.3841682920463363E+00   -9.4086583701897872E+00   -2.1318348666716513E+00
Pb    2.0879254002676841E+00    8.5973621141431043E+00   -3.8675776927740255E+00
Pb    2.8006796869148580E+00    2.7913037301401444E+00   -3.3063748756898952E+00
Pb    3.9203799780601232E+00   -2.5218659552899814E+00    2.8592000731962290E+00
Pb    4.0302553730736719E+00   -8.4084165133969098E+00    3.5097442117947879E+00
Pb   -3.7656215966986073E+00    8.5028218603710837E+00    1.7978181552186636E+00
Pb    2.0518913649741348E+00    9.3178542714751487E+00    2.2644860410480456E+00
Pb    2.7210140753375849E+00    3.2320162215411008E+00    2.4038228711149388E+00
Pb    3.7233414029080807E+00   -1.8946749585697438E+00    9.0861767731136105E+00
Pb    4.2757693801950616E+00   -7.6293154633368543E+00    9.7525980125066347E+00
Pb   -3.4230223491275917E+00    2.6794811524220341E+00    2.7314956468760250E+00
Pb    2.1362135338373016E+00    9.6097032809548910E+00    7.9818463012441558E+00
Pb    3.3338302188973681E+00    3.7698532423523270E+00    8.2760020661702924E+00
Pb   -2.0447002954684166E+00   -2.6973718832553328E+00    9.2979586061509476E+00
Pb   -7.6671104941620607E+00   -9.3989449363521445E+00    4.3075022174582651E+00
Pb   -9.4782316344401512E+00    1.7788434443678769E+00   -2.6711767328648737E+00
Pb   -2.6889341424577800E+00   -3.9928414769635068E+00   -8.3269497833856363E+00
Pb   -1.9045360832195761E+00   -8.8283756875214969E+00    4.0382438571498289E+00
Pb   -4.0173169618787039E+00    8.0365592403234150E+00   -3.9854827343047945E+00
Pb   -1.9406988072504738E+00   -8.4791221681466045E+00    9.7049381785432018E+00
Pb   -8.3966283634563617E+00   -4.0387019260550474E+00   -2.0320644209311904E+00
Pb   -8.1745066667087762E+00   -9.6398329174514270E+00   -1.5403957955550862E+00
Pb   -3.5123408478078089E+00    2.1395609390676897E+00   -3.2940739984047931E+00
Pb   -7.7562043718793747E+00   -8.7344822967186122E+00    1.0291881799178418E+01
Pb   -8.6301927875597322E+00   -3.8805706882356588E+00   -8.0489365128988322E+00
Pb    9.5001380363970149E+00   -3.0559555138730508E+00   -9.1688426033624442E+00
Pb    9.5763516583870860E+00   -8.8720114238455103E+00   -9.1966286677569862E+00
Pb   -2.5243374756555625E+00   -9.8714475054116289E+00   -8.0310688757553610E+00
Pb   -1.0033895501246413E+01    7.4988035826522843E+00   -9.1537497649949362E+00
Pb    3.2482293982128621E+00   -3.0636925621533830E+00   -9.0437373425151755E+00
Pb    3.4724811618662152E+00   -9.3318370630852492E+00   -8.1957073806039009E+00
Pb   -3.7938465256000549E+00    1.8944366357081135E+00   -9.5700625455692307E+00
Pb    2.0062898245697784E+00    8.3942058610685955E+00   -9.9168560776657220E+00
Pb    2.5006986645267277E+00    2.8737966389462870E+00   -9.2281881343937062E+00
Pb    9.1118513700593571E+00   -3.2882450627586772E+00   -3.2486868052562836E+00
Pb    9.7326638126599132E+00   -9.3385798823489008E+00   -2.9336950674003575E+00
Pb   -7.8607898024401281E+00   -2.7217611586106929E+00    9.9639383143746727E+00
Pb    7.7015436191296329E+00    8.7863858167209941E+00   -1.0192363736481392E+01
Pb   -9.7279417393967123E+00    1.7461066037388082E+00   -8.8799414121416085E+00
Pb   -3.8706419639792391E+00    9.3098076604153004E+00    7.4305857596799036E+00
Pb    8.0098334302342291E+00    9.2860086969430302E+00   -4.1980164485352489E+00
Pb    8.8278172947935882E+00    3.2524463358323885E+00   -3.6511660776512258E+00
Pb    9.9367165220880977E+00   -2.2072350709712127E+00    2.6445953456969793E+00
Pb    1.0084452915389132E+01   -8.0212938651409100E+00    3.0384336062711941E+00
Pb    8.5266916824825216E+00    2.5990546392461642E+00   -9.6205240452170955E+00
Pb   -3.4582261039043845E+00    3.4069364838607168E+00    8.4226100588099850E+00
Pb    8.0007614518957713E+00    9.9446199354594498E+00    1.4738021096146483E+00
Pb    8.5161264195487689E+00    3.8947558588251785E+00    2.4432217370550600E+00
Pb    9.9265480084668543E+00   -1.5982920702255923E+00    8.9758826493234860E+00
Pb    1.0227098171282089E+01   -7.4449441813213637E+00    1.0039151436762065E+01
Pb    7.8523809769284050E+00    1.0319091597046327E+01    7.6277386420383788E+00
Pb    9.1761330935173380E+00    4.2700846313652887E+00    8.2714899387733141E+00
Pb   -9.2091515721006036E+00    3.3851931691992752E+00    9.5193737292075582E+00
Pb   -2.1670509076551454E+00   -2.8767096217471875E+00    3.3230590232302877E+00
Pb   -9.6741568026265465E+00    8.6942750811686125E+00    2.7447849245194504E+00
Pb   -9.8608266211914284E+00    7.7735739145176010E+00   -3.0676892425392821E+00
Pb   -8.4894752923976906E+00   -9.8638054171096812E+00   -7.3777411241162989E+00
Pb   -3.7146058299617781E+00    7.7628198245623432E+00   -9.6501165500849400E+00
Pb   -9.1620759868160793E+00    2.6891907521100804E+00    3.4561728568522154E+00
Pb   -9.7310624345115144E+00    9.5049577281604822E+00    8.8001094628151542E+00
Pb   -2.7206337371776312E+00   -3.5816683089295900E+00   -2.3471018879026198E+00
Br    2.8230674563073405E-01   -3.5837919259040083E+00   -2.4312514881418745E+00
Br    2.8538077200057304E+00   -2.8846051026024493E+00   -6.1611091992742661E+00
Br    3.1092509766504626E+00   -5.7749639881047321E-01   -3.0931128636006364E+00
Br    6.6113640845414900E-01   -8.4877837167324159E+00   -2.3879392644437676E+00
Br    3.6238775905493683E+00   -9.3466103491479995E+00   -5.3351320788723617E+00
Br    4.0018349999540499E+00   -6.1640779011614368E+00   -2.4577201158970743E+00
Br   -2.8764713545951652E+00   -3.9480768642715742E+00   -5.4946042908780450E+00
Br   -8.8043083400953517E+00   -3.4762708910135691E+00    6.8864575203706693E+00
Br   -3.4677560457724916E+00   -5.6572896923368576E-01   -3.0760580344996380E+00
Br    2.7428261960305385E+00   -1.1580151173312622E+01   -1.9586661023687002E+00
Br    1.2835338395325930E+01   -1.5711185779815589E+00    2.0499753669209086E+00
Br   -5.2508380099879677E+00   -9.9057940168583993E+00   -2.3707447079424688E+00
Br   -1.1276174177957769E+01   -3.2234628722740468E+00    3.6504196056617864E+00
Br   -8.2063036521882005E+00   -3.5477074467320397E+00    9.1294617044668835E-01
Br    1.2709705046576142E+01   -7.3633922075522422E+00    3.4277380183980992E+00
Br   -8.6942537595721492E-01    8.5900078544619802E+00   -3.8585584171815972E+00
Br    1.8382821142586721E+00    8.8396878364408948E+00   -6.9357335716169910E+00
Br    8.5157852501557330E-01    1.1602955311079116E+01   -3.5767642686453320E+00
Br   -1.7736203879664889E-02    2.2938402675348804E+00   -3.5203427414088235E+00
Br    2.4670258208454108E+00    3.0580741267431146E+00   -6.5254291840917125E+00
Br    2.1508387790787959E+00    5.6932431446212028E+00   -3.3943236831107368E+00
Br    6.3404772446157276E-01   -3.6834777265002523E+00    3.5283435038929762E+00
Br    3.1162231574470307E+00   -3.0952768511960214E+00    1.0858050188515797E-01
Br    2.8795307726653023E+00    1.1468575545934737E-01    2.3559740234432067E+00
Br    1.1198688210969805E+00   -8.8472846230718556E+00    3.7850369242386335E+00
Br    3.8613463889824713E+00   -8.5926024709837279E+00    7.2929717736209665E-01
Br    4.2842600142178542E+00   -5.3329084464322571E+00    3.6676361421705086E+00
Br   -6.4099411682919332E+00    7.4894506702735093E+00   -9.1000893348023091E+00
Br   -4.4072257401084105E+00    7.2328020783234068E+00   -1.2648181151330018E+01
Br    3.8554154228670976E+00   -1.1349351801995422E+01    3.5089903364568751E+00
Br   -4.1830066165594948E+00    1.0842909069372000E+01   -9.9628026645802112E+00
Br   -3.3915069026574405E+00    4.5118085293768360E+00   -9.6975382113628203E+00
Br   -8.2278745208132911E+00   -3.8956550434912257E-01    3.8868204733358866E+00
Br   -1.9786674444928130E+00   -1.0208482919907349E+01   -4.9965179858942799E+00
Br   -6.5544042429393992E+00    7.9868544353295041E+00    2.5169977765248679E+00
Br   -4.2175282157743013E+00    8.4237076605396375E+00   -1.1517468141970224E+00
Br   -3.9580389795207265E+00    1.1392524103559172E+01    1.6310936101604372E+00
Br   -7.8189237088183217E-01    8.7267032682435541E+00    2.0360717291479431E+00
Br    1.9049279605880240E+00    8.5086280876456097E+00   -6.6757487669738325E-01
Br    2.2515847262347184E+00    1.2131336092044650E+01    2.2031582368181208E+00
Br   -2.1538262144356288E-01    3.8087212754477879E+00    2.2769141305542768E+00
Br    2.5660238294643185E+00    2.8487116509630339E+00   -5.4122347257204972E-01
Br    2.4416297749736824E+00    6.4209919247387903E+00    1.9699639146042611E+00
Br    6.9327358909286330E-01   -2.2210880990192354E+00    8.9188624785987329E+00
Br    3.9868792793746857E+00   -2.0217686935443955E+00    5.8653458434542385E+00
Br    3.2184311562716950E+00    7.4494750043734625E-01    8.0089661212499372E+00
Br    1.1640584526854780E+00   -7.9555036436188660E+00    9.8009930044328968E+00
Br    4.1383536803137515E+00   -7.9390322196578520E+00    6.6915949303790532E+00
Br    3.5666801378150463E+00   -4.7180118199899370E+00    9.5483913401674219E+00
Br   -1.1682201534276931E+01    1.4486374051568349E+00    2.5423947954628741E+00
Br   -8.5221757039053188E+00    2.4353259585011995E+00    4.1005686775602385E-01
Br    4.6828240894327635E+00   -1.0682920690744860E+01    9.4054083105348099E+00
Br   -9.4862825067079548E+00    5.6727497109844398E+00    3.5206446573684205E+00
Br   -8.0094932047624514E+00    2.8854542861339544E-01    9.4542238875461706E+00
Br   -2.5018262255279753E+00   -6.6697765482846894E+00   -2.4417109775770616E+00
Br   -6.1294324436176568E+00    2.5327395969814837E+00    3.2664962635659087E+00
Br   -3.2582105927993465E+00    2.4571887886367065E+00   -3.4162619764381347E-01
Br   -3.5508202713657666E+00    5.6352252502787925E+00    2.3946372559147027E+00
Br   -1.0246650543748093E+00    9.8775387024936432E+00    8.0939664541644731E+00
Br    1.5691579104609137E+00    8.7187169223007928E+00    5.0472979918211598E+00
Br    1.8048913988524222E+00    1.2253123329854008E+01    6.7031533646600190E+00
Br    2.9337345987548913E-01    3.6479807080331055E+00    8.5025316007069769E+00
Br    2.7631293153537633E+00    3.1660786685489626E+00    5.3799431938202984E+00
Br    3.1670127211616506E+00    6.6531801226617180E+00    7.8404448816558716E+00
Br   -5.1096181947990829E+00   -2.5894438389283891E+00    9.2056982364747260E+00
Br    4.2675424503072126E+00   -1.3451383687679084E+00    1.1977082865033660E+01
Br   -2.0252271823797976E+00   -2.1309970119741810E+00    6.3106097334485085E+00
Br   -3.2086949681249850E+00    8.6879552733295384E-01    9.5127757743324128E+00
Br   -2.3063721406197821E+00   -1.2422999217346216E+01   -1.5743746380140982E+00
Br    4.3968939081705667E+00   -7.3799527466625712E+00    1.2426934368907657E+01
Br   -1.2126898845291151E+01    9.5728372988027022E-01   -1.8909555520952908E+00
Br   -1.8231829353294549E+00   -1.1779785213382034E+01    5.1973282054030978E+00
Br   -1.1406750790751181E+01   -4.3732020355013939E+00   -2.2434283751026771E+00
Br    2.0216482968303793E+00    9.5646909525875170E+00    1.0797247207370290E+01
Br   -8.5274618858019373E+00   -3.6429464663891524E+00   -5.2492976976761812E+00
Br   -8.5851521658437999E+00   -1.1529898962009997E+00   -2.3818154334191184E+00
Br    3.3474173113230363E+00    3.9396875876052353E+00    1.1348941763237619E+01
Br   -6.9114141230715465E+00    7.0793996443442424E+00   -3.4088309063143818E+00
Br   -3.3048346768818773E+00    7.8941248243766449E+00   -6.8205101838102005E+00
Br   -4.9978285105613107E+00    1.0746010755524301E+01   -4.3966779752900988E+00
Br   -6.2876925850424499E+00    2.2488957008048942E+00   -3.0777979549610111E+00
Br   -1.0698402129995896E+01   -1.0065484683047016E+01    4.5748135603769375E+00
Br   -2.7638761164123511E+00    2.3128751781960135E+00   -6.5126762503494122E+00
Br   -5.6553297106471465E+00   -4.0657482266113885E+00   -8.1538032608475213E+00
Br   -3.0061399302259888E+00   -4.6929355350060860E+00   -1.1157744548755900E+01
Br   -2.6150715462640330E+00   -8.5599165266747146E-01   -8.3605902946059611E+00
Br   -3.3606610820722294E+00    4.5539579908094074E+00    1.1144064043135575E+01
Br   -4.9161770742702195E+00   -8.3869739250971787E+00    9.9393828485505669E+00
Br   -2.1632830390621236E+00   -8.2223039680157335E+00    6.7811976404328771E+00
Br   -2.0810214696677924E+00   -5.5453340289630635E+00    9.6132406303309974E+00
Br   -7.8073451128845219E+00   -9.6920650472256860E+00    1.4136642000147239E+00
Br   -8.1171974511086074E+00   -6.2860842908784358E+00    4.1679753854416859E+00
Br   -8.5036752305031964E+00    1.0046771591997459E+01    1.1456774166213634E+01
Br    1.0939336883607838E+01    1.0942371401421561E+01    1.2106818841108042E+00
Br   -8.1363519303497860E+00   -8.3698648850010713E+00    1.3228189431285863E+01
Br    1.0427699489317408E+01    1.0234841486893524E+01   -4.8872339621824530E+00
Br    1.1612421935435286E+01    4.5414247084561836E+00    2.3209388107788165E+00
Br   -8.7430984501995468E+00    2.6328894348125838E+00    1.2302033387422448E+01
Br   -1.1377252423609574E+01   -4.8891368308323511E+00   -8.4880256215050327E+00
Br    1.2841386686828164E+01   -1.7685808799260785E+00    8.4387741825654370E+00
Br   -4.7381615688209164E+00   -9.0659373979505933E+00    3.2292531494282217E+00
Br    6.2852271610697841E+00   -2.4524594354120097E+00   -9.1728862505019730E+00
Br    9.1107409860026021E+00   -4.0543653361508021E+00   -1.2193699173338388E+01
Br    1.3037902378400787E+01   -7.5575913782799438E+00    9.6826122781639015E+00
Br    9.3413747062225010E+00   -2.1945806958757902E-01   -9.7813649550551656E+00
Br   -8.4522905959847030E+00   -1.1581335605143435E+01    1.0281491719780075E+01
Br   -1.6201491603741991E+00   -9.5179022509745632E+00    7.4557764293926787E-01
Br   -2.2654073045319025E+00   -5.8897313510814708E+00    3.3966592583348976E+00
Br    6.4461264055731959E+00   -8.7639673412339256E+00   -8.5267548774045174E+00
Br   -5.5445847603224996E+00   -9.6009455749762527E+00   -7.7165459514296426E+00
Br    8.6306321236251335E+00   -8.4921450145931292E+00   -1.1875750261906683E+01
Br    9.1155574386933971E+00   -5.9819765051208478E+00   -8.8614962518920546E+00
Br   -2.0019975101448977E+00   -1.1213856598165833E+01    1.0419535568190616E+01