 # Version information for this restart file 
 # current date 2021-06-17 12:43:09.577
 # current working dir /user/ub2042/exercises/2_fitting/MM_MD_workdir/md_settings.004
 # Program compiled at                              Thu Apr 22 21:44:59 EDT 2021
 # Program compiled on                cpn-k07-07-02.compute.cbls.ccr.buffalo.edu
 # Program compiled for                                                    local
 # Source code revision number                                       git:36754bb
 &GLOBAL
   PRINT_LEVEL  LOW
   PROJECT_NAME cp2k
   RUN_TYPE  MD
 &END GLOBAL
 &MOTION
   &MD
     ENSEMBLE  NVT
     STEPS  10000
     TIMESTEP     2.4999999999999996E+00
     STEP_START_VAL  6500
     TIME_START_VAL     1.6249999999999092E+04
     ECONS_START_VAL    -1.4028929475949734E+01
     TEMPERATURE     3.0000000000000000E+02
     &BAROSTAT
       PRESSURE     1.0100000000000000E+00
       TIMECON     9.9999999999999982E+03
     &END BAROSTAT
     &THERMOSTAT
       TYPE  CSVR
       &CSVR
         TIMECON     9.9999999999999982E+03
         &THERMOSTAT_ENERGY
              -1.8875988002301064E-01
         &END THERMOSTAT_ENERGY
         &RNG_INIT
Wiener process for Thermostat # 1        1 F T F  -2.3128527479914282E-01        1729520286.0         791701394.0        1751649578.0        1556234409.0        3197624234.0        4093563390.0             12345.0             12345.0             12345.0             12345.0             12345.0             12345.0             12345.0             12345.0             12345.0             12345.0             12345.0             12345.0
         &END RNG_INIT
       &END CSVR
     &END THERMOSTAT
     &AVERAGES  T
       &RESTART_AVERAGES
         ITIMES_START  1
         AVECPU     1.7440484019677051E-02
         AVEHUGONIOT     0.0000000000000000E+00
         AVETEMP_BARO     0.0000000000000000E+00
         AVEPOT    -1.4412691681782039E+01
         AVEKIN     4.8222718250557156E-01
         AVETEMP     2.4461866468261132E+02
         AVEKIN_QM     0.0000000000000000E+00
         AVETEMP_QM     0.0000000000000000E+00
         AVEVOL     6.7483345830909889E+06
         AVECELL_A     1.8897261328855731E+02
         AVECELL_B     1.8897261328855731E+02
         AVECELL_C     1.8897261328855731E+02
         AVEALPHA     9.0000000000000000E+01
         AVEBETA     9.0000000000000000E+01
         AVEGAMMA     9.0000000000000000E+01
         AVE_ECONS    -4.6641540992614399E+00
         AVE_PRESS     0.0000000000000000E+00
         AVE_PXX     0.0000000000000000E+00
       &END RESTART_AVERAGES
     &END AVERAGES
     &PRINT
       &ENERGY  SILENT
         &EACH
           MD  10
         &END EACH
       &END ENERGY
     &END PRINT
   &END MD
   &PRINT
     &TRAJECTORY  SILENT
       &EACH
         MD  10
       &END EACH
     &END TRAJECTORY
     &CELL  SILENT
       &EACH
         MD  10
       &END EACH
     &END CELL
     &VELOCITIES  SILENT
       &EACH
         MD  10
       &END EACH
     &END VELOCITIES
     &FORCES  SILENT
       &EACH
         MD  10
       &END EACH
     &END FORCES
     &RESTART  SILENT
       &EACH
         MD  10
       &END EACH
     &END RESTART
   &END PRINT
 &END MOTION
 &FORCE_EVAL
   METHOD  FIST
   &MM
     &FORCEFIELD
       VDW_SCALE14     1.0000000000000000E+00
       EI_SCALE14     1.0000000000000000E+00
       SHIFT_CUTOFF  T
       DO_NONBONDED  T
       IGNORE_MISSING_CRITICAL_PARAMS  T
       &SPLINE
         R0_NB     2.5000000000000000E-01
       &END SPLINE
       &NONBONDED
         &LENNARD-JONES
           ATOMS Br Br
           EPSILON     1.2630795322675199E+02
           SIGMA     3.6900000000000004E+00
         &END LENNARD-JONES
         &LENNARD-JONES
           ATOMS Cs Pb
           EPSILON     8.6920055954630968E+01
           SIGMA     3.6699999999999999E+00
         &END LENNARD-JONES
         &LENNARD-JONES
           ATOMS Cs Cs
           EPSILON     2.2644852172126850E+01
           SIGMA     4.3300000000000001E+00
         &END LENNARD-JONES
         &LENNARD-JONES
           ATOMS Pb Pb
           EPSILON     3.3363415533600227E+02
           SIGMA     5.9000000000000004E+00
         &END LENNARD-JONES
         &LENNARD-JONES
           ATOMS Br Cs
           EPSILON     5.3481070753900497E+01
           SIGMA     3.6300000000000003E+00
         &END LENNARD-JONES
         &LENNARD-JONES
           ATOMS Br Pb
           EPSILON     2.0528187276773045E+02
           SIGMA     2.9800000000000000E+00
         &END LENNARD-JONES
       &END NONBONDED
       &CHARGE
         ATOM Cs
         CHARGE     4.1739999999999999E-01
       &END CHARGE
       &CHARGE
         ATOM Pb
         CHARGE     8.3479999999999999E-01
       &END CHARGE
       &CHARGE
         ATOM Br
         CHARGE    -4.1739999999999999E-01
       &END CHARGE
     &END FORCEFIELD
     &POISSON
       PERIODIC  XYZ
       &EWALD
         EWALD_TYPE  SPME
         GMAX  62 62 62
         O_SPLINE  4
       &END EWALD
     &END POISSON
     &PRINT
       &FF_INFO  LOW
         SPLINE_INFO  F
         SPLINE_DATA  F
       &END FF_INFO
     &END PRINT
   &END MM
   &SUBSYS
     &CELL
       A     1.0000000000000001E+02    0.0000000000000000E+00    0.0000000000000000E+00
       B     0.0000000000000000E+00    1.0000000000000001E+02    0.0000000000000000E+00
       C     0.0000000000000000E+00    0.0000000000000000E+00    1.0000000000000001E+02
       PERIODIC  XYZ
       MULTIPLE_UNIT_CELL  1 1 1
     &END CELL
     &COORD
Cs   -3.6987806749575730E-01   -8.9820373134389475E-01   -6.4626946257772291E+00
Cs    9.3669731590576344E-01   -6.4293829312141142E+00   -5.3619899866416878E+00
Cs    7.4650120641821438E-01   -1.2706526361064457E+01   -4.0804044261665151E+00
Cs   -6.5949163958094186E+00   -6.6772889649277110E+00   -4.9480863787854332E+00
Br   -7.0718487492908970E+00   -1.3628596690465359E+01   -6.5495445478452599E+00
Br    1.1118129961281106E+01   -2.2517109949062402E+00   -9.8208884608998481E+00
Br   -2.6744313335673211E+00    9.1810718418667392E-01   -1.2217364652763694E+01
Cs   -1.2023077030942606E+00    5.1882733443665083E+00   -6.8255176763245196E+00
Cs    2.6690347150131338E-01    3.3192996065882485E-01    3.1585685871210617E-01
Cs    1.1298452413750437E+00   -5.4795907716013783E+00    7.3953349696928761E-01
Br   -5.8145165306010398E+00   -3.0081632509302927E+00    3.7513337866002829E+00
Cs   -9.3557297129539805E+00   -6.4586509246165118E+00    1.3409424807172355E+01
Cs    1.2919216397083037E+01   -1.0274538410127544E+01   -3.5307323147431680E-01
Cs   -6.2727822298136191E+00    5.8173661127925209E+00   -6.8763826334118805E-01
Cs   -1.0478638743195774E+00    1.1852346430290474E+01   -1.2897951981427205E+00
Cs   -3.5161028894760255E-01    5.7886852547005798E+00   -6.2289263820042984E-01
Cs   -2.6764025480431353E-01    5.2251596906617326E-01    5.7114751889966575E+00
Cs    7.1392318461792270E-01   -5.2470647849603163E+00    6.4987168264366577E+00
Cs    2.1594215709357032E+00   -1.1535788508857294E+01    7.9165853054818136E+00
Cs   -5.8639281786597364E+00    6.4573740839117475E+00    1.0357056525610989E+01
Cs   -5.4177331215379709E+00   -1.4853021565864089E+00   -1.1185116924887270E+01
Cs   -5.1082685299501032E+00   -1.2156838346504591E+01   -4.2117231464925222E+00
Cs   -4.8876326085372872E+00    7.0261583315201015E-01    6.3155356855200040E+00
Br   -3.1009132219445728E+00   -2.9691786800404887E+00    5.2250693056701247E-01
Cs   -1.5924255683628621E-01    6.4103226697533557E+00    5.0167114488409235E+00
Br    1.2215076582405619E+01   -7.9840749452886799E+00   -8.3554478868624749E+00
Cs    1.4727039999584368E+00   -4.8238586380687778E+00    1.1872438521686671E+01
Br   -2.8683686598798657E+00    1.0860462038855538E-01    3.1504630030377139E+00
Br   -7.6063326830856077E+00   -3.7456624640275629E+00    1.2539252225852572E+01
Cs    1.0064916272878575E+01    1.2298672477086956E+01   -7.9557619547900913E+00
Cs   -9.9261544503016346E+00   -7.1569090607828070E+00    7.3131397466022756E+00
Cs   -5.3833393422052316E+00   -5.8211019233638197E+00    6.4528879097969636E+00
Cs   -6.8176357685286684E+00    1.0220543334698991E+01   -6.0336740708494894E+00
Br   -9.9254313809964856E+00   -9.5712254939190160E+00    1.1008537512857171E+01
Br   -6.8344980378354530E+00   -9.0205015352542262E+00    7.3305167158551736E+00
Cs   -1.1560191457746242E+01   -7.3812084579007795E+00   -4.0470076966623827E+00
Cs   -6.5375933844763638E+00    5.0829441152199548E+00   -6.7446402543762867E+00
Br   -7.7809926671471583E+00   -6.4526330616269796E+00    9.6143576648877733E+00
Cs    1.1558446705184334E+01    8.4955898985489871E+00    9.3020759767529242E+00
Br   -1.1981977669214489E+01    7.7604353227048906E+00    7.3969765252546305E+00
Br   -6.1673673904168105E+00   -3.2391098693599392E+00   -1.6966372348302077E+00
Cs    6.9718838534824645E-01    1.1977622318636940E+00    1.1633261097411506E+01
Cs    1.0536598200107584E+01    7.0486692489807288E+00   -1.5319400560551546E+00
Cs   -1.2944890343917452E+01   -8.9330641095811210E+00   -8.6962507587657214E+00
Cs    1.1317261080905324E+01    1.0127408505886932E+00    5.5120184416617928E+00
Cs   -1.2795669286344355E+01    9.8923526730346314E+00   -6.7922864728983035E+00
Cs    1.3275015626604937E+01   -9.3854667883159006E+00    5.5756774438547492E+00
Cs    5.6058173885314151E+00   -6.2086535099887357E+00   -1.0732369523084238E+01
Cs    6.7641854914887620E+00   -9.9286828928030104E+00    6.9717949307433624E+00
Cs   -4.4987707488913955E+00   -1.1275510007185204E+01    1.4111102990647579E+00
Cs    7.4095247044253529E+00   -1.2152863516053694E+01   -1.0548659920308745E+01
Cs    1.0804891782580670E+01    6.9261770916728391E+00   -6.6932250705188521E+00
Cs    1.1706350674475569E+01    1.3064237024157880E+01    4.6477104182112337E+00
Cs    1.0723799071739897E+01    5.9785073650104694E+00   -1.1453788713284421E+01
Cs   -4.2390554491329557E-01   -6.6631995875440131E+00   -1.0668077405005979E+01
Cs   -1.1243621442980526E+01   -2.0195396062368505E+00   -6.0001509872773555E+00
Cs    7.4478872020055045E+00   -4.3521716751110313E+00    1.2511202743665878E+01
Cs    1.2786100991131576E+01   -3.6759649463197253E+00    5.5086673831456103E+00
Cs   -6.8312601789226415E+00   -1.1997501043811191E+01    1.5059812027406920E+01
Cs   -5.4658680821214523E-01   -1.9781855119382405E+00   -1.2318183046535534E+01
Cs   -5.9385116929637061E-01    1.1426812219718167E+01    4.8535987091586801E+00
Cs   -4.9877267040558931E-01    4.4480429018384404E+00   -1.1751051932828981E+01
Cs    5.3766001535361827E+00    2.6521997314472506E-01   -5.8120914937389268E+00
Cs    6.3882871307041862E+00   -5.1015844412636069E+00   -5.3153598110850142E+00
Cs   -4.1745180681079761E+00   -1.1992727545732821E+01    6.3908783657249835E+00
Cs   -1.0730998309516419E+01   -7.9867215785834922E-01    7.3163953904792365E+00
Cs    5.0823419760484683E+00   -6.9024082498279904E-01   -1.2386063237432015E+01
Cs    4.9034015816374312E+00    9.7665069376399529E+00   -1.3176053730671654E+01
Cs    5.0600087909968594E-01    6.9930439665608715E+00    1.1638824970174250E+01
Cs   -7.3271135650244554E+00    1.1976997258600816E+01    4.9949661731550385E+00
Cs    4.3671769421851225E+00    1.1562699949503514E+01   -7.6339200851480520E+00
Cs    5.1812667248277622E+00    5.9062776303538671E+00   -7.1084156127109042E+00
Cs    5.8502977006074532E+00    1.6409209442420239E-01   -3.3714011512945352E-01
Cs    6.2201788040063866E+00   -5.8595695320445680E+00    3.6402324455683027E-01
Cs    7.3657803099022550E+00   -1.0850336816676819E+01    6.9656952716235776E-01
Cs    4.7684576418888289E+00    5.0007659914082492E+00   -1.1964196825703073E+01
Cs   -5.6000172391642256E+00    6.0602191577134574E+00    5.3411054143634269E+00
Cs   -6.6672324028744230E+00   -8.4182889657928097E+00   -1.1161212798385559E+01
Cs    5.5337169317730153E+00    6.5627733554238556E+00   -7.8078916717050417E-01
Cs    5.8363178900201467E+00    1.7414467059058902E+00    6.1903825357844964E+00
Cs    6.8307691091449696E+00   -4.1466218396416679E+00    5.4740119911336285E+00
Cs   -6.5444035607006850E+00    1.0836570674000932E+01   -8.6806689477888210E-01
Cs    1.1092749225833879E+01    1.6961442562893503E+00   -4.5328609402137959E-01
Cs   -5.4329082628319600E+00   -8.9558468808068825E-01    4.2385597036081368E-01
Cs   -1.1909524392914459E+01    5.1727118134607224E+00    5.2989198794700769E+00
Cs   -5.8365056229408365E+00    1.3926433259827899E+00    1.1727884533159425E+01
Cs    4.3153231236587137E+00    1.2881931828797940E+01    3.9768564164950027E+00
Cs    6.2467196226054220E+00    7.4000872818282195E+00    4.8812932103872688E+00
Cs    5.1508276533319632E+00    2.2800858575993739E+00    1.1499844302140977E+01
Cs    4.9162751250490500E+00    1.2499776434346796E+01   -1.3064222039598301E+00
Cs    1.0992381752843727E+01    8.0537593198285873E-01   -6.3116236583260967E+00
Cs    1.2740366612967289E+01   -6.2807705560115128E+00   -5.6344598287306793E+00
Cs    6.8819249072914719E+00   -9.3785576856380963E+00    1.2474086539291939E+01
Cs    1.0186763765410026E+01    1.3267871833984154E+01   -1.8811429513257028E+00
Cs   -1.1128074064219717E+01   -2.3857881215701243E-01    1.1518351121408465E+01
Cs   -8.1110290958036000E+00    3.6192392398663391E+00   -1.1668245830247995E+01
Cs   -1.1956048879226451E+01    1.0269635542062836E+01   -9.9292491177373610E-01
Cs   -4.4139072125339771E+00   -5.1682383340053022E+00    1.2368130560048810E+01
Cs   -1.2389186939490717E+00   -1.0624525662327633E+01    1.2894572104128665E+01
Cs    6.8196403161156329E+00    8.3301900160846056E+00    1.0618818545462876E+01
Cs    1.1727737959755073E+01   -4.4941833088607162E+00   -2.7651208571408037E-01
Cs   -1.1278045264655109E+01   -6.4684490823274310E-01    1.0772836510640331E-01
Cs   -7.9018704003666942E+00    9.7417243984585085E+00   -1.2752306737709549E+01
Cs   -1.1343411171564119E+01    4.4419970312358803E+00    4.8817606335308850E-01
Cs   -1.0635249417320935E+01   -1.3153867593370707E+01   -3.5947009345061729E+00
Cs   -1.1175311551983178E+01   -7.4071282755529948E+00    1.9195405211948637E+00
Cs   -5.6133370870018995E+00   -6.8762387304091428E+00    6.7732729259614533E-01
Cs   -9.8528499238768017E+00   -1.2808201605513537E+01    7.3154762939608995E+00
Cs    1.3351379162099400E+01   -3.1055346372040757E+00    1.1084487171416807E+01
Cs    1.0775720018362488E+01    7.2183660346253182E+00    5.3955280228591391E+00
Cs   -1.1541541132363463E+01    4.1349995436106646E+00   -6.3501769855681367E+00
Cs   -6.4861281578457035E+00   -3.8503334956617546E-01   -5.4906416221250085E+00
Cs   -9.0243319267313087E+00   -1.3448866644990181E+01    1.9753260506672650E+00
Cs    1.1226897768482168E+01   -5.4474776938077287E+00   -1.0828207214016150E+01
Cs   -5.8043003991301489E+00   -1.3499563087812794E+01   -9.6531281816551520E+00
Cs   -1.7612768742598894E+00    9.1967689749215005E+00   -1.3569212932165012E+01
Cs    7.8444723090334090E-01   -1.3384699136170614E+01   -9.6850633162962545E+00
Cs   -9.8490989654011363E-01    1.0508668656415272E+01   -7.3412877387595765E+00
Cs   -6.3443343501737548E+00    1.2017219202167658E+01    9.9103189772368108E+00
Cs    6.5710183397199629E-01   -1.1530899689394703E+01    1.0582180050595722E+00
Cs   -1.0946103556447291E+01   -2.9095914497440925E+00   -1.1902676027485921E+01
Cs   -1.2023398449127475E+01    1.0736794318577651E+01    5.0099927543564888E+00
Cs    6.4455871477029625E+00   -1.0877436313405024E+01   -4.9951798275242965E+00
Cs    1.0894259164531052E+01    9.6649858780391973E-01   -1.1565707403038434E+01
Cs    9.0274169711156860E-01    1.3622192213868944E+01    1.0130405523873547E+01
Pb    2.9191202575751367E+00   -3.0485265715819789E+00   -2.6530969468047672E+00
Pb    3.2911553072363775E+00   -8.8605293664551006E+00   -1.9248114317324967E+00
Pb   -8.7530685045212824E+00   -3.6687690641283974E+00    4.0762362560988796E+00
Pb   -2.5826966436713268E+00   -9.0940040249592382E+00   -2.1967309768965322E+00
Pb    2.2447547406163073E+00    8.6074044981896733E+00   -3.8923016620354680E+00
Pb    2.3724507289592021E+00    2.8247856291904223E+00   -3.6067049128084410E+00
Pb    3.3016144196313997E+00   -2.3057372260455944E+00    3.1195276893594799E+00
Pb    3.5895087876855705E+00   -8.4389688584300604E+00    3.7643381207594726E+00
Pb   -3.2269318512028562E+00    8.7847373719414730E+00    1.7861985162079839E+00
Pb    2.5062823231623583E+00    9.6103253531324366E+00    1.5675984943530143E+00
Pb    2.8718097693699263E+00    3.6110356451810843E+00    2.1965960656949606E+00
Pb    3.5812714013093672E+00   -1.4419390423934710E+00    9.0105011056648312E+00
Pb    4.5020107597547518E+00   -7.3889245196158555E+00    9.3854949569226971E+00
Pb   -3.1567002623258134E+00    2.7576505603204686E+00    2.3507619575379333E+00
Pb    2.7547676036023980E+00    1.0292522936763524E+01    7.7700003119307519E+00
Pb    2.8320441918188775E+00    4.3761730045129026E+00    8.0460621445048535E+00
Pb   -2.3752270828367283E+00   -2.4625893479851300E+00    9.1871655209013898E+00
Pb   -7.8156720681725051E+00   -9.5428736072157356E+00    4.7240023178218751E+00
Pb   -9.2568087239164338E+00    1.9603841244982096E+00   -3.1162717982505033E+00
Pb   -3.3552331447271619E+00   -4.3227152976361918E+00   -8.0073085232618286E+00
Pb   -2.0437860544671200E+00   -8.7908260239973011E+00    3.7940664400436459E+00
Pb   -3.6370268552571798E+00    8.3262139249170204E+00   -3.9344231210778240E+00
Pb   -1.2624375492848712E+00   -8.4304387327132666E+00    9.4867430194416915E+00
Pb   -8.9200079902649456E+00   -3.9947868658891945E+00   -2.2604879183316715E+00
Pb   -8.3029193709200602E+00   -9.9955437127751008E+00   -1.1750245800368997E+00
Pb   -3.4971899409497165E+00    2.4003357007689567E+00   -3.9157713720575651E+00
Pb   -6.8844894618991246E+00   -9.4088350827562817E+00    1.0203096843546005E+01
Pb   -9.3738434895486851E+00   -5.4578443608535476E+00   -8.4016276053424352E+00
Pb    8.4341971005662000E+00   -2.8662827919179206E+00   -8.7456120101074823E+00
Pb    8.8854499739173640E+00   -8.5834104142624827E+00   -7.9929524248066404E+00
Pb   -3.0751344008314265E+00   -1.0086342723810697E+01   -8.7684092047534321E+00
Pb   -9.9699550980878087E+00    7.3212341973776800E+00   -9.1363308536060597E+00
Pb    2.4182397340824764E+00   -3.8406656539298156E+00   -8.5472797586741294E+00
Pb    2.9743255090619716E+00   -9.7326104261656958E+00   -7.8131573207818992E+00
Pb   -3.3515080163908020E+00    1.5030802400607708E+00   -9.5625829476884441E+00
Pb    1.9445566071997531E+00    7.6278099066073670E+00   -1.0141449199092328E+01
Pb    2.2155822626613446E+00    1.8110015176064136E+00   -9.3232816496313706E+00
Pb    8.7599400860391228E+00   -2.4420533940676390E+00   -3.0110798736955950E+00
Pb    9.4763101436645947E+00   -8.0706992188848599E+00   -2.3382580449050678E+00
Pb   -8.0857181494937223E+00   -3.6088403091096435E+00    9.7445270677009717E+00
Pb    7.9518764084012830E+00    9.0137029553461296E+00   -1.0091013089904816E+01
Pb   -9.0650554430862158E+00    1.0825983910725960E+00   -9.1091890756697644E+00
Pb   -3.1247322446535697E+00    9.3888066339287697E+00    7.7395940288844809E+00
Pb    8.1178860903888506E+00    9.4584077373762430E+00   -4.3423966241828085E+00
Pb    8.4537543978457439E+00    3.5906658868585639E+00   -3.3844527347408322E+00
Pb    9.1224619925474091E+00   -1.3003150624110200E+00    2.7468499046374473E+00
Pb    1.0067110592853252E+01   -7.3012721815901989E+00    3.1774743231913241E+00
Pb    8.2131617834678465E+00    3.0286277660433423E+00   -9.3005986032130465E+00
Pb   -2.9753230227154512E+00    3.6111582770268833E+00    8.8657966786638269E+00
Pb    8.3891068092802126E+00    1.0583984218010091E+01    1.6227517599593027E+00
Pb    9.0087834714582673E+00    4.4273385321245309E+00    2.3467900854880650E+00
Pb    9.4198503933239213E+00   -1.2089833541219530E+00    8.9155677818860255E+00
Pb    1.0162117634550082E+01   -6.8999404469235879E+00    9.2132956088046694E+00
Pb    8.4654930315804542E+00    1.1351620079392287E+01    7.5596859609899081E+00
Pb    8.9100087317854904E+00    4.8874317181223352E+00    8.3142423611269312E+00
Pb   -8.5272704315751344E+00    2.8188231673800672E+00    8.6844134631755967E+00
Pb   -2.9189934398681099E+00   -2.8776532107101529E+00    3.5334665409951493E+00
Pb   -9.3884289054766636E+00    8.0281232288518254E+00    2.4320805056507404E+00
Pb   -9.8369392824791273E+00    7.9487154473495343E+00   -3.4679424907351755E+00
Pb   -8.5967211878587140E+00   -1.1196000589000018E+01   -7.2477454272993489E+00
Pb   -4.1734689423361422E+00    7.2426872740279453E+00   -1.0159173418996003E+01
Pb   -8.6250416731926762E+00    1.8622704406388901E+00    3.0072150664679937E+00
Pb   -9.2154203289350587E+00    8.6371363197880164E+00    8.2825688054109889E+00
Pb   -2.9693014613685547E+00   -3.3740231202004516E+00   -2.3564893345839915E+00
Br   -2.4704354333699394E-01   -3.2717934491772049E+00   -2.4618992616206419E+00
Br    2.9607158081662446E+00   -3.6906332349362492E+00   -5.5002206891075938E+00
Br    2.7935950827931788E+00   -2.6988966513489115E-01   -3.8141638037876335E+00
Br    2.2137738227638884E-01   -8.9012775450642057E+00   -1.8150867142945817E+00
Br    3.1633289404020957E+00   -8.7067216404268937E+00   -4.7605738890936102E+00
Br    3.2232308681351496E+00   -6.0165340578597304E+00   -2.2763679221529038E+00
Br   -3.2463543829883155E+00   -3.8313899400997196E+00   -5.2404024160122535E+00
Br   -8.3477935634114875E+00   -3.6563451832549063E+00    7.1208125687786588E+00
Br   -3.8386644174719740E+00   -4.7547680801098191E-01   -3.3811507649402284E+00
Br    3.2289804392684092E+00   -1.1810755212863095E+01   -1.3750890392599742E+00
Br    1.2137750321449749E+01   -1.3011271166992895E+00    2.5774848118839615E+00
Br   -5.4237189353168525E+00   -9.7983835669554118E+00   -1.7912302925625898E+00
Br   -1.1282434258237430E+01   -4.7392772185202476E+00    4.8087539294356914E+00
Br   -8.8457295063126651E+00   -4.2377731808105796E+00    1.1852174443673902E+00
Br    1.2692744822116769E+01   -6.9352838799561862E+00    2.1897184914178816E+00
Br   -6.8927636047539464E-01    8.1278962221688591E+00   -3.7252117852340123E+00
Br    1.9211809564727791E+00    8.0144670348365992E+00   -6.9503446740072476E+00
Br    1.5043795363837020E+00    1.1080682417318807E+01   -4.6204295692852897E+00
Br   -4.7692634607712470E-01    2.9139084163356448E+00   -3.6503028209895159E+00
Br    2.4545379606190449E+00    2.2511192874014245E+00   -6.3966385877575718E+00
Br    2.2297283665473460E+00    5.8430499358507788E+00   -3.8077787311914868E+00
Br   -7.8839374733673473E-02   -2.0537833549334108E+00    3.4216251811348295E+00
Br    2.5359591609435386E+00   -2.4160866924486024E+00    1.0028688708193891E-01
Br    3.6057955706991303E+00    4.3716113662867812E-01    2.8981926427768965E+00
Br    9.0694446395840922E-01   -7.8917331160085968E+00    3.2001454263596343E+00
Br    4.0016382411398013E+00   -8.7896144513489212E+00    1.0179333629680678E+00
Br    3.7565570073558066E+00   -5.4347865450287554E+00    2.8291576713151292E+00
Br   -6.7922341852994084E+00    7.4431504887692617E+00   -9.1186068427157689E+00
Br   -4.1990518768999801E+00    6.6590332815669333E+00   -1.3019397327263807E+01
Br    2.6454235990980157E+00   -1.1052977748783894E+01    4.9257284737063856E+00
Br   -4.6188732760005271E+00    1.0050371005662937E+01   -1.0692637367298508E+01
Br   -3.7263910519416132E+00    4.4568963371922354E+00   -9.7929121149859295E+00
Br   -9.2979543415020824E+00   -9.8834389512323029E-01    2.9583958058166600E+00
Br   -3.6944168274734288E+00   -8.9221453380813021E+00   -4.8503235060960854E+00
Br   -6.5788722650552796E+00    8.5921614383099527E+00    1.9367119892996587E+00
Br   -3.4420009758322694E+00    8.1690731058336183E+00   -1.1194727818159591E+00
Br   -3.3004690217876509E+00    1.1435406672414137E+01    1.4018860482022453E+00
Br   -3.7296856131189560E-01    8.9476330740948864E+00    1.9274453356629961E+00
Br    2.8018017917386020E+00    9.4190795726204186E+00   -1.1554936041810171E+00
Br    1.6932313711937079E+00    1.2201903930504692E+01    8.5205332466948525E-01
Br    2.3849045017020476E-01    2.9571949532977273E+00    2.7010685898792297E+00
Br    2.1442154616869247E+00    2.7564859201330969E+00   -8.5250263281150662E-01
Br    2.4955771628974697E+00    6.4960332199520234E+00    1.4277508319583621E+00
Br    5.6054390647827868E-01   -2.2152631958679145E+00    8.2627378952909289E+00
Br    4.2813696686956328E+00   -1.7288273750736205E+00    5.8334087446057179E+00
Br    2.9933243872459157E+00    1.5590634628900220E+00    8.7959025899379242E+00
Br    1.5179137064263877E+00   -7.4691522421891658E+00    9.6285247271713494E+00
Br    4.6277873490308359E+00   -7.5120619718061183E+00    6.5109314310571840E+00
Br    4.5567361373786897E+00   -4.5236730507189016E+00    9.0544015562889459E+00
Br   -1.1330203208611318E+01    2.7202893156336483E+00    2.8239044453639868E+00
Br   -8.7572398555946833E+00    1.6208962134862961E+00   -2.1292523279072834E-01
Br    4.8460447091935235E+00   -1.0225069903526570E+01    9.3239473515916060E+00
Br   -8.8611119779226506E+00    5.3366544880258742E+00    2.9498793251899826E+00
Br   -7.8417663548073735E+00   -2.2598728058635789E-01    8.7967259229985366E+00
Br   -3.1290889416656609E+00   -6.2601322926893719E+00   -2.2926580891689436E+00
Br   -5.9836091217319094E+00    3.0897639230142957E+00    3.0182155293264907E+00
Br   -3.6601748253206323E+00    2.0493802481581205E+00   -4.8946176292708604E-01
Br   -2.4982141088928431E+00    5.8219673242653585E+00    1.7466348885730754E+00
Br   -2.5988322100776950E-01    1.0105542454243762E+01    7.8158736461067839E+00
Br    2.7337077749456493E+00    9.6398764993818897E+00    4.3654559648288220E+00
Br    1.8795549960220701E+00    1.2802647812718625E+01    6.4373591054646990E+00
Br    1.3706985395194232E-01    3.8376479851425849E+00    8.8884311570496646E+00
Br    2.7536268555698840E+00    3.7632331963989247E+00    5.2468027332979377E+00
Br    2.7157749006520930E+00    7.3063899264832868E+00    7.4067172310435954E+00
Br   -5.1840543567220196E+00   -3.4911153129611083E+00    9.3747900659618217E+00
Br    3.0256549964862987E+00   -1.1394362165550873E+00    1.1732540215799110E+01
Br   -2.8744269520743768E+00   -2.3181793329021132E+00    6.3875697896650285E+00
Br   -2.5472511207835535E+00    5.6705557606412849E-01    9.7168621765093093E+00
Br   -2.4102530863027836E+00   -1.2360350592142662E+01   -2.1490384532723739E+00
Br    4.2873455940726561E+00   -7.1364786192418137E+00    1.2640772521210900E+01
Br   -1.1927114049205633E+01    1.9182553296978144E+00   -2.3607432813499014E+00
Br   -1.7674451469059909E+00   -1.1781690020899402E+01    3.5799132161857630E+00
Br   -1.1686988106730562E+01   -3.9196856294036984E+00   -1.2618777160179466E+00
Br    2.4742231755024915E+00    1.0969314632964705E+01    1.0491211589733819E+01
Br   -9.3682390651185781E+00   -4.8428388020301556E+00   -5.3972503676879207E+00
Br   -9.2587570542922073E+00   -1.0300780855132763E+00   -2.8116871259674925E+00
Br    2.7373711713738040E+00    4.7104250833537087E+00    1.1057934372088807E+01
Br   -6.7178864659329340E+00    8.4060799041382346E+00   -3.0981976979979531E+00
Br   -3.2457668940351057E+00    7.9344580198201013E+00   -7.1294107137227041E+00
Br   -3.6342944462203581E+00    1.0923345452754887E+01   -4.4981322928552991E+00
Br   -6.5123877320172161E+00    2.4777023369092235E+00   -3.2857725271963840E+00
Br   -1.0654447540694711E+01   -1.0326424235734716E+01    5.2385241330743115E+00
Br   -3.7449794493923707E+00    2.3943608512359873E+00   -6.7001113096654583E+00
Br   -6.4366033439871577E+00   -5.1498402035761002E+00   -8.1180485069756241E+00
Br   -2.6057485569435541E+00   -4.1475639473570434E+00   -1.1205362936320796E+01
Br   -3.1319919434459056E+00   -1.3571665464492280E+00   -8.4992090673845695E+00
Br   -2.5307673755959494E+00    4.6527182335895985E+00    1.1325224657924025E+01
Br   -3.9070794716336690E+00   -9.0873770609797315E+00    1.0053339349042639E+01
Br   -1.4312221853110763E+00   -9.1021273130025850E+00    6.5839117472944153E+00
Br   -1.8606141298868879E+00   -5.6553504002069692E+00    9.6610225826910785E+00
Br   -8.1010218972087813E+00   -9.8738351624035694E+00    1.6923425275436184E+00
Br   -7.9180775227625064E+00   -6.5469770017797373E+00    3.9229551545576817E+00
Br   -9.0656239271247827E+00    9.4254830542687511E+00    1.0900551044209481E+01
Br    1.1132150838303806E+01    1.1510238951982675E+01    1.6416804611064175E+00
Br   -6.6909371668531232E+00   -9.2002997173692798E+00    1.3104567285260234E+01
Br    1.0801373176973359E+01    9.8322348160715745E+00   -5.0689113954517744E+00
Br    1.1398848929917191E+01    5.2269074548504468E+00    1.2104480936603603E+00
Br   -8.6759601042345231E+00    2.8847700626804178E+00    1.1596263007005028E+01
Br   -1.2673489826132792E+01   -5.9065504429871760E+00   -6.6509793345468946E+00
Br    1.2267439824653106E+01   -1.4257593479973536E+00    8.4142980883094545E+00
Br   -4.8613826444284083E+00   -9.5635017773518989E+00    4.1833346879661715E+00
Br    5.2355891551331304E+00   -3.6941632836620206E+00   -8.6389023875963549E+00
Br    7.6634043651748769E+00   -3.0860860269328052E+00   -1.1393848482143996E+01
Br    1.3008478788535442E+01   -6.2095473500877834E+00    8.5282505744584771E+00
Br    8.0787720840489801E+00   -1.3028048268327952E-02   -9.0977963534331003E+00
Br   -6.9121706747007154E+00   -1.2348728169679527E+01    9.5133546307017358E+00
Br   -2.5824490789388705E+00   -8.5277512804557425E+00    8.6442606930437538E-01
Br   -3.0705264167912620E+00   -5.9806843711657249E+00    4.1145421585557225E+00
Br    5.8989101847024532E+00   -8.7083709804744611E+00   -7.8764796961276407E+00
Br   -5.8817726064046107E+00   -1.0405451511561848E+01   -8.5423397679178272E+00
Br    8.7793271760828517E+00   -8.3430627721475723E+00   -1.1135018309354379E+01
Br    9.2434927386188424E+00   -5.6778494180491412E+00   -8.1883823284973776E+00
Br   -1.7464342448263273E-01   -1.1034952836102322E+01    1.0020349137651690E+01