 # Version information for this restart file 
 # current date 2021-06-17 12:42:34.746
 # current working dir /user/ub2042/exercises/2_fitting/MM_MD_workdir/md_settings.004
 # Program compiled at                              Thu Apr 22 21:44:59 EDT 2021
 # Program compiled on                cpn-k07-07-02.compute.cbls.ccr.buffalo.edu
 # Program compiled for                                                    local
 # Source code revision number                                       git:36754bb
 &GLOBAL
   PRINT_LEVEL  LOW
   PROJECT_NAME cp2k
   RUN_TYPE  MD
 &END GLOBAL
 &MOTION
   &MD
     ENSEMBLE  NVT
     STEPS  10000
     TIMESTEP     2.4999999999999996E+00
     STEP_START_VAL  4500
     TIME_START_VAL     1.1250000000000349E+04
     ECONS_START_VAL    -1.4028929475949734E+01
     TEMPERATURE     3.0000000000000000E+02
     &BAROSTAT
       PRESSURE     1.0100000000000000E+00
       TIMECON     9.9999999999999982E+03
     &END BAROSTAT
     &THERMOSTAT
       TYPE  CSVR
       &CSVR
         TIMECON     9.9999999999999982E+03
         &THERMOSTAT_ENERGY
              -1.5906550360743760E-01
         &END THERMOSTAT_ENERGY
         &RNG_INIT
Wiener process for Thermostat # 1        1 F T F   4.8942508383968170E-01        1922692901.0         751943800.0        1824698526.0         472050684.0        2743543379.0         537116521.0             12345.0             12345.0             12345.0             12345.0             12345.0             12345.0             12345.0             12345.0             12345.0             12345.0             12345.0             12345.0
         &END RNG_INIT
       &END CSVR
     &END THERMOSTAT
     &AVERAGES  T
       &RESTART_AVERAGES
         ITIMES_START  1
         AVECPU     1.7451714532863809E-02
         AVEHUGONIOT     0.0000000000000000E+00
         AVETEMP_BARO     0.0000000000000000E+00
         AVEPOT    -1.4428645859469263E+01
         AVEKIN     4.6490367253588000E-01
         AVETEMP     2.3583099358040701E+02
         AVEKIN_QM     0.0000000000000000E+00
         AVETEMP_QM     0.0000000000000000E+00
         AVEVOL     6.7483345830906788E+06
         AVECELL_A     1.8897261328855762E+02
         AVECELL_B     1.8897261328855762E+02
         AVECELL_C     1.8897261328855762E+02
         AVEALPHA     9.0000000000000000E+01
         AVEBETA     9.0000000000000000E+01
         AVEGAMMA     9.0000000000000000E+01
         AVE_ECONS    -4.2423419874807058E+00
         AVE_PRESS     0.0000000000000000E+00
         AVE_PXX     0.0000000000000000E+00
       &END RESTART_AVERAGES
     &END AVERAGES
     &PRINT
       &ENERGY  SILENT
         &EACH
           MD  10
         &END EACH
       &END ENERGY
     &END PRINT
   &END MD
   &PRINT
     &TRAJECTORY  SILENT
       &EACH
         MD  10
       &END EACH
     &END TRAJECTORY
     &CELL  SILENT
       &EACH
         MD  10
       &END EACH
     &END CELL
     &VELOCITIES  SILENT
       &EACH
         MD  10
       &END EACH
     &END VELOCITIES
     &FORCES  SILENT
       &EACH
         MD  10
       &END EACH
     &END FORCES
     &RESTART  SILENT
       &EACH
         MD  10
       &END EACH
     &END RESTART
   &END PRINT
 &END MOTION
 &FORCE_EVAL
   METHOD  FIST
   &MM
     &FORCEFIELD
       VDW_SCALE14     1.0000000000000000E+00
       EI_SCALE14     1.0000000000000000E+00
       SHIFT_CUTOFF  T
       DO_NONBONDED  T
       IGNORE_MISSING_CRITICAL_PARAMS  T
       &SPLINE
         R0_NB     2.5000000000000000E-01
       &END SPLINE
       &NONBONDED
         &LENNARD-JONES
           ATOMS Br Br
           EPSILON     1.2630795322675199E+02
           SIGMA     3.6900000000000004E+00
         &END LENNARD-JONES
         &LENNARD-JONES
           ATOMS Cs Pb
           EPSILON     8.6920055954630968E+01
           SIGMA     3.6699999999999999E+00
         &END LENNARD-JONES
         &LENNARD-JONES
           ATOMS Cs Cs
           EPSILON     2.2644852172126850E+01
           SIGMA     4.3300000000000001E+00
         &END LENNARD-JONES
         &LENNARD-JONES
           ATOMS Pb Pb
           EPSILON     3.3363415533600227E+02
           SIGMA     5.9000000000000004E+00
         &END LENNARD-JONES
         &LENNARD-JONES
           ATOMS Br Cs
           EPSILON     5.3481070753900497E+01
           SIGMA     3.6300000000000003E+00
         &END LENNARD-JONES
         &LENNARD-JONES
           ATOMS Br Pb
           EPSILON     2.0528187276773045E+02
           SIGMA     2.9800000000000000E+00
         &END LENNARD-JONES
       &END NONBONDED
       &CHARGE
         ATOM Cs
         CHARGE     4.1739999999999999E-01
       &END CHARGE
       &CHARGE
         ATOM Pb
         CHARGE     8.3479999999999999E-01
       &END CHARGE
       &CHARGE
         ATOM Br
         CHARGE    -4.1739999999999999E-01
       &END CHARGE
     &END FORCEFIELD
     &POISSON
       PERIODIC  XYZ
       &EWALD
         EWALD_TYPE  SPME
         GMAX  62 62 62
         O_SPLINE  4
       &END EWALD
     &END POISSON
     &PRINT
       &FF_INFO  LOW
         SPLINE_INFO  F
         SPLINE_DATA  F
       &END FF_INFO
     &END PRINT
   &END MM
   &SUBSYS
     &CELL
       A     1.0000000000000001E+02    0.0000000000000000E+00    0.0000000000000000E+00
       B     0.0000000000000000E+00    1.0000000000000001E+02    0.0000000000000000E+00
       C     0.0000000000000000E+00    0.0000000000000000E+00    1.0000000000000001E+02
       PERIODIC  XYZ
       MULTIPLE_UNIT_CELL  1 1 1
     &END CELL
     &COORD
Cs   -4.6502315541825023E-01   -1.6085138900128576E-01   -5.5578354896746784E+00
Cs    2.0460017375920816E-01   -6.1915268029735007E+00   -5.7325890689076573E+00
Cs    1.3303996614272808E+00   -1.2118918839134967E+01   -4.9207008472484546E+00
Cs   -5.7776246901501418E+00   -6.7108236663251439E+00   -5.7395983126758443E+00
Br   -7.3457550370260103E+00   -1.2688383684335969E+01   -6.5081583669350236E+00
Br    1.1668530642604011E+01   -2.8363366136539541E+00   -8.5836664547468651E+00
Br   -3.5103040287016229E+00    1.2524932855264044E+00   -1.1739227381902070E+01
Cs    2.5589707500415473E-02    5.7810389724377647E+00   -6.0601550157213486E+00
Cs   -1.2732690358790916E-01    6.7665085029920324E-01   -5.3195954219573749E-01
Cs    3.1659307325838298E-01   -6.4102165236474100E+00    6.8466996112154666E-01
Br   -5.5147633131951359E+00   -3.2650473956228590E+00    3.3130709359193444E+00
Cs   -1.0302084760612042E+01   -5.7319952012982549E+00    1.2036571058936262E+01
Cs    1.2335634800324311E+01   -9.9893191168725988E+00    4.1259151716881126E-01
Cs   -6.5637487784773629E+00    6.5276370114288085E+00   -4.6165214588557096E-01
Cs   -6.2943674371242397E-01    1.0458814506139513E+01   -5.5115907434167810E-01
Cs    9.1238871658532206E-01    5.8855626149560747E+00   -1.1830550927852019E+00
Cs    4.7878023255340246E-01    8.6339992884597527E-01    5.7948508046567175E+00
Cs    1.1158180364471881E+00   -5.5791260643429519E+00    6.7552893573905681E+00
Cs    9.4317235055251136E-01   -1.1003307554337971E+01    7.3417220795981066E+00
Cs   -6.7513748098182660E+00    7.1533462375528378E+00    1.1150822927443661E+01
Cs   -5.9798033199322127E+00   -1.1877833058736142E+00   -1.1040646663887763E+01
Cs   -4.0792654229153458E+00   -1.2555499526815304E+01   -4.9075552063957568E+00
Cs   -5.7351815407114239E+00    2.1059376231925062E-01    5.7916092047177052E+00
Br   -2.6829886559302061E+00   -2.6892982626496145E+00   -1.9494814359130509E-02
Cs   -6.3336228166308725E-02    6.2132281542812544E+00    4.8475348149023247E+00
Br    1.2167319019343141E+01   -7.8552561250857176E+00   -8.7398327087798542E+00
Cs    9.7086670713769851E-01   -5.5130555406654569E+00    1.1542122059275002E+01
Br   -3.0297094674260148E+00   -4.8287912829862223E-02    2.9505841969027533E+00
Br   -6.8799347795624186E+00   -2.9874599916287039E+00    1.1884451058597472E+01
Cs    1.1121815030049696E+01    1.1727210442383319E+01   -7.0170157172477348E+00
Cs   -1.1529583727753179E+01   -5.8416333194332477E+00    6.6398682182479627E+00
Cs   -5.0999727951505118E+00   -5.3482203070820127E+00    7.0141429605304495E+00
Cs   -6.8797667725252643E+00    1.0181115770696543E+01   -6.4106190681186979E+00
Br   -1.0885167371054010E+01   -8.3431505856791031E+00    9.8850376555085546E+00
Br   -8.4805601265819650E+00   -9.1798402690572196E+00    7.1372408950487030E+00
Cs   -1.1429972935310049E+01   -7.2131603232237742E+00   -4.4320870299974944E+00
Cs   -6.7841776819440014E+00    5.5063171839012908E+00   -6.1572872294623409E+00
Br   -8.1766420938421902E+00   -5.8128499466913173E+00    9.5774304074293131E+00
Cs    1.1475010157109370E+01    6.5917978259908159E+00    1.0843773559734487E+01
Br   -1.2609056765680229E+01    9.4927278922950364E+00    8.0832165073620548E+00
Br   -5.6835424502448486E+00   -3.1511239772050943E+00   -2.3614221347874875E+00
Cs    4.2115051591221386E-01    5.1730592440230683E-01    1.0924336327301367E+01
Cs    1.1769036574680909E+01    5.7576203790650302E+00   -8.7136549586540857E-01
Cs   -1.1249957145007235E+01   -7.5017916597830796E+00   -9.4236805204845595E+00
Cs    1.1889670904380344E+01    9.2439060624364788E-01    5.1232512582099456E+00
Cs   -1.3308488113265790E+01    8.8882020573875913E+00   -7.3392819049262323E+00
Cs    1.2795351830763110E+01   -1.0691702756898186E+01    6.6156979318121518E+00
Cs    7.0157217126867142E+00   -7.3735177118208446E+00   -1.1463169350389855E+01
Cs    7.1073733393407004E+00   -1.0543923635287845E+01    6.3572812130086236E+00
Cs   -5.5428944022364179E+00   -1.1759878544042779E+01    1.5387788169139742E+00
Cs    6.9389910075902712E+00   -1.2572303655095126E+01   -9.6668284586582907E+00
Cs    1.1299395149291241E+01    5.2467861377869385E+00   -6.6067823385969113E+00
Cs    1.2200582142996122E+01    1.3081357691257690E+01    5.6581506565323894E+00
Cs    1.1908862821970601E+01    6.2314023284104243E+00   -1.1104158294755370E+01
Cs    5.7486855607673748E-01   -6.8215154071145028E+00   -1.2065965026971231E+01
Cs   -1.1513063245719966E+01   -1.0566194655028782E+00   -5.4554828173529470E+00
Cs    6.8641631193205770E+00   -4.6464080830733057E+00    1.1332063828056135E+01
Cs    1.1677096939247313E+01   -4.6742334130718248E+00    5.9102156801390286E+00
Cs   -9.9273812878877354E+00   -1.0973740170543108E+01    1.3666850496898581E+01
Cs   -1.3085805720911725E+00   -1.1249193987392410E+00   -1.1828779727846308E+01
Cs   -8.9201366317627173E-01    1.1861893676517710E+01    5.4529962955986475E+00
Cs   -3.1551508935675097E+00    4.7420655384747654E+00   -1.2166614556921978E+01
Cs    5.2292940317822332E+00   -1.0970482981784511E+00   -6.0640580229319827E+00
Cs    5.9989516989596190E+00   -6.4288213202757927E+00   -6.5168545503766433E+00
Cs   -5.9016339073220685E+00   -1.1309071802414616E+01    7.0027723645548665E+00
Cs   -1.1913639254072491E+01    1.4044384227073367E-01    5.9955051918030628E+00
Cs    5.0904071462771112E+00   -7.7391090155093567E-01   -1.2406454305150783E+01
Cs    4.2936619296322851E+00    1.1064983662721893E+01   -1.2103005303171797E+01
Cs    6.2286833645989181E-01    6.2642378042058642E+00    1.1276994363552008E+01
Cs   -6.9901228342473125E+00    1.2080022491548542E+01    6.2054681994933061E+00
Cs    5.7286064144827646E+00    1.1618853056386516E+01   -6.7004778481718139E+00
Cs    6.0195369942609283E+00    6.1296491491863705E+00   -6.5823241205053566E+00
Cs    5.9072410487287632E+00    3.3802653645113673E-01    6.0238291358971230E-01
Cs    6.5174042981865599E+00   -5.4281940250478939E+00   -4.7802119911884455E-01
Cs    6.8475165701831626E+00   -1.1193345827749100E+01   -4.1339328232373587E-02
Cs    4.6604044566745371E+00    5.7565580057051404E+00   -1.2301653057111409E+01
Cs   -6.4937800985361305E+00    6.9964904093423899E+00    5.8450496979180846E+00
Cs   -6.3994233138013543E+00   -6.4984857348497806E+00   -1.0768823200099282E+01
Cs    5.9605417318840122E+00    6.2618581308532786E+00   -7.3781914042004659E-01
Cs    7.0184842413523594E+00    3.1729411489418230E-01    6.4371117788745984E+00
Cs    6.2649706559613580E+00   -4.6047336828956160E+00    5.6877618425814847E+00
Cs   -6.2171890062837099E+00    1.1894530147765867E+01    5.2281049249520473E-01
Cs    1.1025937738553193E+01    1.9951760953694941E-01   -5.7096865434600230E-01
Cs   -6.2617644414228284E+00    4.7533964871021894E-01    1.2660607754962904E-02
Cs   -1.2205251956102188E+01    5.5980376895591890E+00    6.6367868165833217E+00
Cs   -4.5345962952370096E+00    4.0884716923366299E-01    1.2409481565878329E+01
Cs    5.4381815215600797E+00    1.3220802422515352E+01    6.0901565714998238E+00
Cs    6.2175714107079205E+00    6.1839946396012699E+00    5.4419216837945488E+00
Cs    7.0721204343160284E+00    9.4016359979307207E-01    1.2203940932770315E+01
Cs    4.2709162451762497E+00    1.2164410902809513E+01   -1.9815303786867366E-01
Cs    1.0742675812810317E+01    5.3699666851402643E-02   -6.3287139372557348E+00
Cs    1.1327448070038077E+01   -5.8324708642509409E+00   -6.1823330100799172E+00
Cs    7.0187565557447460E+00   -1.0432402384860072E+01    1.1709661799986879E+01
Cs    1.0747639409492574E+01    1.2201642439100924E+01   -1.0549885325839259E+00
Cs   -1.0136417430049351E+01    3.5652742482298341E-02    1.2361357487179561E+01
Cs   -7.6944077652917597E+00    5.0937590543670908E+00   -1.2312491843438442E+01
Cs   -1.3276938275645724E+01    1.0342721648675376E+01   -4.0208616786836804E-01
Cs   -4.1069851046397563E+00   -4.6824458445183952E+00    1.1894430621800403E+01
Cs   -4.3491658030769029E+00   -9.8691575041338400E+00    1.2790588354226642E+01
Cs    6.4584927614744290E+00    7.1486324533114383E+00    1.1154475365865618E+01
Cs    1.2944054221286365E+01   -4.9549058292176893E+00   -8.8035884712732804E-01
Cs   -1.1462511672757543E+01   -2.5259435138761999E-01    1.3917607743020580E-01
Cs   -1.0377286262328322E+01    1.0963518087313931E+01   -1.2601980177270100E+01
Cs   -1.2194451043883902E+01    4.7499929298506922E+00    2.0911501089431342E-01
Cs   -1.0148832094076139E+01   -1.2131077121336256E+01   -4.3146532592595728E+00
Cs   -1.0946965570195292E+01   -5.6842242518334976E+00    5.3222657369046400E-01
Cs   -5.1409608277176257E+00   -5.7362962479066502E+00    3.4486072898172071E-01
Cs   -1.0606799298055032E+01   -1.1875290913055361E+01    7.0733903989110809E+00
Cs    1.2577729277438408E+01   -4.8823475252662094E+00    1.1083696086875838E+01
Cs    1.0940506876775812E+01    6.4182854584928579E+00    5.1524599447863535E+00
Cs   -1.2054493475967364E+01    4.9565725433811814E+00   -5.7418021784462319E+00
Cs   -6.2975576394198862E+00   -3.5721336159711009E-01   -5.4818669645010525E+00
Cs   -1.0505636620736825E+01   -1.2900416795131541E+01    6.0177472674396559E-01
Cs    1.2693168779355473E+01   -6.1434584403806927E+00   -1.1363339859823048E+01
Cs   -5.1551761598850687E+00   -1.2565331602377638E+01   -1.0853954722709346E+01
Cs   -1.6834005064299113E+00    1.0504828386191170E+01   -1.2182397054852053E+01
Cs    5.4357188438269999E-01   -1.2216646438508874E+01   -1.0726490612553121E+01
Cs   -1.4509638572090005E+00    1.1215311620096974E+01   -6.7387553216807152E+00
Cs   -6.8490384006955010E+00    1.1751914364156899E+01    1.0959893690221795E+01
Cs    1.4328948010965068E+00   -1.0974260918041743E+01    1.0444583495691302E+00
Cs   -1.1880661238053966E+01   -1.1751501340175570E+00   -1.1731179648838127E+01
Cs   -1.2152408394063920E+01    1.1110181948952603E+01    4.8758537207068136E+00
Cs    8.5377887471355880E+00   -1.1737704095066844E+01   -5.3033780874242966E+00
Cs    1.1043621379700699E+01   -8.1013782247554167E-01   -1.1978777498664591E+01
Cs   -6.4368674348391519E-01    1.1494403358593786E+01    1.0730024725219373E+01
Pb    2.9910380595061428E+00   -3.2508124779614773E+00   -3.2387929677872367E+00
Pb    3.6558873512361618E+00   -8.8853409590290156E+00   -2.3441677827281606E+00
Pb   -8.6039181508721949E+00   -3.0627516313602778E+00    3.1566379445281272E+00
Pb   -2.2143156496877325E+00   -9.4135653428177317E+00   -2.3387954085487377E+00
Pb    2.8402894100590546E+00    9.1890752547734937E+00   -3.7015235091564493E+00
Pb    2.5714631742823082E+00    2.7628793619531371E+00   -3.5259673443139206E+00
Pb    2.9099350749188546E+00   -2.6038600402425618E+00    2.9009976287080503E+00
Pb    3.5579181933575406E+00   -8.2621198341884075E+00    3.8614905570999842E+00
Pb   -3.6406638554111286E+00    8.8083881965360504E+00    2.6789418289063822E+00
Pb    2.3886758933022723E+00    9.2217533134281773E+00    2.1567308233395321E+00
Pb    3.0985862260451036E+00    3.3337502117615805E+00    2.4815391637740682E+00
Pb    3.5310226388410717E+00   -2.1741919090289707E+00    8.5721334905055357E+00
Pb    4.1037852965114858E+00   -8.1395112777027609E+00    9.8034629828632109E+00
Pb   -3.1369128918640872E+00    2.8745553413084628E+00    2.6550903289514141E+00
Pb    2.8943428302335836E+00    9.5291093178518427E+00    8.4708735803391839E+00
Pb    3.3576818370267150E+00    3.7733187706362323E+00    8.7690842733181338E+00
Pb   -2.1895546303517830E+00   -2.4429703459972996E+00    8.8028042297274229E+00
Pb   -8.6560047932145636E+00   -9.0596312710482110E+00    4.2978355793067289E+00
Pb   -9.4225996589829908E+00    2.8392088291964646E+00   -2.8824071111295240E+00
Pb   -3.0115563540316308E+00   -4.2217711593106451E+00   -8.5302473586432246E+00
Pb   -2.3559310360430321E+00   -9.2586716900057162E+00    3.6397926764199906E+00
Pb   -4.1226619588531532E+00    8.5375315320959437E+00   -3.3483548114117148E+00
Pb   -2.1856586439873169E+00   -8.7991444085489725E+00    9.5861764583505114E+00
Pb   -8.6055637335575312E+00   -3.3001100232725262E+00   -2.4904060800418324E+00
Pb   -8.1597708534470570E+00   -9.2744907442219997E+00   -1.6405706447097204E+00
Pb   -3.1979580208686720E+00    2.8696630589701622E+00   -3.2294972408626670E+00
Pb   -8.1813351396501393E+00   -8.8568041902743246E+00    9.9623384145900253E+00
Pb   -8.8241508475216293E+00   -3.7354465593390187E+00   -8.2298386381032707E+00
Pb    8.7429303091825439E+00   -3.2894793971434013E+00   -9.2370745527193066E+00
Pb    9.5924646755280367E+00   -9.2508935634957385E+00   -8.3188386643749013E+00
Pb   -2.0067146960718172E+00   -9.5377038047912688E+00   -8.3957725373667991E+00
Pb   -9.7570859858207033E+00    7.7249238381766574E+00   -9.3935423584406550E+00
Pb    2.7237719025705465E+00   -3.9481882265118173E+00   -9.0825077153973943E+00
Pb    3.7626562734447528E+00   -9.7100220522034419E+00   -8.4032327708094385E+00
Pb   -3.3155193405351073E+00    1.2842215130116650E+00   -8.9087216539843990E+00
Pb    2.1355635419594599E+00    8.2985811916196592E+00   -9.4522425098322209E+00
Pb    2.3253368805446493E+00    2.1479751862579346E+00   -9.5620647487319914E+00
Pb    8.9330831382585760E+00   -2.5390625026009226E+00   -3.3040731889924002E+00
Pb    9.5095349355026517E+00   -8.4570932153818976E+00   -2.6096840544364386E+00
Pb   -8.2816071579794137E+00   -2.9286401514696103E+00    8.9950726840664910E+00
Pb    8.0875751536752265E+00    9.1100280780189209E+00   -1.0203741312468962E+01
Pb   -9.0352922234277955E+00    1.7611282939757487E+00   -9.0764211010308777E+00
Pb   -3.4710674426039256E+00    9.2066335630788902E+00    8.4074369610763924E+00
Pb    8.8876334918053637E+00    9.3170286788067980E+00   -4.0706460829887279E+00
Pb    8.4032240163692187E+00    3.3692753386907275E+00   -3.7736889003956842E+00
Pb    9.1664354947186677E+00   -2.2498470172881500E+00    2.8282401238413839E+00
Pb    9.5001035895650272E+00   -8.0773980219683406E+00    3.2939970790621000E+00
Pb    8.2350460765020053E+00    2.7182197173172757E+00   -9.6470491628058355E+00
Pb   -2.9339734163152729E+00    3.3415880166740846E+00    8.6924219497205222E+00
Pb    8.4919369466989689E+00    1.0068666015419504E+01    2.1744136066795852E+00
Pb    8.7595544249540396E+00    3.8075995587740250E+00    1.8844410027765941E+00
Pb    9.8196973198006123E+00   -1.8336152565481816E+00    9.1522595950727403E+00
Pb    1.0118727913512426E+01   -7.8782619591502279E+00    9.2239244547089090E+00
Pb    8.8134709833889957E+00    9.6794638105342869E+00    8.1808842571880547E+00
Pb    9.1095278361508321E+00    3.7831007333477937E+00    7.8462075039837247E+00
Pb   -8.9386214541710789E+00    3.0230010202104394E+00    8.8663324289949852E+00
Pb   -2.7530049162814518E+00   -3.0615170992174323E+00    2.9855466962799770E+00
Pb   -1.0054489775394238E+01    8.6389572135523753E+00    2.2329473089272223E+00
Pb   -1.0284447713292348E+01    9.0258207658723482E+00   -3.4232592202872900E+00
Pb   -7.7122504517930928E+00   -9.9626392950756557E+00   -7.3427955521392878E+00
Pb   -3.8118294238834327E+00    7.8901712365303061E+00   -9.4027888951455090E+00
Pb   -8.9470041784925165E+00    2.8062352195215272E+00    2.9617080022895097E+00
Pb   -9.6982359147450001E+00    8.9893774295209692E+00    8.3006895012275077E+00
Pb   -2.7688529274104874E+00   -3.3243142849974254E+00   -2.7716856732138866E+00
Br    1.0615023452866328E-01   -3.3329299778651196E+00   -3.4855272230379697E+00
Br    2.9663707286042720E+00   -4.4273684769058379E+00   -5.9462933656888941E+00
Br    2.4999872028329455E+00   -1.4672585213048989E-01   -3.3599363151868382E+00
Br    5.3744657210369873E-01   -9.0453025994719098E+00   -1.7470341739455937E+00
Br    3.1977445694034166E+00   -8.6112638582647616E+00   -5.5405031199521231E+00
Br    3.7179218456115746E+00   -6.0770234147305917E+00   -2.6759228076470052E+00
Br   -3.1459887857129463E+00   -4.3898543507038772E+00   -5.6966983647577187E+00
Br   -8.3242047982195810E+00   -2.8962190736075879E+00    6.1491312910433829E+00
Br   -2.9309254528024904E+00   -5.1224173890600799E-01   -2.5754643588312702E+00
Br    3.6760959430902558E+00   -1.1561247603197746E+01   -1.0498713822386656E+00
Br    1.1977534730756350E+01   -1.6974180816897353E+00    2.9970827689414197E+00
Br   -5.0573234451781142E+00   -9.5607988258159100E+00   -1.7788338672849684E+00
Br   -1.1548426275774101E+01   -3.2347294915427023E+00    3.9629126573622249E+00
Br   -9.3063150572536895E+00   -2.9867198945010016E+00    4.7949278532699185E-01
Br    1.2137912797456480E+01   -7.2220141750644986E+00    2.5006587725902882E+00
Br   -1.4337766774900298E-01    8.4748742091349918E+00   -3.6602033219331553E+00
Br    2.2999845342718386E+00    9.0251719263902643E+00   -6.6322167772912515E+00
Br    2.1674328520535973E+00    1.2018155586017887E+01   -3.0866407401197575E+00
Br   -1.5515856370374029E-01    2.8885291091059577E+00   -3.6086929703135682E+00
Br    2.8761693928519656E+00    2.6968540056449450E+00   -6.7321798539100604E+00
Br    2.5843318151723160E+00    5.5928901484757843E+00   -4.0365997709134485E+00
Br    1.5259653920987584E-01   -2.7356474955275747E+00    2.6524662646156147E+00
Br    3.0672480643443958E+00   -3.3439174530013300E+00    6.9397690559283992E-02
Br    3.1031776203453370E+00    5.4600738513348546E-01    2.4199600906753984E+00
Br    5.3863303544016683E-01   -8.5081544220115735E+00    3.6420707363747016E+00
Br    3.5769848981309935E+00   -8.3032847604417448E+00    6.3745335729767783E-01
Br    3.3678280455999938E+00   -5.3095759367254276E+00    3.9308963629918798E+00
Br   -6.5936906737304293E+00    7.8656427617377078E+00   -9.5506462115111894E+00
Br   -4.0005744072639091E+00    7.7775992507892058E+00   -1.2256635767715981E+01
Br    3.3552321511313883E+00   -1.1027656402471175E+01    4.1403385047415018E+00
Br   -3.4585373544914746E+00    1.0725843469384220E+01   -9.1952245198141416E+00
Br   -3.1914589133459517E+00    4.8946934396934516E+00   -8.4414849198107351E+00
Br   -8.6812597675814178E+00   -2.1368312231152947E-01    3.2260202004689735E+00
Br   -1.8600159242366616E+00   -8.9586342257865024E+00   -5.5874867145308817E+00
Br   -6.5593159807468719E+00    8.6213005170194243E+00    2.2973547242283847E+00
Br   -4.0622826690413518E+00    9.5718893903390718E+00   -5.4638513826263424E-01
Br   -4.3760147617555711E+00    1.1416633378391362E+01    3.5541270423753235E+00
Br   -6.4768899085628295E-01    8.8688223328995583E+00    2.4046371749925459E+00
Br    2.8886790314083637E+00    9.1738775187295083E+00   -6.8357237078972533E-01
Br    1.1895076318631117E+00    1.1791551577851191E+01    1.8574032962396767E+00
Br    3.6427144877979379E-03    3.2013035333248854E+00    2.7379592365645693E+00
Br    2.8594500735131376E+00    3.0209335820076246E+00   -5.1036284877530280E-01
Br    3.0751890156420707E+00    6.2133639156017351E+00    1.9203798586498313E+00
Br    7.8746283373738968E-01   -1.9411758698392525E+00    8.6427601200897453E+00
Br    3.0836963296724003E+00   -1.9592598236517342E+00    5.8285176898862181E+00
Br    3.4104792526829195E+00    8.8823296483816094E-01    8.5889489174499758E+00
Br    8.4594959521282953E-01   -8.2514142743548273E+00    9.5379717942268361E+00
Br    3.3931073923429458E+00   -7.8778215579983017E+00    6.7732494934463610E+00
Br    4.0217439254981207E+00   -5.3184144386623435E+00    9.0150495828456574E+00
Br   -1.1985022659823173E+01    1.9217278819788113E+00    2.3788498378263654E+00
Br   -9.1161290446066179E+00    2.5658298996832478E+00    1.2210888528689659E-01
Br    4.0252292897934687E+00   -1.1117491651116467E+01    1.0386338524497907E+01
Br   -9.7026145312218723E+00    5.7556333258931902E+00    2.8000196453190696E+00
Br   -8.4947104047209940E+00   -1.5174210460237264E-01    8.9794899206396757E+00
Br   -2.7731429169826591E+00   -6.2145288571722679E+00   -2.2906395595118156E+00
Br   -6.1960080790292631E+00    3.1110838192691084E+00    2.6814566822185228E+00
Br   -2.9222266826839887E+00    2.8626716381286572E+00   -2.2350224097096014E-01
Br   -3.5783489565699718E+00    5.8682171139302453E+00    1.8202349840046155E+00
Br   -4.8019074317583149E-01    9.0073801327173335E+00    8.6906687620837690E+00
Br    2.3644964921534006E+00    9.3551587882834752E+00    4.7661042177273032E+00
Br    2.3077120878988300E+00    1.2233752787698354E+01    7.6355827425987819E+00
Br    5.5752436415772366E-01    3.5688209304851499E+00    8.3609336043279114E+00
Br    3.2453828812081871E+00    4.0248224228355323E+00    5.1491638478558457E+00
Br    3.0851560683215760E+00    6.6336660945205974E+00    8.6702626017440405E+00
Br   -5.0399624120521134E+00   -1.9203229231928760E+00    8.9578902409078882E+00
Br    2.7607615450462362E+00   -2.6099021232984763E+00    1.1724402864521162E+01
Br   -2.7480456797570763E+00   -3.2815676929382329E+00    5.8659433989986498E+00
Br   -1.8399928082633041E+00    4.0510007447399587E-01    8.5612046481293280E+00
Br   -1.5242416208045737E+00   -1.2642800793413564E+01   -2.9748777157812332E+00
Br    4.9376161270337100E+00   -7.5485505663088199E+00    1.2597786239357779E+01
Br   -1.2403731901898253E+01    2.2827342511360915E+00   -2.3394164348871396E+00
Br   -2.6321144402356329E+00   -1.2252717136375143E+01    3.5509965750143815E+00
Br   -1.1606636875980131E+01   -4.0291665975147710E+00   -3.1689512132756721E+00
Br    2.3745860465267885E+00    9.9190843249001599E+00    1.1169990098495497E+01
Br   -8.0190307646107239E+00   -4.0190768156840457E+00   -5.4770756761583499E+00
Br   -9.5190959837283771E+00   -4.5929843282560506E-01   -2.6838303456776966E+00
Br    3.2958016734835551E+00    3.9846387443321336E+00    1.1629298950057072E+01
Br   -7.4398783121348142E+00    8.4498887365832296E+00   -3.4742667772501523E+00
Br   -4.0845841666532259E+00    8.2486656284982178E+00   -6.2880138645240375E+00
Br   -3.6776907013298343E+00    1.1349324533792533E+01   -4.0513089797754116E+00
Br   -6.3474184113838978E+00    2.2187529526296523E+00   -3.3200397890087316E+00
Br   -1.1442814336653486E+01   -9.8145534573275697E+00    4.3977392815547853E+00
Br   -3.4828119166836924E+00    1.9274063327758157E+00   -5.9956054076562904E+00
Br   -5.8457169228670258E+00   -3.8098871693245582E+00   -8.4887498476083376E+00
Br   -3.7955472905141501E+00   -3.6756187144067849E+00   -1.1655304921265959E+01
Br   -2.2014800112258359E+00   -1.5560162329644291E+00   -7.9884127723407214E+00
Br   -2.1435655767216995E+00    3.3753735186404317E+00    1.1834230602124034E+01
Br   -5.1254349031864876E+00   -8.6321543795006441E+00    9.8651920277065752E+00
Br   -2.5376837586238037E+00   -8.9909007257900875E+00    6.6343099295553287E+00
Br   -2.3426345021551045E+00   -5.5560746523057531E+00    9.0899197759974140E+00
Br   -8.3608382931591159E+00   -9.0162611171897602E+00    1.2315617602819262E+00
Br   -8.7858909851501856E+00   -5.8425624591126502E+00    3.7768118256419765E+00
Br   -9.2920165956810727E+00    9.3765623756344993E+00    1.1269018909702904E+01
Br    1.1537210362143902E+01    1.0106366941034954E+01    1.8827848009737405E+00
Br   -7.8435923074735010E+00   -8.3166951994275067E+00    1.2885696847709227E+01
Br    1.1645398932460278E+01    9.2169885703203622E+00   -3.6680955190294422E+00
Br    1.1611603875987198E+01    3.3238137526770171E+00    1.6071881908291215E+00
Br   -8.9303420229804953E+00    3.0342117587229396E+00    1.1924962398340345E+01
Br   -1.1738844996399754E+01   -4.3451719885592910E+00   -7.5744662884778702E+00
Br    1.2726481585576034E+01   -2.3142021348865214E+00    8.4640783145123279E+00
Br   -5.4625206218922395E+00   -9.1972285365067261E+00    3.9989173251079206E+00
Br    5.5511535113445962E+00   -3.2179290372854226E+00   -9.4340314257284863E+00
Br    9.0932162937929952E+00   -3.7192825267619254E+00   -1.2124191336486927E+01
Br    1.3314251902249275E+01   -8.2587802565952977E+00    9.4723308234471428E+00
Br    8.7854190914022325E+00   -8.9886497492472781E-02   -9.5339982248010227E+00
Br   -8.6750468826244784E+00   -1.1395635417285114E+01    1.0622432585276801E+01
Br   -2.3905444438050125E+00   -9.1551743465326449E+00    5.3143781458023531E-01
Br   -2.4085342681587822E+00   -5.6427238818656473E+00    2.3851725131974537E+00
Br    6.5658856852999348E+00   -9.5244997051149358E+00   -7.9031321929072051E+00
Br   -4.7288877076806060E+00   -1.0070834268842392E+01   -7.8696348012233130E+00
Br    9.1531815982503115E+00   -9.8334173878324371E+00   -1.1179596616025005E+01
Br    8.7650937838593865E+00   -6.0274052796174091E+00   -8.8349761804868798E+00
Br   -2.7634344379310254E+00   -1.1630976346250604E+01    9.6769292048152877E+00