 # Version information for this restart file 
 # current date 2021-06-17 12:43:26.907
 # current working dir /user/ub2042/exercises/2_fitting/MM_MD_workdir/md_settings.004
 # Program compiled at                              Thu Apr 22 21:44:59 EDT 2021
 # Program compiled on                cpn-k07-07-02.compute.cbls.ccr.buffalo.edu
 # Program compiled for                                                    local
 # Source code revision number                                       git:36754bb
 &GLOBAL
   PRINT_LEVEL  LOW
   PROJECT_NAME cp2k
   RUN_TYPE  MD
 &END GLOBAL
 &MOTION
   &MD
     ENSEMBLE  NVT
     STEPS  10000
     TIMESTEP     2.4999999999999996E+00
     STEP_START_VAL  7500
     TIME_START_VAL     1.8749999999998061E+04
     ECONS_START_VAL    -1.4028929475949734E+01
     TEMPERATURE     3.0000000000000000E+02
     &BAROSTAT
       PRESSURE     1.0100000000000000E+00
       TIMECON     9.9999999999999982E+03
     &END BAROSTAT
     &THERMOSTAT
       TYPE  CSVR
       &CSVR
         TIMECON     9.9999999999999982E+03
         &THERMOSTAT_ENERGY
              -2.2395957500440378E-01
         &END THERMOSTAT_ENERGY
         &RNG_INIT
Wiener process for Thermostat # 1        1 F T F   1.2027761634983569E+00         410547301.0        2880645229.0         554475243.0         200345305.0        3532470403.0        3188192634.0             12345.0             12345.0             12345.0             12345.0             12345.0             12345.0             12345.0             12345.0             12345.0             12345.0             12345.0             12345.0
         &END RNG_INIT
       &END CSVR
     &END THERMOSTAT
     &AVERAGES  T
       &RESTART_AVERAGES
         ITIMES_START  1
         AVECPU     1.7425782691842664E-02
         AVEHUGONIOT     0.0000000000000000E+00
         AVETEMP_BARO     0.0000000000000000E+00
         AVEPOT    -1.4405405185063140E+01
         AVEKIN     4.8818393729320447E-01
         AVETEMP     2.4764033881226433E+02
         AVEKIN_QM     0.0000000000000000E+00
         AVETEMP_QM     0.0000000000000000E+00
         AVEVOL     6.7483345830910886E+06
         AVECELL_A     1.8897261328855703E+02
         AVECELL_B     1.8897261328855703E+02
         AVECELL_C     1.8897261328855703E+02
         AVEALPHA     9.0000000000000000E+01
         AVEBETA     9.0000000000000000E+01
         AVEGAMMA     9.0000000000000000E+01
         AVE_ECONS    -4.8429738306327952E+00
         AVE_PRESS     0.0000000000000000E+00
         AVE_PXX     0.0000000000000000E+00
       &END RESTART_AVERAGES
     &END AVERAGES
     &PRINT
       &ENERGY  SILENT
         &EACH
           MD  10
         &END EACH
       &END ENERGY
     &END PRINT
   &END MD
   &PRINT
     &TRAJECTORY  SILENT
       &EACH
         MD  10
       &END EACH
     &END TRAJECTORY
     &CELL  SILENT
       &EACH
         MD  10
       &END EACH
     &END CELL
     &VELOCITIES  SILENT
       &EACH
         MD  10
       &END EACH
     &END VELOCITIES
     &FORCES  SILENT
       &EACH
         MD  10
       &END EACH
     &END FORCES
     &RESTART  SILENT
       &EACH
         MD  10
       &END EACH
     &END RESTART
   &END PRINT
 &END MOTION
 &FORCE_EVAL
   METHOD  FIST
   &MM
     &FORCEFIELD
       VDW_SCALE14     1.0000000000000000E+00
       EI_SCALE14     1.0000000000000000E+00
       SHIFT_CUTOFF  T
       DO_NONBONDED  T
       IGNORE_MISSING_CRITICAL_PARAMS  T
       &SPLINE
         R0_NB     2.5000000000000000E-01
       &END SPLINE
       &NONBONDED
         &LENNARD-JONES
           ATOMS Br Br
           EPSILON     1.2630795322675199E+02
           SIGMA     3.6900000000000004E+00
         &END LENNARD-JONES
         &LENNARD-JONES
           ATOMS Cs Pb
           EPSILON     8.6920055954630968E+01
           SIGMA     3.6699999999999999E+00
         &END LENNARD-JONES
         &LENNARD-JONES
           ATOMS Cs Cs
           EPSILON     2.2644852172126850E+01
           SIGMA     4.3300000000000001E+00
         &END LENNARD-JONES
         &LENNARD-JONES
           ATOMS Pb Pb
           EPSILON     3.3363415533600227E+02
           SIGMA     5.9000000000000004E+00
         &END LENNARD-JONES
         &LENNARD-JONES
           ATOMS Br Cs
           EPSILON     5.3481070753900497E+01
           SIGMA     3.6300000000000003E+00
         &END LENNARD-JONES
         &LENNARD-JONES
           ATOMS Br Pb
           EPSILON     2.0528187276773045E+02
           SIGMA     2.9800000000000000E+00
         &END LENNARD-JONES
       &END NONBONDED
       &CHARGE
         ATOM Cs
         CHARGE     4.1739999999999999E-01
       &END CHARGE
       &CHARGE
         ATOM Pb
         CHARGE     8.3479999999999999E-01
       &END CHARGE
       &CHARGE
         ATOM Br
         CHARGE    -4.1739999999999999E-01
       &END CHARGE
     &END FORCEFIELD
     &POISSON
       PERIODIC  XYZ
       &EWALD
         EWALD_TYPE  SPME
         GMAX  62 62 62
         O_SPLINE  4
       &END EWALD
     &END POISSON
     &PRINT
       &FF_INFO  LOW
         SPLINE_INFO  F
         SPLINE_DATA  F
       &END FF_INFO
     &END PRINT
   &END MM
   &SUBSYS
     &CELL
       A     1.0000000000000001E+02    0.0000000000000000E+00    0.0000000000000000E+00
       B     0.0000000000000000E+00    1.0000000000000001E+02    0.0000000000000000E+00
       C     0.0000000000000000E+00    0.0000000000000000E+00    1.0000000000000001E+02
       PERIODIC  XYZ
       MULTIPLE_UNIT_CELL  1 1 1
     &END CELL
     &COORD
Cs   -6.7678691449472650E-01   -1.3900355830563798E+00   -5.6735063188550310E+00
Cs    3.6452604516442871E-01   -6.1232866077419379E+00   -4.6490637680989320E+00
Cs    9.3185639873888926E-01   -1.1876853425043745E+01   -4.0547995922133406E+00
Cs   -4.4859228613490387E+00   -7.1772172006114401E+00   -4.0042290665922255E+00
Br   -8.1249173952069480E+00   -1.4363883877520317E+01   -7.6410220305723211E+00
Br    1.1677495939347958E+01   -3.1376115396978812E+00   -9.3998640040230441E+00
Br   -2.7933287166899778E+00    7.0837658619917554E-01   -1.2103566773027099E+01
Cs   -1.1435937372980205E+00    4.7625960531265150E+00   -7.2604393085269301E+00
Cs    6.1911527625362106E-01    6.6709518890267316E-01    1.4837374979664074E-02
Cs    1.1061604261744020E+00   -5.4029663727471302E+00    1.2894772184900929E+00
Br   -5.2667191484965521E+00   -3.2282768259573515E+00    3.3347015732822580E+00
Cs   -9.5273105717655948E+00   -4.7267417962873228E+00    1.3294693945034924E+01
Cs    1.3041735420280975E+01   -1.0186659371776715E+01    3.5292197816528159E-01
Cs   -6.0984696070412596E+00    4.7218559950080934E+00   -4.7758701559477151E-01
Cs   -1.7431453843735141E+00    1.0422886718763840E+01   -1.3052336393397266E+00
Cs   -1.2226499358365028E+00    5.9431570341747237E+00   -4.2194359193997261E-01
Cs    4.6322739046828110E-01    1.0134413101696855E+00    6.0109456742377265E+00
Cs    1.4499523661855425E+00   -4.5806736856112336E+00    6.4287600251738679E+00
Cs    1.2633425436712677E+00   -1.1056709795234877E+01    7.2924532702584353E+00
Cs   -6.8154772129190517E+00    6.2282148222443485E+00    1.1086671076177128E+01
Cs   -6.8154288990971894E+00   -2.9247805478866291E+00   -1.0647718130110375E+01
Cs   -3.3280459805142613E+00   -1.2588944837513539E+01   -3.4780555743336126E+00
Cs   -5.6965724305038554E+00    8.8339183537591723E-02    5.9981610951072692E+00
Br   -2.0186361053496196E+00   -3.2898012846659439E+00    5.8421376828090854E-01
Cs   -1.0537140020109210E+00    5.7709384305471696E+00    4.9262530754823919E+00
Br    1.1961261994488693E+01   -9.0652024262897672E+00   -8.9155998436971533E+00
Cs    1.3860115244630671E+00   -4.6224940253541531E+00    1.1533905636116613E+01
Br   -2.9601988877578749E+00   -2.3253950443367649E-01    2.9276868296217931E+00
Br   -7.0144154647598702E+00   -2.4528842608519490E+00    1.3331566030692233E+01
Cs    9.3746751864776225E+00    1.1972161335669153E+01   -8.1184782140190368E+00
Cs   -1.0385062827788527E+01   -5.4448508929483230E+00    7.8598589940489161E+00
Cs   -4.9026791939303633E+00   -5.2150740099509294E+00    6.4593308590238907E+00
Cs   -7.5780002187250091E+00    9.8697092023436959E+00   -7.1900256538235174E+00
Br   -1.0671236003744458E+01   -7.2998198653070459E+00    1.0506633255977114E+01
Br   -8.2458299600336797E+00   -8.8920504289174485E+00    7.4409748382450616E+00
Cs   -1.0501485692235541E+01   -8.3655717255659319E+00   -4.7415379038792800E+00
Cs   -7.1916188714548754E+00    4.6012813281249061E+00   -6.3684592877666155E+00
Br   -7.2640136846758354E+00   -5.6446605850200138E+00    9.3513131795062705E+00
Cs    1.1217229820741611E+01    8.3095998007856871E+00    9.0183216199641798E+00
Br   -1.2891272348676294E+01    8.6656389507707328E+00    7.7563681074430262E+00
Br   -5.4376738075363136E+00   -3.9486744319051632E+00   -2.3350307567380639E+00
Cs    7.2785489025079242E-01    1.2875552147954012E+00    1.1499594530721142E+01
Cs    1.0344202063855274E+01    7.2250985942533026E+00   -1.3222141488238650E+00
Cs   -9.8250775048691708E+00   -8.6547708028258477E+00   -1.1731894235635297E+01
Cs    1.1547260616500845E+01    1.5709998511219578E+00    4.4305682352089315E+00
Cs   -1.2870526176502025E+01    9.0240998081917425E+00   -7.5953892306925113E+00
Cs    1.2366931187010753E+01   -9.0754496286723167E+00    6.4502879809913702E+00
Cs    5.7972101074452187E+00   -6.4810503114732869E+00   -1.0681970053369682E+01
Cs    7.8899369459450561E+00   -9.6474165993741892E+00    6.6257807904414943E+00
Cs   -4.0900255345074354E+00   -1.1913990316216383E+01    2.1613118382313679E+00
Cs    6.4668282092582121E+00   -1.1239862856992936E+01   -1.0902942911615192E+01
Cs    1.0370936741219245E+01    6.2422364031353705E+00   -6.9692319241800131E+00
Cs    9.6550119421001970E+00    1.3498418150608584E+01    3.4889349618584422E+00
Cs    9.5710640828260356E+00    5.3835277115772069E+00   -1.3286618860941196E+01
Cs    1.9826306382713141E-01   -7.1910574834416190E+00   -1.0645183444619551E+01
Cs   -1.1356395700767719E+01   -1.4467129873282440E+00   -5.0946533022632705E+00
Cs    7.2297150831771955E+00   -1.9130560453805499E+00    1.2045960234040631E+01
Cs    1.3902546664815540E+01   -4.1952112587493140E+00    4.9944584031667105E+00
Cs   -7.0264339269129907E+00   -1.0743266475946545E+01    1.3863815881416736E+01
Cs    1.0820168019327661E-01   -1.4861196497427205E+00   -1.1968336981086415E+01
Cs   -1.2767800826537052E+00    1.1065887590373055E+01    4.5805136152578676E+00
Cs   -1.1250336010730140E+00    4.8535275336940904E+00   -1.1924077861460221E+01
Cs    5.4398515791842579E+00   -3.5516423497895216E-01   -6.9318481254295170E+00
Cs    6.4394796543323833E+00   -5.7354282357746245E+00   -4.9310230692838433E+00
Cs   -4.6483741712487356E+00   -1.0980161668429957E+01    7.5469061918689997E+00
Cs   -1.0616362120475820E+01   -6.6395713199025475E-01    5.9319177544967463E+00
Cs    5.2561191475519262E+00   -8.9171381934641969E-01   -1.2021356822611143E+01
Cs    4.5779807026199579E+00    1.0412908436572661E+01   -1.3261135229257206E+01
Cs    1.3237435900019287E-03    6.2491040900343897E+00    1.1052952731617692E+01
Cs   -6.9351288372041289E+00    1.2265227835414560E+01    4.6604861380184310E+00
Cs    4.1218589531087417E+00    1.1401249834570867E+01   -7.4327915690854196E+00
Cs    4.1548658146754747E+00    4.7685962693796711E+00   -7.4352460432957486E+00
Cs    6.5449597825335468E+00    6.3527154116904205E-01   -7.0238947740601565E-01
Cs    7.2501686637017508E+00   -5.8046901537347253E+00    2.5529528536803575E-01
Cs    7.4005322993720046E+00   -1.1313167556428402E+01    4.2862601742239664E-01
Cs    4.4883109061594570E+00    5.2785422515805429E+00   -1.2488320091759229E+01
Cs   -6.9779974224841510E+00    6.9856631854194244E+00    5.7392337351291349E+00
Cs   -5.9263301328729252E+00   -7.8906083829057057E+00   -1.0417685191441421E+01
Cs    5.7801118399470068E+00    6.4807296107595533E+00   -1.4745522505931088E+00
Cs    5.6580938605897755E+00    1.4756133393396846E+00    5.2433712066072324E+00
Cs    5.9992229815703109E+00   -4.6485914800257166E+00    5.8982459248693875E+00
Cs   -7.1041661966383618E+00    1.0222374243137555E+01   -6.9600678464796384E-01
Cs    1.1047474756874466E+01    1.6642570827492233E+00   -7.8418717238418334E-01
Cs   -5.0781106335180919E+00   -1.0066706362180033E+00    2.7466185897264445E-01
Cs   -1.2153610734637670E+01    5.3701735611420105E+00    5.9260154022772671E+00
Cs   -5.1462351569960951E+00    6.9185350135166457E-01    1.1860440452092604E+01
Cs    3.9430554452757938E+00    1.4200560390894092E+01    6.6271833943264546E+00
Cs    4.6006428557354946E+00    7.4132400903483386E+00    4.3962795250917397E+00
Cs    8.1855349076993438E+00    3.2144482637564242E+00    1.2113657594173326E+01
Cs    4.1411526191324022E+00    1.2724944685107733E+01   -1.6923291734082626E+00
Cs    1.0782098591022446E+01    1.5333066170691825E-01   -6.1067427983618643E+00
Cs    1.1831751438156331E+01   -5.7569964321625857E+00   -5.3952409080028270E+00
Cs    8.0999992556601281E+00   -9.0156014544822121E+00    1.2034471674204397E+01
Cs    1.0314817364746514E+01    1.2256370380098820E+01   -2.3237983172576953E+00
Cs   -1.1055685036686267E+01    1.3680696040438096E+00    1.2360466230358753E+01
Cs   -7.8494040042429525E+00    3.4988989387733356E+00   -1.2878419001389670E+01
Cs   -1.3434432416497256E+01    9.5429996650644906E+00   -6.6288817000537981E-01
Cs   -4.1301663004949765E+00   -4.4751173393694144E+00    1.2734219007162535E+01
Cs    2.4257816069711833E+00   -8.8408630016061309E+00    1.2732133035279556E+01
Cs    5.7557241437286155E+00    9.1333662025021667E+00    1.0377237370519223E+01
Cs    1.2749231081641314E+01   -5.2423237081838705E+00   -6.6342522798109305E-01
Cs   -1.1180922324407492E+01   -9.3193251346748962E-01    6.1178800054450355E-01
Cs   -7.6310732825048895E+00    9.3674572337311570E+00   -1.2277115537669930E+01
Cs   -1.2361659820320455E+01    4.1823844048007093E+00   -1.5499213817075402E-01
Cs   -9.6058871813360422E+00   -1.4228346366195705E+01   -4.1575293096478214E+00
Cs   -1.0469017576548058E+01   -7.4969750387735230E+00    1.7219841143596137E+00
Cs   -5.0228957109450540E+00   -6.4052449560606872E+00    8.1879356336024556E-01
Cs   -1.0492866870977476E+01   -1.1733910729084858E+01    8.1383173410843863E+00
Cs    1.2870023100495684E+01   -3.5379411298295604E+00    1.0735355837201062E+01
Cs    1.0337372531437268E+01    7.5517182324078735E+00    4.0243756262825174E+00
Cs   -1.2227802898183453E+01    4.0327372776307149E+00   -6.0491396632664882E+00
Cs   -5.7040951781415528E+00   -1.4073446628184689E+00   -4.5418677714903488E+00
Cs   -1.0432641074094809E+01   -1.2852262060099330E+01    2.7800613278429109E+00
Cs    1.1820590114391873E+01   -6.4129801366549835E+00   -1.1745888323632114E+01
Cs   -5.0827997432674676E+00   -1.3648968346525146E+01   -9.6417843919423269E+00
Cs   -1.6348563601160084E+00    1.0499946301149379E+01   -1.2287727298924711E+01
Cs    6.8878534070332831E-01   -1.2510474188670935E+01   -9.6218786147774225E+00
Cs   -9.6547995818658516E-01    1.0751263296103081E+01   -6.8813059453715670E+00
Cs   -6.7700574061193084E+00    1.1584174816271700E+01    1.0822385843365378E+01
Cs    1.5479100507855104E+00   -1.0857188730233300E+01    1.1398830496222621E+00
Cs   -1.2062275142518475E+01   -1.8292299318801817E+00   -1.0972312730178180E+01
Cs   -1.1850285980164978E+01    1.1106198546812079E+01    4.9214014108215238E+00
Cs    7.6815919117077209E+00   -1.2149731981181937E+01   -4.9440192715955202E+00
Cs    1.0746005420142946E+01    5.6979832577157406E-02   -1.1909285110456148E+01
Cs   -3.8208313046507880E-01    1.1872374610013884E+01    1.1022385696348035E+01
Pb    3.5318289873038315E+00   -3.0020400195076489E+00   -2.8300055966126445E+00
Pb    4.0432522208320441E+00   -9.0351772280347422E+00   -2.2366024885115254E+00
Pb   -8.2737746320894310E+00   -3.4263837966278206E+00    3.8773845334970161E+00
Pb   -1.7386490933097176E+00   -9.3423306562449753E+00   -1.1424942044299569E+00
Pb    1.7022434341263972E+00    8.5270368230787899E+00   -3.8612533165292384E+00
Pb    2.7857307562597802E+00    2.9621814527644381E+00   -3.4123158206626525E+00
Pb    3.7920346492290276E+00   -2.2071094849150237E+00    3.0302568829907428E+00
Pb    4.0161926946401252E+00   -8.3786553909720567E+00    3.8676529738224268E+00
Pb   -4.1451793703822135E+00    8.5204602655624182E+00    2.0759459805418654E+00
Pb    1.7521439264556311E+00    1.0082547317460875E+01    1.7815186185206451E+00
Pb    2.7284853344697524E+00    4.2361061704373384E+00    2.4575766811425406E+00
Pb    4.3684299548523136E+00   -1.2865805697944754E+00    8.9708358905841177E+00
Pb    4.6392946238489552E+00   -6.8819164298406257E+00    9.6777466500179035E+00
Pb   -2.9491720449493788E+00    2.8106873073527963E+00    2.7877490146303963E+00
Pb    2.2704190452507103E+00    1.0113633081477312E+01    7.5816791180888163E+00
Pb    3.2109695436567356E+00    4.2857170584057362E+00    8.2759465805308992E+00
Pb   -1.7263089332323762E+00   -2.0369053155116763E+00    9.7347940604628018E+00
Pb   -7.7585508108136914E+00   -9.2422895797145355E+00    4.5921052708955878E+00
Pb   -9.3171835481993099E+00    1.5508139025943850E+00   -2.6168356716267667E+00
Pb   -2.9591051213910435E+00   -4.5342677581705750E+00   -8.3608896408821565E+00
Pb   -1.9633530393278660E+00   -8.3225829633227253E+00    4.7675990237473060E+00
Pb   -4.2489680858049130E+00    7.9664788463512561E+00   -3.8960813955546687E+00
Pb   -1.6590398653327310E+00   -8.1748657792962778E+00    1.0449734460848900E+01
Pb   -8.5640112556456405E+00   -4.4503814019164798E+00   -1.8737643265758579E+00
Pb   -7.5968451013332263E+00   -1.0452481470374876E+01   -1.4941924765527395E+00
Pb   -3.1910545869134150E+00    2.1959915857194043E+00   -3.2257903619079618E+00
Pb   -7.9226211712717101E+00   -8.4821634720449506E+00    1.0308491865214554E+01
Pb   -9.0606995088188089E+00   -5.2449351533358355E+00   -7.8961101232869941E+00
Pb    8.9166036949469696E+00   -3.4026984131901221E+00   -8.8959425165673736E+00
Pb    9.2453142017309826E+00   -9.1581513607302547E+00   -8.2019676590740147E+00
Pb   -2.2836422368635430E+00   -1.0183888456860581E+01   -7.3891939953781689E+00
Pb   -1.0348885261756832E+01    6.3830710923341698E+00   -9.9634538809254387E+00
Pb    2.7018035204619313E+00   -3.8464979317633077E+00   -8.7620972160154267E+00
Pb    3.4704897028017831E+00   -9.8771062371500431E+00   -7.6617486507951407E+00
Pb   -3.8126825705005407E+00    1.2003188873234751E+00   -9.2025617450543624E+00
Pb    1.5643458342479706E+00    7.9890074228775685E+00   -9.8724463142254741E+00
Pb    2.0671112900347994E+00    1.8826975031598654E+00   -9.6143552180022631E+00
Pb    9.3641109182278033E+00   -2.5151319773202374E+00   -3.2744487972174738E+00
Pb    9.9422720101624371E+00   -8.8765008043947748E+00   -2.4344338721753154E+00
Pb   -7.4610903726290010E+00   -2.8405124635127472E+00    9.7977076565226700E+00
Pb    7.6802561194288081E+00    8.0996004641466488E+00   -1.0499346718688914E+01
Pb   -9.7488593258646841E+00    7.9198558821328435E-01   -8.7814285489762511E+00
Pb   -3.6376251543221279E+00    9.5017323373672671E+00    8.0358563762135287E+00
Pb    7.3355175028241639E+00    9.4610570211525236E+00   -4.8030103162244870E+00
Pb    8.3283644567932207E+00    3.5853292605685061E+00   -3.8855594938934970E+00
Pb    9.6457669540975868E+00   -1.6039725763380630E+00    2.6574900954193055E+00
Pb    9.7184418684631542E+00   -7.3948555096387123E+00    3.2701305002752616E+00
Pb    7.6181929574406508E+00    2.5491300247390911E+00   -9.8167989964357396E+00
Pb   -2.6888734549334865E+00    3.6085692893589600E+00    8.6804332207091441E+00
Pb    7.5816770575602694E+00    1.0980185191678016E+01    9.2450104730514582E-01
Pb    8.3485510489780754E+00    4.2527238126132882E+00    1.9360553327518610E+00
Pb    9.9355630567451261E+00   -6.4930106146175637E-01    8.4690088823335294E+00
Pb    1.0424931668172990E+01   -6.6784299456420664E+00    9.5563571847827067E+00
Pb    8.0450405243370060E+00    1.0808898789417018E+01    6.6871441189007985E+00
Pb    8.9629437265723411E+00    4.9191674850800933E+00    7.6979818281572987E+00
Pb   -8.9331462615157591E+00    3.0100414274942127E+00    8.8876469842919512E+00
Pb   -2.2217772633364246E+00   -2.7924954967077937E+00    3.8445282994959600E+00
Pb   -1.0046809495511019E+01    7.7723538949976243E+00    2.3090948405471412E+00
Pb   -1.0102999147917410E+01    7.6613278462995140E+00   -3.6458465492239345E+00
Pb   -8.0506800326304333E+00   -1.1423832047743412E+01   -7.1851684442465418E+00
Pb   -4.4071550430219979E+00    7.4940668896453344E+00   -9.7049639367601745E+00
Pb   -8.8008781591640020E+00    2.2156174180431019E+00    2.8857269937449059E+00
Pb   -1.0196613900338679E+01    9.1948360823900259E+00    8.5797988975593977E+00
Pb   -2.5039859065993513E+00   -3.4489892237319930E+00   -2.0669805763433526E+00
Br    4.8791654226579989E-01   -3.3431025483726367E+00   -2.9766740933153208E+00
Br    2.7099168791225758E+00   -3.0057763562692590E+00   -5.9519789564348873E+00
Br    3.4144085843984890E+00   -2.9060066763619410E-02   -2.8714111699350742E+00
Br    1.0539269520135193E+00   -9.1089739706245929E+00   -1.7057751698877774E+00
Br    2.9460232532784234E+00   -8.8858449021612547E+00   -5.0932468023567088E+00
Br    3.9027687396360675E+00   -5.9277453867254586E+00   -2.9300717388006610E+00
Br   -3.1097083439307718E+00   -3.8795643471948562E+00   -5.3722612144000470E+00
Br   -7.7655074495758596E+00   -2.6319163358883992E+00    6.8486816206552259E+00
Br   -2.4924785074559477E+00   -3.4379855880591714E-01   -2.3503163772921356E+00
Br    4.8773915158673500E+00   -1.1828058900537350E+01   -2.2734690054672244E+00
Br    1.2629092237550804E+01   -1.3429997920472452E+00    2.2599075986414836E+00
Br   -4.7480043799522988E+00   -9.2994469718402826E+00   -1.2277311511998763E+00
Br   -1.0944832104633422E+01   -3.8348273668492943E+00    4.1910504847204963E+00
Br   -7.8353992367454079E+00   -3.8270929178551705E+00    7.5909833131234095E-01
Br    1.3092272302973123E+01   -7.5572977697859951E+00    2.5401745789238368E+00
Br   -1.3246578203825843E+00    8.1677143163777526E+00   -3.6362312625465374E+00
Br    1.5219275543519519E+00    8.6371191115311010E+00   -6.8893368238203712E+00
Br    1.2184472474682702E+00    1.1358043315389732E+01   -4.4873037784236249E+00
Br   -4.8604961952607600E-01    2.5930158673909589E+00   -3.4552194553522719E+00
Br    2.0428896486904007E+00    1.9959103876222930E+00   -6.6975959376964234E+00
Br    1.7915750311995429E+00    5.6899585957916203E+00   -3.5404899567480075E+00
Br    5.7837747322899580E-01   -2.5558172928104610E+00    3.3106103050114211E+00
Br    3.5292236317641463E+00   -2.9234676824425105E+00    2.0722592236427806E-01
Br    2.5603340234248759E+00    8.5038814124528728E-01    2.9165385002845934E+00
Br    9.5723791531181746E-01   -8.0783062970862112E+00    4.8201879270648442E+00
Br    4.0487224295194943E+00   -8.9578896788539630E+00    7.1315543831746431E-01
Br    3.6243533826593697E+00   -5.2550431588824296E+00    3.6552663862505375E+00
Br   -7.3225702801266355E+00    6.9123923006186860E+00   -9.9271004394026079E+00
Br   -4.0974072184069845E+00    8.0964136503160251E+00   -1.2441424667041977E+01
Br    4.3212842828249043E+00   -1.1226792634214092E+01    4.2627707657763203E+00
Br   -4.2144527437916945E+00    1.0438064788044363E+01   -9.1394503892922963E+00
Br   -3.8084365063891652E+00    4.4759106488720910E+00   -9.8002391979416839E+00
Br   -8.9312199915239798E+00   -6.2847937685234279E-01    3.0043277818899172E+00
Br   -1.8187960041730027E+00   -9.3844587881753423E+00   -4.3584880925811342E+00
Br   -6.9745585397010341E+00    8.1411545027502967E+00    2.1334975264540592E+00
Br   -4.6788456316735587E+00    7.7596258704728953E+00   -1.0032219550807808E+00
Br   -4.3590601352251745E+00    1.1230480482503950E+01    1.2517192210467161E+00
Br   -9.9096010152378911E-01    9.1703715629742284E+00    1.9471407740034345E+00
Br    1.7407332464581018E+00    9.4376538376584467E+00   -1.1446992389907336E+00
Br    5.6237633861506853E-01    1.2593622427215887E+01    1.0981366245841653E+00
Br   -5.1916410104157418E-01    3.9398758697006442E+00    2.0122005733203312E+00
Br    2.6252549621836785E+00    3.5991308792798065E+00   -1.9096920003820725E-01
Br    2.2866584216427679E+00    6.9684057544367803E+00    1.8254108901483803E+00
Br    1.1520679590257423E+00   -1.9693130267809043E+00    8.7751054124532466E+00
Br    3.9038333308219659E+00   -2.0125976773013479E+00    5.9531842582622989E+00
Br    3.7436037683057957E+00    1.2483669095395280E+00    8.0406995826159147E+00
Br    1.4042550756433712E+00   -7.3627153013120905E+00    9.8668497686565289E+00
Br    4.5646899862903032E+00   -7.5504188693647620E+00    6.6308959257422906E+00
Br    3.9675431344952172E+00   -4.2845301991881266E+00    8.9468224072827862E+00
Br   -1.1757747082769027E+01    1.9838183366454367E+00    2.9676441341133843E+00
Br   -8.5764377890866257E+00    2.1421754013885934E+00    1.5237945707554046E-01
Br    4.8489764790785062E+00   -9.8231929508851987E+00    9.9175895556647138E+00
Br   -9.0114622551141501E+00    5.1902427206899331E+00    2.5508278278436958E+00
Br   -7.9555064932000148E+00   -5.9110016257592601E-02    9.1190415734169843E+00
Br   -1.7844404593945127E+00   -6.4397155631436638E+00   -1.8670182719582809E+00
Br   -5.8220338282051314E+00    2.5742906916389923E+00    3.5321529556059543E+00
Br   -3.2804064648675020E+00    2.6430105987035666E+00   -1.8478183981154106E-01
Br   -3.6306466222475096E+00    5.5956004032190902E+00    2.0750098269441350E+00
Br   -8.2874284079256255E-01    9.1613964945136726E+00    7.4799326767250607E+00
Br    2.1221888689531401E+00    1.0082646114434192E+01    4.5975051889385270E+00
Br    9.3951792414906687E-01    1.2696521703056632E+01    7.9388457224646833E+00
Br    2.1646197805968231E-01    4.2096049866051075E+00    7.8781951586058350E+00
Br    2.8717120030091929E+00    3.9828673284397667E+00    5.1289056148913712E+00
Br    2.9008098365320771E+00    7.3363744339874293E+00    7.2892228059858049E+00
Br   -4.6617340660102791E+00   -2.0485807671188820E+00    9.8942961635966515E+00
Br    4.0088629762184205E+00   -7.5069548009508258E-01    1.1835469971267779E+01
Br   -2.3098256135470523E+00   -2.4163747799608424E+00    6.5716187900399810E+00
Br   -2.1118399739009455E+00    8.4611250616181355E-01    9.4703131053776684E+00
Br   -1.4977685196921044E+00   -1.2100503414664439E+01   -5.2317070201557414E-01
Br    4.9639492233667939E+00   -6.5731305355439682E+00    1.2820418470448901E+01
Br   -1.2251213745020186E+01    1.2133450328035269E+00   -1.7022421178613882E+00
Br   -2.3300333979214738E+00   -1.1249949738147750E+01    5.3488579943401025E+00
Br   -1.1317906609363559E+01   -4.8676803071032140E+00   -1.2772935959512159E+00
Br    2.5586123387444104E+00    9.6500658837797602E+00    1.0584899364350992E+01
Br   -9.0538190525879223E+00   -5.0151183591720656E+00   -5.0091253822196018E+00
Br   -9.2283922035526356E+00   -1.7588992952488720E+00   -2.5032416445986345E+00
Br    2.5746835433919055E+00    4.0700553940940951E+00    1.1006733466517330E+01
Br   -7.2937719523158187E+00    8.4098592392765799E+00   -3.9783460785376650E+00
Br   -4.1914083054481193E+00    7.6025914135538324E+00   -6.9381921378377793E+00
Br   -4.0801298278515770E+00    1.0766025154629920E+01   -3.6653909302958740E+00
Br   -6.3990152358371093E+00    1.9660994658423967E+00   -2.7590595651030627E+00
Br   -1.0816678101294217E+01   -9.1711642124629016E+00    4.4902984609824212E+00
Br   -4.0881215528444841E+00    1.3802407646189545E+00   -5.9013734287880606E+00
Br   -6.1576405094345779E+00   -5.0514321415283110E+00   -7.9054686664230944E+00
Br   -3.3771355095493116E+00   -4.7940293409338786E+00   -1.1281584738089114E+01
Br   -3.9219827236218965E+00   -1.8280885025894016E+00   -9.1779692417195005E+00
Br   -2.5346942377409696E+00    4.3781821424208980E+00    1.1578324265965083E+01
Br   -4.5644511771353784E+00   -8.8044693647129932E+00    1.0705497904851640E+01
Br   -2.3021577455980924E+00   -8.5023855759614371E+00    7.6542718751999592E+00
Br   -2.4506590223013647E+00   -5.2076012978109141E+00    1.0173087934314621E+01
Br   -7.1543367901429784E+00   -9.9085737606968287E+00    1.9079200813323085E+00
Br   -7.4107198542692903E+00   -6.5179807851988008E+00    3.8073786662123483E+00
Br   -9.5259539436306664E+00    9.2057425759893423E+00    1.1394236465982937E+01
Br    1.0426797922903393E+01    1.0564888487715802E+01    9.2139800616312628E-01
Br   -7.4410244915607411E+00   -7.5234270977578692E+00    1.2890478941373125E+01
Br    1.0241427395398706E+01    9.8099290889982811E+00   -4.7879567096112972E+00
Br    1.1355249583972430E+01    4.7612060200868891E+00    1.3545114305117116E+00
Br   -8.0999480597223723E+00    3.1539873706037009E+00    1.1668527878710048E+01
Br   -1.2188571242107377E+01   -5.6293677506535005E+00   -7.6221228478567520E+00
Br    1.2671460959868572E+01   -4.9441962717754584E-01    8.2704371178385170E+00
Br   -4.7962108147428362E+00   -8.8861261694382101E+00    4.8192518399052506E+00
Br    5.9779385539148153E+00   -3.9088242716594581E+00   -8.0805425770669093E+00
Br    8.2753565025686413E+00   -2.9956523804092301E+00   -1.1778613828547183E+01
Br    1.2867018567366788E+01   -6.1776084130166513E+00    8.1336486285598717E+00
Br    8.1797614529472167E+00   -5.4581191035087029E-01   -9.0872461746430879E+00
Br   -8.1691862882199704E+00   -1.1263370818145479E+01    1.0777323328472997E+01
Br   -1.2198934588819914E+00   -8.0243423825242157E+00    1.5862316730878796E+00
Br   -2.2217870445682562E+00   -5.4957375308639342E+00    4.2305413160909371E+00
Br    6.4756556305951021E+00   -8.8361022150220503E+00   -7.6777914005664787E+00
Br   -5.0993135511453369E+00   -1.1020374437938516E+01   -7.0919730702616244E+00
Br    8.3175011459602057E+00   -8.6978122037071088E+00   -1.1030121214115832E+01
Br    9.5486763990294481E+00   -6.0874668304210307E+00   -8.2652983806947553E+00
Br   -2.5405983631858486E-01   -1.1233986652787294E+01    1.0695594012041452E+01