 # Version information for this restart file 
 # current date 2021-06-17 12:44:10.681
 # current working dir /user/ub2042/exercises/2_fitting/MM_MD_workdir/md_settings.004
 # Program compiled at                              Thu Apr 22 21:44:59 EDT 2021
 # Program compiled on                cpn-k07-07-02.compute.cbls.ccr.buffalo.edu
 # Program compiled for                                                    local
 # Source code revision number                                       git:36754bb
 &GLOBAL
   PRINT_LEVEL  LOW
   PROJECT_NAME cp2k
   RUN_TYPE  MD
 &END GLOBAL
 &MOTION
   &MD
     ENSEMBLE  NVT
     STEPS  10000
     TIMESTEP     2.4999999999999996E+00
     STEP_START_VAL  10000
     TIME_START_VAL     2.4999999999995482E+04
     ECONS_START_VAL    -1.4028929475949734E+01
     TEMPERATURE     3.0000000000000000E+02
     &BAROSTAT
       PRESSURE     1.0100000000000000E+00
       TIMECON     9.9999999999999982E+03
     &END BAROSTAT
     &THERMOSTAT
       TYPE  CSVR
       &CSVR
         TIMECON     9.9999999999999982E+03
         &THERMOSTAT_ENERGY
              -2.7683810340438508E-01
         &END THERMOSTAT_ENERGY
         &RNG_INIT
Wiener process for Thermostat # 1        1 F T F   7.6625087601539843E-01         259340563.0         549358240.0        2316100698.0        3346386813.0        1933804780.0        3700774362.0             12345.0             12345.0             12345.0             12345.0             12345.0             12345.0             12345.0             12345.0             12345.0             12345.0             12345.0             12345.0
         &END RNG_INIT
       &END CSVR
     &END THERMOSTAT
     &AVERAGES  T
       &RESTART_AVERAGES
         ITIMES_START  1
         AVECPU     1.7444543765601773E-02
         AVEHUGONIOT     0.0000000000000000E+00
         AVETEMP_BARO     0.0000000000000000E+00
         AVEPOT    -1.4390881582832160E+01
         AVEKIN     5.0417816949053618E-01
         AVETEMP     2.5575370915859529E+02
         AVEKIN_QM     0.0000000000000000E+00
         AVETEMP_QM     0.0000000000000000E+00
         AVEVOL     6.7483345830912264E+06
         AVECELL_A     1.8897261328855686E+02
         AVECELL_B     1.8897261328855686E+02
         AVECELL_C     1.8897261328855686E+02
         AVEALPHA     9.0000000000000000E+01
         AVEBETA     9.0000000000000000E+01
         AVEGAMMA     9.0000000000000000E+01
         AVE_ECONS    -5.1019557155763735E+00
         AVE_PRESS     0.0000000000000000E+00
         AVE_PXX     0.0000000000000000E+00
       &END RESTART_AVERAGES
     &END AVERAGES
     &PRINT
       &ENERGY  SILENT
         &EACH
           MD  10
         &END EACH
       &END ENERGY
     &END PRINT
   &END MD
   &PRINT
     &TRAJECTORY  SILENT
       &EACH
         MD  10
       &END EACH
     &END TRAJECTORY
     &CELL  SILENT
       &EACH
         MD  10
       &END EACH
     &END CELL
     &VELOCITIES  SILENT
       &EACH
         MD  10
       &END EACH
     &END VELOCITIES
     &FORCES  SILENT
       &EACH
         MD  10
       &END EACH
     &END FORCES
     &RESTART  SILENT
       &EACH
         MD  10
       &END EACH
     &END RESTART
   &END PRINT
 &END MOTION
 &FORCE_EVAL
   METHOD  FIST
   &MM
     &FORCEFIELD
       VDW_SCALE14     1.0000000000000000E+00
       EI_SCALE14     1.0000000000000000E+00
       SHIFT_CUTOFF  T
       DO_NONBONDED  T
       IGNORE_MISSING_CRITICAL_PARAMS  T
       &SPLINE
         R0_NB     2.5000000000000000E-01
       &END SPLINE
       &NONBONDED
         &LENNARD-JONES
           ATOMS Br Br
           EPSILON     1.2630795322675199E+02
           SIGMA     3.6900000000000004E+00
         &END LENNARD-JONES
         &LENNARD-JONES
           ATOMS Cs Pb
           EPSILON     8.6920055954630968E+01
           SIGMA     3.6699999999999999E+00
         &END LENNARD-JONES
         &LENNARD-JONES
           ATOMS Cs Cs
           EPSILON     2.2644852172126850E+01
           SIGMA     4.3300000000000001E+00
         &END LENNARD-JONES
         &LENNARD-JONES
           ATOMS Pb Pb
           EPSILON     3.3363415533600227E+02
           SIGMA     5.9000000000000004E+00
         &END LENNARD-JONES
         &LENNARD-JONES
           ATOMS Br Cs
           EPSILON     5.3481070753900497E+01
           SIGMA     3.6300000000000003E+00
         &END LENNARD-JONES
         &LENNARD-JONES
           ATOMS Br Pb
           EPSILON     2.0528187276773045E+02
           SIGMA     2.9800000000000000E+00
         &END LENNARD-JONES
       &END NONBONDED
       &CHARGE
         ATOM Cs
         CHARGE     4.1739999999999999E-01
       &END CHARGE
       &CHARGE
         ATOM Pb
         CHARGE     8.3479999999999999E-01
       &END CHARGE
       &CHARGE
         ATOM Br
         CHARGE    -4.1739999999999999E-01
       &END CHARGE
     &END FORCEFIELD
     &POISSON
       PERIODIC  XYZ
       &EWALD
         EWALD_TYPE  SPME
         GMAX  62 62 62
         O_SPLINE  4
       &END EWALD
     &END POISSON
     &PRINT
       &FF_INFO  LOW
         SPLINE_INFO  F
         SPLINE_DATA  F
       &END FF_INFO
     &END PRINT
   &END MM
   &SUBSYS
     &CELL
       A     1.0000000000000001E+02    0.0000000000000000E+00    0.0000000000000000E+00
       B     0.0000000000000000E+00    1.0000000000000001E+02    0.0000000000000000E+00
       C     0.0000000000000000E+00    0.0000000000000000E+00    1.0000000000000001E+02
       PERIODIC  XYZ
       MULTIPLE_UNIT_CELL  1 1 1
     &END CELL
     &COORD
Cs   -4.6986416127188396E-01   -1.1011747330512802E+00   -6.2439459355659324E+00
Cs    1.3392245514786567E+00   -6.4704780810083387E+00   -4.7370575974262463E+00
Cs    1.3808071283142640E+00   -1.2241412050757202E+01   -3.6037884402140605E+00
Cs   -4.8782816170017238E+00   -8.7876869245782867E+00   -4.3179526668815305E+00
Br   -6.6845457625383622E+00   -1.5080042710197336E+01   -5.7717444697615221E+00
Br    1.1434211127622145E+01   -2.9506067960353737E+00   -8.7049836627859190E+00
Br   -3.6373674300189731E+00    4.2332648414702811E-01   -1.1650129532939625E+01
Cs   -1.6706690938110824E+00    4.3235536567273938E+00   -6.6948202536686265E+00
Cs   -2.5962837729150614E-02    2.4110809594760588E-01    4.2585782397926975E-01
Cs    1.8693601260685559E+00   -6.3009623920674267E+00    1.1140716735662080E+00
Br   -4.8590554038584655E+00   -3.5777918077375568E+00    4.0723355889433748E+00
Cs   -9.1071953674632304E+00   -5.2000246061236917E+00    1.2924279803206273E+01
Cs    1.4328221456296752E+01   -8.7304547017135246E+00    1.0027579488644629E+00
Cs   -6.7051310353459925E+00    5.1850385747879892E+00   -1.0797663047200439E+00
Cs   -1.7418170680003506E+00    1.1501045365767069E+01   -2.0375520056223824E+00
Cs   -5.5304023988894513E-01    5.1039581889790728E+00   -7.4486777687352035E-01
Cs    2.8219197564578191E-01    1.7323001527839690E+00    6.1107900334451299E+00
Cs    9.7727390413982596E-01   -4.5636157808662245E+00    6.7923817504100210E+00
Cs    2.8031157838333338E+00   -1.0621685142282299E+01    8.9834773444689855E+00
Cs   -6.6701206428646529E+00    7.3324382058831743E+00    1.0517258697709922E+01
Cs   -7.8656034148524459E+00   -3.5342450881031380E+00   -1.0901226462636735E+01
Cs   -4.5948614261532414E+00   -1.4005858191662041E+01   -3.1094881689473453E+00
Cs   -5.2923316178848676E+00    9.5613797355062563E-02    6.6331706470670557E+00
Br   -2.6080691843993344E+00   -3.6069748644648785E+00    6.7349225031413507E-01
Cs   -1.0363199303503872E+00    7.0410208221516886E+00    4.7267360995140226E+00
Br    1.1950232348705663E+01   -8.2581069016473307E+00   -9.3589199227500224E+00
Cs    2.4912300039789530E+00   -3.6108819213698093E+00    1.2260080022463205E+01
Br   -2.5130770046012660E+00   -1.0234934856398455E-01    3.2790436583974354E+00
Br   -7.0723577549462062E+00   -2.4301279652852328E+00    1.2925203889269847E+01
Cs    9.1265261602845982E+00    1.2564009972358658E+01   -9.6565471106133955E+00
Cs   -9.8003084904666622E+00   -6.6080507366431975E+00    7.7722324968558976E+00
Cs   -4.1811243699146914E+00   -5.2960975803547692E+00    7.4915408177113196E+00
Cs   -8.8369767260297039E+00    9.1653393407317694E+00   -7.9872861854350452E+00
Br   -1.0049633361560016E+01   -7.6126797047096471E+00    1.1284525023054044E+01
Br   -6.8307004366025241E+00   -9.1637404108766560E+00    8.5505182065620371E+00
Cs   -1.1113303562880576E+01   -8.1769674876556309E+00   -3.3395034332691140E+00
Cs   -7.3919739576302277E+00    3.8949770056790949E+00   -6.8980041049103527E+00
Br   -6.7110853512812705E+00   -5.5908285611226480E+00    9.8267351277432287E+00
Cs    1.1697187581846235E+01    9.4449556064724867E+00    8.7751097429656628E+00
Br   -1.2620482463823855E+01    8.1831159158993110E+00    7.1336658686998922E+00
Br   -5.9074364174671645E+00   -4.6469193626948648E+00   -1.7916084732708846E+00
Cs    8.5633891297276488E-01    2.4144104802999338E+00    1.1446799660073646E+01
Cs    1.0632727407596416E+01    6.4518909237151876E+00   -2.4122291195018297E+00
Cs   -1.1583633953276756E+01   -9.8657216420544920E+00   -8.4425553642006772E+00
Cs    1.1791294217967380E+01    3.3058201360338022E+00    5.4406568557689132E+00
Cs   -1.4662161773151809E+01    7.7977210419918261E+00   -6.9925670174678141E+00
Cs    1.5027405859115483E+01   -8.5291572506004698E+00    6.4933052491298602E+00
Cs    5.6024403346101534E+00   -7.1295479854730504E+00   -1.0259308722510855E+01
Cs    9.0872556415214092E+00   -8.6031976649507236E+00    7.1483546244963980E+00
Cs   -3.4432973859480960E+00   -1.2259299495018642E+01    2.9580127922499000E+00
Cs    8.3381997907258381E+00   -1.2828921377205935E+01   -1.0368863349146631E+01
Cs    9.1168573392030847E+00    7.8887370862071000E+00   -8.0079602963213663E+00
Cs    1.0321632047434717E+01    1.5703835143402122E+01    5.4709323731350388E+00
Cs    9.1746225884186963E+00    5.9182400287078227E+00   -1.3333597326009125E+01
Cs   -5.2861448959438551E-01   -8.7178457696344491E+00   -1.0245841675286977E+01
Cs   -1.1222077365556924E+01   -3.0424963133410672E+00   -5.4294274015592201E+00
Cs    7.8694687494197568E+00   -2.2884574630441641E+00    1.1270128658810853E+01
Cs    1.2941709397951714E+01   -2.1681737547565607E+00    6.0914086945909141E+00
Cs   -3.8111182609825889E+00   -8.6000911409159730E+00    1.5167152843187207E+01
Cs   -9.7059343622581262E-01   -1.8928965719736761E+00   -1.0665024804882380E+01
Cs   -1.0749125281144170E+00    1.1879254548460969E+01    3.7468317386421552E+00
Cs   -1.7463908812786904E+00    3.6194493911043941E+00   -1.2438893462442755E+01
Cs    5.2296880017796399E+00   -4.8129964818808041E-01   -6.6539397820281074E+00
Cs    6.3255110966571690E+00   -6.5792380444106904E+00   -5.6939094919332369E+00
Cs   -3.2820623154749287E+00   -1.0816511251420579E+01    8.4409129009647614E+00
Cs   -1.0651678411716270E+01   -1.0838458840894314E+00    7.4735213406839494E+00
Cs    4.4248617473075598E+00   -1.0102666660358461E+00   -1.1617376898828331E+01
Cs    2.6772423143095185E+00    1.0478478881262564E+01   -1.3013386672984817E+01
Cs   -1.9515684090887253E-01    8.2026304849942591E+00    1.0867785459656023E+01
Cs   -6.8321659153992726E+00    1.0711102473471152E+01    4.1477019024394890E+00
Cs    2.6128310056984372E+00    1.0481318689250017E+01   -8.7957937396665216E+00
Cs    3.5935770012778461E+00    5.2256515883547854E+00   -6.5043073592210305E+00
Cs    5.3658394625033319E+00    9.5917128993168632E-01   -1.0237936195978177E+00
Cs    7.0823906830401100E+00   -4.6420648801315476E+00    3.7823670195727727E-01
Cs    8.6992682582039329E+00   -9.1210781741048539E+00    1.6958671092156046E+00
Cs    4.2510699647517294E+00    4.2745110848284860E+00   -1.2056434500474216E+01
Cs   -6.2782716760532260E+00    4.9765447396905271E+00    5.1321346691536256E+00
Cs   -5.6341689684113101E+00   -8.3583503862114199E+00   -9.5511262769520542E+00
Cs    5.2230883527565455E+00    6.6646923145043075E+00   -1.5640165217192585E+00
Cs    6.8040119614855019E+00    2.2081689853595337E+00    4.4522993954390939E+00
Cs    7.0124274827900930E+00   -3.3300514411938518E+00    6.5088300256464429E+00
Cs   -7.8765998167325844E+00    1.0484064694225390E+01   -1.2263004650503164E+00
Cs    1.2094047747022675E+01    2.0331302221251137E+00   -9.9626252229862011E-01
Cs   -5.6692805436064404E+00   -1.2633106511070105E+00    3.2962262684620075E-01
Cs   -1.2399644145445039E+01    5.4818425119497745E+00    4.7137862208685899E+00
Cs   -4.7709013254020141E+00    1.5322231414567009E+00    1.1224001131676184E+01
Cs    4.8037668599416694E+00    1.3381791431629642E+01    2.9345886077936800E+00
Cs    5.8112056683817706E+00    8.1788412847036138E+00    4.5097511513478592E+00
Cs    6.1136841105306665E+00    3.1667522883648340E+00    9.8514952877405584E+00
Cs    3.5424818126529991E+00    1.1941066387026984E+01   -2.3858920647261384E+00
Cs    1.0661453931022290E+01    1.1092858299772912E+00   -6.5077280351974407E+00
Cs    1.2208901118526651E+01   -5.1533854006010111E+00   -6.2021024604082067E+00
Cs    8.6404646149145510E+00   -7.6136797759429937E+00    1.3104364529664812E+01
Cs    7.8946547584873930E+00    1.3107587242493379E+01   -3.3771637013349478E+00
Cs   -1.0634903543702237E+01    2.4725907089129548E-01    1.1898225130251353E+01
Cs   -6.7922126430440706E+00    2.6224598153371557E+00   -1.2060266129872904E+01
Cs   -1.2314313004153338E+01    9.5370331990516792E+00   -1.3304037513823770E+00
Cs   -3.2846814009973766E+00   -3.7755262707971267E+00    1.2535431875509156E+01
Cs    2.1711686023491659E+00   -8.3169537543508856E+00    1.4643042969367459E+01
Cs    6.6910574905594036E+00    9.0127964335179271E+00    9.8964332830652726E+00
Cs    1.2992611533862963E+01   -2.9613996025274667E+00    7.2585111388321233E-01
Cs   -1.0724237750075700E+01   -2.2576574057195131E+00    1.4572738213954983E+00
Cs   -8.5702546314313075E+00    8.0571574386102913E+00   -1.3195898456960622E+01
Cs   -1.1555979390058518E+01    4.0091127908679098E+00   -4.9501531589250908E-01
Cs   -9.9727249742269883E+00   -1.4254836616062031E+01   -2.6914218140521302E+00
Cs   -1.0331404026858932E+01   -7.3650780353717735E+00    2.6386357773796170E+00
Cs   -4.9099894563731823E+00   -6.4741481456978249E+00    1.8028088666808526E+00
Cs   -9.2946012749617921E+00   -1.1371641659691621E+01    8.8929888579330001E+00
Cs    1.1835218308983704E+01   -1.6636126613540760E+00    1.2233691519718690E+01
Cs    1.1506114394444547E+01    9.2003027909155950E+00    2.9822714772823993E+00
Cs   -1.2370830038236752E+01    2.4227613127208598E+00   -6.5518793250963263E+00
Cs   -5.8990101131150530E+00   -1.8878775563800991E+00   -5.2212358476991643E+00
Cs   -9.1329128086126516E+00   -1.3327124434851120E+01    2.9798528637406534E+00
Cs    9.3552211196535442E+00   -6.9620223953648139E+00   -1.2391650469440179E+01
Cs   -4.4517678571888926E+00   -1.4357240426620059E+01   -8.5923577462759315E+00
Cs   -2.5861383045985309E+00    8.4061587735840586E+00   -1.3543516829421797E+01
Cs    9.7580863891454461E-01   -1.3493128923467731E+01   -8.2638791519185943E+00
Cs   -2.8068036830911840E+00    1.0564763430794567E+01   -7.9708889276109183E+00
Cs   -7.5290565896302963E+00    1.2501965842832403E+01    8.9187140252646842E+00
Cs    2.3081513583345759E+00   -1.2118104334571880E+01    2.7612247125775742E+00
Cs   -1.2262736222275894E+01   -3.7061834784446650E+00   -9.9344452332080557E+00
Cs   -1.3225190104932816E+01    1.0049929545014006E+01    4.1424264579346959E+00
Cs    7.0483847996541167E+00   -1.0986623037879038E+01   -4.8780100465019345E+00
Cs    1.1162511361250258E+01   -1.0347253298992234E+00   -1.1904712162284499E+01
Cs   -1.9293729922666472E+00    1.2958074693565823E+01    8.5733436578479267E+00
Pb    3.2197829274298915E+00   -2.9702695224275728E+00   -2.3395167119471956E+00
Pb    4.4434848454113345E+00   -8.4940119695374090E+00   -1.5488475463180691E+00
Pb   -7.8415430954449450E+00   -4.0493172963590656E+00    4.4923121815045182E+00
Pb   -1.5305933470568245E+00   -1.0045841964058658E+01   -9.6476777655062884E-01
Pb    8.4307763718480544E-01    8.6261772584148062E+00   -4.5775523459365246E+00
Pb    1.7484049169609808E+00    2.7341178386722378E+00   -3.6175705971944820E+00
Pb    3.8469686979153623E+00   -2.0779097792015522E+00    3.1746001052348927E+00
Pb    5.3336981817322489E+00   -7.6735342438041787E+00    4.4725170962018117E+00
Pb   -3.9498898405603859E+00    8.5775343490295644E+00    1.1303331165241530E+00
Pb    1.9161485407751744E+00    9.5266426413397927E+00    1.0663887536734977E+00
Pb    3.0691398766212843E+00    3.6305782499067734E+00    2.3925051545386076E+00
Pb    4.2603355091854436E+00   -6.7622169873447691E-01    9.0444049270005404E+00
Pb    5.4215479523312640E+00   -6.4608663736092433E+00    1.0449897035585400E+01
Pb   -3.0555394088444032E+00    2.9032553356584523E+00    2.5813204037598658E+00
Pb    2.0028717929878961E+00    1.0866059840885637E+01    7.0335086999876832E+00
Pb    3.3086057580949229E+00    5.1534557025421419E+00    8.0539576283457492E+00
Pb   -1.4076845238409981E+00   -1.6160428564951967E+00    9.6967190958910692E+00
Pb   -6.3679879640491874E+00   -9.9041633897580450E+00    5.4656666078733993E+00
Pb   -9.7657284851195598E+00    5.9100438523139764E-01   -2.8299521111788870E+00
Pb   -3.6620228755061004E+00   -4.8360621888309154E+00   -7.9818908863408620E+00
Pb   -5.0920189033058794E-01   -8.5309835125308400E+00    4.9065595888384950E+00
Pb   -5.0351169726732108E+00    7.2026574820500935E+00   -4.6540694065197510E+00
Pb   -7.6811061324941377E-01   -7.5250392039419491E+00    1.0951457430943016E+01
Pb   -8.6755828327375752E+00   -5.1507186870192294E+00   -1.3238441523796218E+00
Pb   -7.1478024396072328E+00   -1.0681084763945206E+01   -7.5491781426315807E-01
Pb   -3.9337605188416722E+00    1.6775322971349111E+00   -3.2021288405278288E+00
Pb   -7.0080950896376741E+00   -8.1795212415111056E+00    1.1653125111186954E+01
Pb   -9.2035639594583980E+00   -6.2988710985846721E+00   -7.3600656990919990E+00
Pb    8.5130153725936264E+00   -3.4596803779430396E+00   -9.0399491940448797E+00
Pb    9.6665927748156086E+00   -9.2892785427978559E+00   -8.3775462281272475E+00
Pb   -2.2977584438301992E+00   -1.0798556713050569E+01   -6.9848173851344431E+00
Pb   -1.1286667005472774E+01    5.5999342756042436E+00   -1.0242613380978954E+01
Pb    2.4022654284510034E+00   -3.9395500888398391E+00   -8.5410623012818103E+00
Pb    3.4499979851914948E+00   -9.6462929557512478E+00   -7.6230222522031994E+00
Pb   -3.8802669599396808E+00    9.0691574974934819E-01   -8.8002907521306444E+00
Pb    5.1529238176802172E-01    7.4033751688288847E+00   -1.0206042487327110E+01
Pb    1.6955804266369923E+00    1.8169774035983137E+00   -9.3707797909339909E+00
Pb    9.2215287714358887E+00   -1.7795058586758432E+00   -3.2397476430184882E+00
Pb    1.0404923959570898E+01   -7.7019343734047165E+00   -2.5459571967603654E+00
Pb   -7.2616770193871769E+00   -2.7812858861394543E+00    1.0063006558201710E+01
Pb    6.2276878839774392E+00    8.4094438097275805E+00   -1.1254732035359396E+01
Pb   -9.4214389808881158E+00   -4.3185375418422756E-01   -8.4989195214229287E+00
Pb   -3.9168354137255221E+00    9.7262467171953055E+00    6.6200890058818205E+00
Pb    6.4395286172753705E+00    9.9624917562213344E+00   -5.4938747362017164E+00
Pb    7.7675496617023887E+00    3.9567850603751777E+00   -4.5905890863823995E+00
Pb    9.4269894505226723E+00   -5.2663000846072205E-01    2.6226712071634792E+00
Pb    1.1258262458567081E+01   -6.3946700958784923E+00    3.7452039391265939E+00
Pb    7.6995773551348483E+00    2.5807140411443821E+00   -1.0282129533417050E+01
Pb   -2.8594633541296632E+00    4.2747723555709118E+00    8.3549509567525746E+00
Pb    7.3910518700638903E+00    1.0593723841543468E+01    2.1654979599021695E-01
Pb    8.7961672493909830E+00    5.0467335204294068E+00    1.5968277862620075E+00
Pb    1.0054193350596364E+01    5.1693715374345683E-01    8.2211701557098191E+00
Pb    1.1344674321619509E+01   -5.2468915022580775E+00    9.8765921452253274E+00
Pb    7.8114563877471452E+00    1.1507053316465202E+01    6.2983355281812319E+00
Pb    9.1977443369769230E+00    6.0917252423424353E+00    7.1305020784155770E+00
Pb   -8.8835278512151881E+00    2.8860392379907189E+00    8.9459041023545112E+00
Pb   -2.0027715246224895E+00   -2.7134458878106553E+00    3.9203726358358097E+00
Pb   -9.8702604611425357E+00    8.0828729304500868E+00    1.5426509630966014E+00
Pb   -1.0576464800917956E+01    6.2603420111144299E+00   -4.0693657141927337E+00
Pb   -8.1047781273003174E+00   -1.2049405542767278E+01   -6.5667326111691589E+00
Pb   -5.4462401706122829E+00    6.7282388696802684E+00   -1.0462923619167899E+01
Pb   -8.9170533469515565E+00    1.9572895763658364E+00    3.2849998910115934E+00
Pb   -9.8419478094560837E+00    8.5526060085933917E+00    7.4571490321220004E+00
Pb   -2.6328646496987655E+00   -4.1129669953938564E+00   -2.0666603787114539E+00
Br    2.9930112549828525E-01   -3.5547108438356201E+00   -2.6884447613176654E+00
Br    3.2032318207975781E+00   -3.5137928987096116E+00   -5.7547689630947403E+00
Br    2.5593073324108109E+00   -1.9071626175979430E-02   -2.8596343140041514E+00
Br    1.3859607052338707E+00   -8.6573820343588324E+00   -1.2596008388226756E+00
Br    3.8075989382168087E+00   -9.1058196640364812E+00   -4.4591253429448212E+00
Br    4.2409178508277074E+00   -5.8434160698573416E+00   -2.6793222237258543E+00
Br   -3.4073284185950476E+00   -4.4059355018758577E+00   -5.1503336999175433E+00
Br   -7.6698177617073293E+00   -3.3830948040331359E+00    7.3530196504289851E+00
Br   -3.0218814161447440E+00   -1.1081294620037188E+00   -3.0967984988602688E+00
Br    3.8304955625737866E+00   -1.1318358721659905E+01   -1.1535035842451988E+00
Br    1.2677243966263385E+01    6.9556886645123842E-02    1.9928072493530693E+00
Br   -4.1572416535262233E+00   -1.0839948597592658E+01   -6.9231750247540313E-01
Br   -1.0617089006154242E+01   -4.3130911929078728E+00    4.5651741679394107E+00
Br   -8.0681884278610241E+00   -4.8908159746562552E+00    1.7720373906683877E+00
Br    1.4122843071103150E+01   -6.0843812843421503E+00    3.7282095912842061E+00
Br   -2.1272655185655571E+00    8.2877631378595975E+00   -4.5440696281041255E+00
Br    5.1635282073260036E-01    7.4790279124222492E+00   -7.2092676957039936E+00
Br    1.9398131752236430E-01    1.0844067195735787E+01   -6.2484407661728030E+00
Br   -1.1892312956768851E+00    2.1179979481826758E+00   -3.2743222507924759E+00
Br    1.7065961280147528E+00    2.2828288728039228E+00   -6.5114800547850606E+00
Br    1.1611974811058254E+00    5.3955108300171908E+00   -3.9728914739834869E+00
Br    1.1078547432055521E+00   -2.4636878417435035E+00    3.3142446107066181E+00
Br    3.0261833605755890E+00   -3.0515425424107958E+00    5.0412437636702223E-01
Br    3.1417178083748123E+00    8.4080836171056816E-01    2.7595838058971438E+00
Br    2.5872505518128701E+00   -8.0779553909484907E+00    4.3413120707660537E+00
Br    5.2200724966282159E+00   -7.5742499530164809E+00    1.2695555057357222E+00
Br    4.6348367863020723E+00   -4.7270421183023918E+00    3.8932647518001553E+00
Br   -7.9287427427835135E+00    6.0874896376406396E+00   -9.7840015221901986E+00
Br   -5.5190599169469055E+00    6.1813426589950620E+00   -1.3336094727432696E+01
Br    6.1310370666828486E+00   -1.0574368926246700E+01    4.5484977067813563E+00
Br   -5.9740794037856828E+00    9.4142039939571269E+00   -1.0671089490914184E+01
Br   -4.4810794639695954E+00    3.7448638941192653E+00   -9.7775402569589911E+00
Br   -7.7097644330125297E+00   -1.1780973805486863E+00    3.7492402129873175E+00
Br   -1.6381161869913097E+00   -1.0472188876789225E+01   -3.7964881126004171E+00
Br   -7.1097134102060764E+00    7.8506562539790909E+00    1.3082811820380369E+00
Br   -4.9959382762709819E+00    7.9547454058005114E+00   -1.8446592118382394E+00
Br   -4.5687119920509316E+00    1.1418155940403727E+01    1.3591970030431905E-01
Br   -1.2217314907758787E+00    9.2019233174062496E+00    1.1589718450574342E+00
Br    1.5870212710186147E+00    9.2466815974011833E+00   -1.9349321427373265E+00
Br    1.0937307090285062E+00    1.2290037944716619E+01    9.2333269959522429E-02
Br   -1.5273037736235232E-01    3.4803397445985569E+00    2.9514334277423546E+00
Br    2.3320535763088559E+00    3.0085924703271449E+00   -7.3470148538380864E-01
Br    2.4063719888020749E+00    6.6639330820126839E+00    1.5049409425779159E+00
Br    1.2491440302307986E+00   -8.9320207838776366E-01    1.0027349991305950E+01
Br    3.9365115058532489E+00   -1.8958190960818417E+00    6.1573107326166063E+00
Br    3.5046225617741871E+00    1.9277305594229837E+00    8.8201792821399145E+00
Br    2.7616968185989328E+00   -7.2378363274317907E+00    1.1613437590579396E+01
Br    5.7588575022375279E+00   -7.8800807707380187E+00    7.4415662396231470E+00
Br    4.6244436834913865E+00   -3.4192613310503637E+00    9.7371111621405610E+00
Br   -1.1667898113457797E+01    1.2223003847438152E+00    4.0608950401872352E+00
Br   -9.5603074631269269E+00    1.1172269552185297E+00    6.3306538179588467E-01
Br    6.0913765134323663E+00   -9.1568624322720442E+00    1.1108509041969761E+01
Br   -9.3121027571087769E+00    4.4971400243635111E+00    2.1724587627816732E+00
Br   -7.5483606825547573E+00    6.5761936444992217E-02    9.5076680771187707E+00
Br   -2.3191636571709426E+00   -6.8963354631391445E+00   -2.5374759065932477E+00
Br   -5.9100574576550358E+00    1.7865456202298773E+00    2.7259367225700228E+00
Br   -3.5187013216090808E+00    1.4157004781855695E+00   -1.8905970943398684E-01
Br   -3.1904740828342324E+00    5.6105794187774407E+00    1.2651834487080218E+00
Br   -1.1004804244372428E+00    1.0252737020750880E+01    6.6021671174236909E+00
Br    2.3289717011571649E+00    1.0727960904342124E+01    3.8444573707169760E+00
Br    1.4330592974547780E+00    1.3479766473589761E+01    6.6661208855038874E+00
Br    5.3959906302107297E-01    4.4106667359555249E+00    8.4057478681304421E+00
Br    3.1549389817649884E+00    4.0261682887803136E+00    5.2513876688539751E+00
Br    2.0092901052582315E+00    7.7868343977746708E+00    7.8014096343260100E+00
Br   -4.3583192557739689E+00   -2.1578698849191604E+00    9.6787050482230530E+00
Br    5.0693052134734016E+00    1.3829408589391465E-01    1.2033487633860762E+01
Br   -1.7128414329479620E+00   -2.4843528011708944E+00    6.8722561949385303E+00
Br   -2.1818362301829430E+00    1.2425814016198757E+00    8.7096316423173423E+00
Br   -6.0803210205669456E-01   -1.2778758869945452E+01   -8.0404130959293674E-01
Br    5.9589408621014623E+00   -5.4725012246189166E+00    1.3156896507393117E+01
Br   -1.2587977002072169E+01    3.4971262658045360E-01   -3.4266471537663619E+00
Br   -1.0800881247310488E+00   -1.1172609802321533E+01    5.7071375181084516E+00
Br   -1.1474087858059599E+01   -5.2051228720143294E+00   -7.2692819846286749E-01
Br    7.2746473835225200E-01    1.0931940369959458E+01    9.7113196930764278E+00
Br   -9.1058675623666154E+00   -5.5044015447115138E+00   -4.3889543811993743E+00
Br   -9.6410972944723223E+00   -2.5149852696088200E+00   -1.9361740778747856E+00
Br    3.6286706080673996E+00    5.6904990986491546E+00    1.0843149701619527E+01
Br   -7.7699319503735111E+00    6.1283249533271773E+00   -4.2968189515993620E+00
Br   -5.3220446731009456E+00    6.3980482745836893E+00   -7.4139455773732239E+00
Br   -5.7122266990723176E+00    1.0120002027951505E+01   -5.6182207982954369E+00
Br   -6.9345845203701364E+00    8.2558088253470741E-01   -2.7658213272257335E+00
Br   -9.1801336504029418E+00   -1.1314916614005117E+01    5.8332047929880577E+00
Br   -4.5884647818667368E+00    1.9114538452475582E+00   -6.1147857513786210E+00
Br   -6.3944228288238927E+00   -5.7870962392870808E+00   -7.6150737243439472E+00
Br   -3.8860980048058678E+00   -5.1207173512778246E+00   -1.0924864550305271E+01
Br   -3.0321970302492454E+00   -1.8609501126957766E+00   -8.1075270229711780E+00
Br   -2.6899476124002240E+00    5.2250724438415839E+00    1.0863398571843172E+01
Br   -3.6457985605908707E+00   -7.8323996727932457E+00    1.1021608460509613E+01
Br   -2.4902551608727966E-01   -7.9845741981313862E+00    7.7596459107496827E+00
Br   -5.8654046308632668E-01   -4.9120458480340128E+00    9.7933482935376936E+00
Br   -6.9412769693582321E+00   -9.9468725044892814E+00    2.7682711906883548E+00
Br   -7.3480537361249780E+00   -6.9716955606918205E+00    5.3406335451580569E+00
Br   -9.2585538475268212E+00    9.9459852085172056E+00    9.6465044402772282E+00
Br    1.0272154668756338E+01    1.0649380174143269E+01   -6.3587426777562406E-02
Br   -5.6441248777548338E+00   -6.0339735275175208E+00    1.3848585535422075E+01
Br    8.9333550558771453E+00    1.1239789684258101E+01   -6.5769794944211002E+00
Br    1.1549640009228812E+01    5.7651194487437740E+00    4.9766325883294898E-01
Br   -8.2325521981620895E+00    2.9261070553937771E+00    1.2579869941908717E+01
Br   -1.1889876767588706E+01   -6.4908495941645654E+00   -6.7505849829618070E+00
Br    1.2647869046381409E+01    1.2238682705501496E+00    7.6391940359748354E+00
Br   -3.8841999085891556E+00   -9.0340795677515349E+00    5.7633420998657119E+00
Br    5.3461486376165981E+00   -3.5902033129294706E+00   -8.9650934172127865E+00
Br    8.9182553397420570E+00   -3.6831502985260358E+00   -1.1777901279341734E+01
Br    1.4034299637480160E+01   -5.2417060747376327E+00    9.3799853015052523E+00
Br    7.5993568461703678E+00   -5.6149955882610003E-01   -1.0142208366388868E+01
Br   -6.3582232549607554E+00   -1.0567032706477844E+01    1.3033607855097245E+01
Br   -1.4198651001012141E+00   -9.0328270356532734E+00    2.0802045888805094E+00
Br   -1.0231118357696083E+00   -5.5553466213938982E+00    4.2404262031095126E+00
Br    6.3383299656962322E+00   -9.2150390780057307E+00   -7.8213513480119135E+00
Br   -5.2902610818485636E+00   -1.1166876741783312E+01   -7.0209580250576265E+00
Br    7.6277657376191295E+00   -9.6287024069701594E+00   -1.1924110512661855E+01
Br    8.6551938926444780E+00   -6.6668261270973952E+00   -8.8241034341994471E+00
Br    5.5217866516066659E-02   -1.0304492741559846E+01    1.0974143965792921E+01