 # Version information for this restart file 
 # current date 2021-06-17 12:44:10.294
 # current working dir /user/ub2042/exercises/2_fitting/MM_MD_workdir/md_settings.004
 # Program compiled at                              Thu Apr 22 21:44:59 EDT 2021
 # Program compiled on                cpn-k07-07-02.compute.cbls.ccr.buffalo.edu
 # Program compiled for                                                    local
 # Source code revision number                                       git:36754bb
 &GLOBAL
   PRINT_LEVEL  LOW
   PROJECT_NAME cp2k
   RUN_TYPE  MD
 &END GLOBAL
 &MOTION
   &MD
     ENSEMBLE  NVT
     STEPS  10000
     TIMESTEP     2.4999999999999996E+00
     STEP_START_VAL  9980
     TIME_START_VAL     2.4949999999995503E+04
     ECONS_START_VAL    -1.4028929475949734E+01
     TEMPERATURE     3.0000000000000000E+02
     &BAROSTAT
       PRESSURE     1.0100000000000000E+00
       TIMECON     9.9999999999999982E+03
     &END BAROSTAT
     &THERMOSTAT
       TYPE  CSVR
       &CSVR
         TIMECON     9.9999999999999982E+03
         &THERMOSTAT_ENERGY
              -2.7393584423681538E-01
         &END THERMOSTAT_ENERGY
         &RNG_INIT
Wiener process for Thermostat # 1        1 F T F   1.0571577890008135E+00        2254892290.0        3032320490.0        1438837230.0         879273700.0         502542477.0        1398262910.0             12345.0             12345.0             12345.0             12345.0             12345.0             12345.0             12345.0             12345.0             12345.0             12345.0             12345.0             12345.0
         &END RNG_INIT
       &END CSVR
     &END THERMOSTAT
     &AVERAGES  T
       &RESTART_AVERAGES
         ITIMES_START  1
         AVECPU     1.7441510847598974E-02
         AVEHUGONIOT     0.0000000000000000E+00
         AVETEMP_BARO     0.0000000000000000E+00
         AVEPOT    -1.4390983217806612E+01
         AVEKIN     5.0402947316241642E-01
         AVETEMP     2.5567828019368528E+02
         AVEKIN_QM     0.0000000000000000E+00
         AVETEMP_QM     0.0000000000000000E+00
         AVEVOL     6.7483345830912264E+06
         AVECELL_A     1.8897261328855686E+02
         AVECELL_B     1.8897261328855686E+02
         AVECELL_C     1.8897261328855686E+02
         AVEALPHA     9.0000000000000000E+01
         AVEBETA     9.0000000000000000E+01
         AVEGAMMA     9.0000000000000000E+01
         AVE_ECONS    -5.1001687579981319E+00
         AVE_PRESS     0.0000000000000000E+00
         AVE_PXX     0.0000000000000000E+00
       &END RESTART_AVERAGES
     &END AVERAGES
     &PRINT
       &ENERGY  SILENT
         &EACH
           MD  10
         &END EACH
       &END ENERGY
     &END PRINT
   &END MD
   &PRINT
     &TRAJECTORY  SILENT
       &EACH
         MD  10
       &END EACH
     &END TRAJECTORY
     &CELL  SILENT
       &EACH
         MD  10
       &END EACH
     &END CELL
     &VELOCITIES  SILENT
       &EACH
         MD  10
       &END EACH
     &END VELOCITIES
     &FORCES  SILENT
       &EACH
         MD  10
       &END EACH
     &END FORCES
     &RESTART  SILENT
       &EACH
         MD  10
       &END EACH
     &END RESTART
   &END PRINT
 &END MOTION
 &FORCE_EVAL
   METHOD  FIST
   &MM
     &FORCEFIELD
       VDW_SCALE14     1.0000000000000000E+00
       EI_SCALE14     1.0000000000000000E+00
       SHIFT_CUTOFF  T
       DO_NONBONDED  T
       IGNORE_MISSING_CRITICAL_PARAMS  T
       &SPLINE
         R0_NB     2.5000000000000000E-01
       &END SPLINE
       &NONBONDED
         &LENNARD-JONES
           ATOMS Br Br
           EPSILON     1.2630795322675199E+02
           SIGMA     3.6900000000000004E+00
         &END LENNARD-JONES
         &LENNARD-JONES
           ATOMS Cs Pb
           EPSILON     8.6920055954630968E+01
           SIGMA     3.6699999999999999E+00
         &END LENNARD-JONES
         &LENNARD-JONES
           ATOMS Cs Cs
           EPSILON     2.2644852172126850E+01
           SIGMA     4.3300000000000001E+00
         &END LENNARD-JONES
         &LENNARD-JONES
           ATOMS Pb Pb
           EPSILON     3.3363415533600227E+02
           SIGMA     5.9000000000000004E+00
         &END LENNARD-JONES
         &LENNARD-JONES
           ATOMS Br Cs
           EPSILON     5.3481070753900497E+01
           SIGMA     3.6300000000000003E+00
         &END LENNARD-JONES
         &LENNARD-JONES
           ATOMS Br Pb
           EPSILON     2.0528187276773045E+02
           SIGMA     2.9800000000000000E+00
         &END LENNARD-JONES
       &END NONBONDED
       &CHARGE
         ATOM Cs
         CHARGE     4.1739999999999999E-01
       &END CHARGE
       &CHARGE
         ATOM Pb
         CHARGE     8.3479999999999999E-01
       &END CHARGE
       &CHARGE
         ATOM Br
         CHARGE    -4.1739999999999999E-01
       &END CHARGE
     &END FORCEFIELD
     &POISSON
       PERIODIC  XYZ
       &EWALD
         EWALD_TYPE  SPME
         GMAX  62 62 62
         O_SPLINE  4
       &END EWALD
     &END POISSON
     &PRINT
       &FF_INFO  LOW
         SPLINE_INFO  F
         SPLINE_DATA  F
       &END FF_INFO
     &END PRINT
   &END MM
   &SUBSYS
     &CELL
       A     1.0000000000000001E+02    0.0000000000000000E+00    0.0000000000000000E+00
       B     0.0000000000000000E+00    1.0000000000000001E+02    0.0000000000000000E+00
       C     0.0000000000000000E+00    0.0000000000000000E+00    1.0000000000000001E+02
       PERIODIC  XYZ
       MULTIPLE_UNIT_CELL  1 1 1
     &END CELL
     &COORD
Cs   -5.0752153996940785E-01   -1.1836270309556955E+00   -6.1200230268405766E+00
Cs    1.3210988760196705E+00   -6.4239613396243618E+00   -4.8178088377198760E+00
Cs    1.3642412185369672E+00   -1.2309636538531340E+01   -3.7053807262885186E+00
Cs   -4.8539680293936671E+00   -8.8228685665036721E+00   -4.2352159730294021E+00
Br   -6.7200069518958330E+00   -1.4950515438407120E+01   -5.7884290330007770E+00
Br    1.1450382312075492E+01   -2.9642091031012350E+00   -8.6979019045720580E+00
Br   -3.7501021523877753E+00    3.8371073776677334E-01   -1.1706033427147446E+01
Cs   -1.5876207780197700E+00    4.2621037609818222E+00   -6.5467275869283847E+00
Cs   -9.2007022417094075E-02    2.1919312421428519E-01    4.2697329863106359E-01
Cs    1.7626901125710757E+00   -6.3066501647696924E+00    1.1620207168986869E+00
Br   -4.5587085028721983E+00   -3.6350695744711925E+00    3.9818344043913032E+00
Cs   -9.0922518130405603E+00   -5.1011145849736295E+00    1.2900034820148193E+01
Cs    1.4351062356499114E+01   -8.6861532622673359E+00    1.0170500808020526E+00
Cs   -6.6815494968629139E+00    5.2767146007515784E+00   -1.0904184522270199E+00
Cs   -1.7071322354775644E+00    1.1570278119275619E+01   -1.9659263469311323E+00
Cs   -4.9825016175146597E-01    4.9703756580299032E+00   -6.9554881389741507E-01
Cs    3.9510990524200879E-01    1.6818012429399281E+00    6.2112053488220660E+00
Cs    9.6936038770985522E-01   -4.6009806238089119E+00    6.8235572316920781E+00
Cs    2.7051208432645955E+00   -1.0587074442172980E+01    8.9952744346941085E+00
Cs   -6.5749978889915024E+00    7.2839057883652307E+00    1.0461582189893372E+01
Cs   -7.9337292612432311E+00   -3.4662021324348067E+00   -1.0905995739993571E+01
Cs   -4.4705822544561293E+00   -1.4079469645346476E+01   -3.0219708752035146E+00
Cs   -5.2199842938249938E+00    1.0534367605657091E-01    6.5710578663901371E+00
Br   -2.7045726949097300E+00   -3.6378155125829026E+00    7.2316957064806997E-01
Cs   -1.0522209847279689E+00    7.0835140135929153E+00    4.6950900150210284E+00
Br    1.2094986679962407E+01   -8.2794895103735300E+00   -9.4560379395033394E+00
Cs    2.5183549213231458E+00   -3.5476177431838409E+00    1.2159698624592897E+01
Br   -2.4038147207989193E+00    4.7698722378485749E-02    3.3342852512804519E+00
Br   -7.0709403759499247E+00   -2.2589615005078589E+00    1.2883108560388148E+01
Cs    9.2073962608633693E+00    1.2531044990053692E+01   -9.5635031570399374E+00
Cs   -9.8477753558789658E+00   -6.6708387219340741E+00    7.7296849887541388E+00
Cs   -4.1174510395902191E+00   -5.3971297345794547E+00    7.6342617732063456E+00
Cs   -8.9672909170372392E+00    9.3012864514526310E+00   -8.0153817803139962E+00
Br   -9.9879094131042141E+00   -7.7521215158742658E+00    1.1213105135192738E+01
Br   -6.9096536337311072E+00   -9.1769812261470491E+00    8.4498620871569354E+00
Cs   -1.1136531843152516E+01   -8.1583413772781395E+00   -3.2973058132362567E+00
Cs   -7.3505292071444961E+00    3.8313931027761510E+00   -6.9204906956970422E+00
Br   -6.6740869778256577E+00   -5.7428840571198050E+00    9.7452188940601019E+00
Cs    1.1664884447446244E+01    9.4440951242248481E+00    8.7572244080784039E+00
Br   -1.2669561132188859E+01    8.1565786115319732E+00    7.0352932157751313E+00
Br   -5.7906303995931756E+00   -4.6559848836742521E+00   -1.6507610617457580E+00
Cs    8.9988451480224496E-01    2.3026631684924026E+00    1.1438127408208889E+01
Cs    1.0640158571071112E+01    6.4408888655768344E+00   -2.3653967850459159E+00
Cs   -1.1605174493308144E+01   -9.8420513977309927E+00   -8.4539374164847061E+00
Cs    1.1719682134615237E+01    3.3413692037212295E+00    5.4882716144026054E+00
Cs   -1.4614773286654504E+01    7.7779149831025345E+00   -7.0648904820753859E+00
Cs    1.4974754668079949E+01   -8.5103287043451807E+00    6.3692917116835668E+00
Cs    5.6060432050472127E+00   -7.1550927968576881E+00   -1.0242520910179660E+01
Cs    9.1939235000251589E+00   -8.6182248274772544E+00    7.2108026182652889E+00
Cs   -3.3553477713952820E+00   -1.2206702658844362E+01    2.9265190489179553E+00
Cs    8.3221280399398285E+00   -1.2813100371686748E+01   -1.0434518916500025E+01
Cs    9.0695380426722263E+00    7.9544507345453246E+00   -8.0312365716257528E+00
Cs    1.0238997032294092E+01    1.5631885035733326E+01    5.4308709436574212E+00
Cs    9.2428587656590171E+00    5.8421961490776599E+00   -1.3250076715911073E+01
Cs   -5.5833815661374697E-01   -8.6672795564832583E+00   -1.0269898248745061E+01
Cs   -1.1246331249598127E+01   -2.8764438419991207E+00   -5.5040768375325531E+00
Cs    7.9099772086699831E+00   -2.2833144719756975E+00    1.1212475537051967E+01
Cs    1.2877177336188092E+01   -2.1981308436789910E+00    6.1230685987876896E+00
Cs   -3.7802128393753915E+00   -8.6018521213934687E+00    1.5139304287311445E+01
Cs   -9.6253543164717814E-01   -2.0177886300844938E+00   -1.0600690970545974E+01
Cs   -9.5541197321197147E-01    1.1976713221339928E+01    3.7416770352041260E+00
Cs   -1.7152569092468648E+00    3.6112589278504084E+00   -1.2480101280186338E+01
Cs    5.2289528607762090E+00   -6.4260503136819302E-01   -6.7281193980746981E+00
Cs    6.3160203720534396E+00   -6.5641391763388928E+00   -5.5191762513741320E+00
Cs   -3.2758806695849496E+00   -1.0833640065338361E+01    8.4737648023331982E+00
Cs   -1.0759704053067995E+01   -1.0952450231714588E+00    7.4722141406364786E+00
Cs    4.3417647792067031E+00   -9.9702621139328018E-01   -1.1699849273613923E+01
Cs    2.7099329156325833E+00    1.0553594385466123E+01   -1.3073957072344463E+01
Cs   -1.7781629711469696E-01    8.1604828712666535E+00    1.0855150612535853E+01
Cs   -6.8239917714014329E+00    1.0766277788674655E+01    4.2225654814958302E+00
Cs    2.5817424998769418E+00    1.0499548359186562E+01   -8.6895134034514463E+00
Cs    3.6525841135134343E+00    5.2050890613324761E+00   -6.5797246440857213E+00
Cs    5.2934119641731741E+00    9.5186361923945462E-01   -1.0147552049867468E+00
Cs    7.0016996386699901E+00   -4.6470861311867235E+00    4.0351244828400179E-01
Cs    8.5728239493958842E+00   -9.0398671924341958E+00    1.7252241848692380E+00
Cs    4.1652238901727232E+00    4.1612159229822732E+00   -1.1988621907669831E+01
Cs   -6.1574030564962072E+00    4.9540294063868089E+00    5.1159220920964268E+00
Cs   -5.6048788682294628E+00   -8.3272992750982890E+00   -9.5623849030021333E+00
Cs    5.1725913236183532E+00    6.5840803613861105E+00   -1.5378796683821734E+00
Cs    6.7867188152163669E+00    2.2973371997859569E+00    4.5537201506733984E+00
Cs    7.1727686118929803E+00   -3.2249069060380751E+00    6.5082816640846897E+00
Cs   -7.9106988859631020E+00    1.0415112256823999E+01   -1.1573315220452629E+00
Cs    1.2063195202001152E+01    1.9491034298539003E+00   -9.8016186506850300E-01
Cs   -5.7569864590287905E+00   -1.2501093235906400E+00    3.2271982095820828E-01
Cs   -1.2373336385101375E+01    5.4905436470431948E+00    4.7086193623923176E+00
Cs   -4.7342650806399718E+00    1.5180562384090293E+00    1.1222925061163217E+01
Cs    4.8635664244568133E+00    1.3331885600852653E+01    2.9132793030886810E+00
Cs    5.8156332983553876E+00    8.0329039854782938E+00    4.4671588820778316E+00
Cs    6.1056255921035376E+00    3.1566926978638015E+00    1.0002493056883020E+01
Cs    3.6668519117212566E+00    1.1883921211947083E+01   -2.3236400357045448E+00
Cs    1.0717951955702333E+01    1.1859090805394512E+00   -6.4394239670861664E+00
Cs    1.2125255828819702E+01   -5.1724386730309675E+00   -6.3133363910760441E+00
Cs    8.5344616628634693E+00   -7.5828332806344285E+00    1.3143783058639324E+01
Cs    7.9255925375286873E+00    1.3022023894477444E+01   -3.3024568905509768E+00
Cs   -1.0620847949872461E+01    2.2277157907737236E-01    1.1893296543348036E+01
Cs   -6.8589149896207084E+00    2.6087899017461185E+00   -1.1978308853607334E+01
Cs   -1.2319854132542106E+01    9.4764521768832974E+00   -1.5284590690466686E+00
Cs   -3.2883041086512015E+00   -3.8379381057047905E+00    1.2538979582381362E+01
Cs    2.1430156415118518E+00   -8.2788253764658641E+00    1.4581289594729069E+01
Cs    6.6822046552887198E+00    9.1221256480344692E+00    9.8288396360893611E+00
Cs    1.2943657861048456E+01   -2.9710630156091140E+00    6.8030228185870412E-01
Cs   -1.0780197938247630E+01   -2.3330415650396787E+00    1.4029892524409000E+00
Cs   -8.6081934621226583E+00    8.0853457705346194E+00   -1.3364326298965624E+01
Cs   -1.1653115576437695E+01    4.0582819285232272E+00   -5.2048559262277128E-01
Cs   -9.9844572640080926E+00   -1.4276179188052316E+01   -2.7328826741871937E+00
Cs   -1.0258541141233689E+01   -7.4320327227361416E+00    2.7336628346571130E+00
Cs   -4.9601642205654937E+00   -6.5433100206111439E+00    1.9013465495327688E+00
Cs   -9.2558783933486239E+00   -1.1338278601802005E+01    8.8705731487024977E+00
Cs    1.1862162460442580E+01   -1.6214507420400193E+00    1.2256367532424289E+01
Cs    1.1631125124259778E+01    9.1265824031013079E+00    2.9082246234076887E+00
Cs   -1.2388655671247191E+01    2.4018277474894334E+00   -6.4478913830959259E+00
Cs   -5.8842816427681601E+00   -1.8869134814711315E+00   -5.1233606427828517E+00
Cs   -9.1429709628915266E+00   -1.3462470932871001E+01    2.9442257145791966E+00
Cs    9.3577579922621599E+00   -6.8805041362523207E+00   -1.2278016191272858E+01
Cs   -4.4925684218593904E+00   -1.4342998414341503E+01   -8.5337276050751054E+00
Cs   -2.6599852409200611E+00    8.4605374026546425E+00   -1.3393464669460654E+01
Cs    8.8287946560680575E-01   -1.3479903244868623E+01   -8.3097814572378024E+00
Cs   -2.8161922280594176E+00    1.0519928919199007E+01   -7.8984749896205768E+00
Cs   -7.4730495994079575E+00    1.2478226350152712E+01    8.9966138838573233E+00
Cs    2.3104966881575888E+00   -1.2208228356178036E+01    2.8574453730496465E+00
Cs   -1.2388947401882351E+01   -3.7083250942942079E+00   -9.9166937866938749E+00
Cs   -1.3322768307156906E+01    9.9961506761593952E+00    4.2002621392385544E+00
Cs    7.0642758651479358E+00   -1.1008916151212283E+01   -4.8027249953679929E+00
Cs    1.1051843844029996E+01   -1.0132488191993212E+00   -1.1893361168623995E+01
Cs   -1.7923157696784409E+00    1.2970193701771022E+01    8.5611187464206484E+00
Pb    3.3078660097431545E+00   -3.0331358448389567E+00   -2.4236861896988127E+00
Pb    4.4477337706384423E+00   -8.4511401768743468E+00   -1.4548771852502320E+00
Pb   -7.8293315414897942E+00   -4.0981321671129418E+00    4.5189668984866875E+00
Pb   -1.5465720370059488E+00   -1.0048567991326951E+01   -9.4174422825580961E-01
Pb    7.9953154150578176E-01    8.7040404800918338E+00   -4.5820069257140625E+00
Pb    1.7207465914003981E+00    2.7368107183262196E+00   -3.6675889600645450E+00
Pb    3.8656028569692218E+00   -2.1065763635355923E+00    3.2291679946592287E+00
Pb    5.3458746910654611E+00   -7.6559833514021580E+00    4.4865188005367260E+00
Pb   -3.9645347833527667E+00    8.5429375693062362E+00    1.0957502255815095E+00
Pb    1.8660086916790097E+00    9.6708794035298009E+00    1.0346745860308864E+00
Pb    3.1196613366345445E+00    3.5762834699741295E+00    2.3385565424591266E+00
Pb    4.2297713417222633E+00   -6.9361019422415315E-01    9.0377701693573425E+00
Pb    5.3853697896731410E+00   -6.4512072387756154E+00    1.0427923509442198E+01
Pb   -3.0531540382497537E+00    2.9004272066503503E+00    2.5223135950170725E+00
Pb    2.0934574954949761E+00    1.0842717998557672E+01    6.9956488950143605E+00
Pb    3.3606516088936202E+00    5.1868426465094197E+00    8.0279604938603750E+00
Pb   -1.4282268028891389E+00   -1.6475195997352008E+00    9.7193318456469715E+00
Pb   -6.4286292591910144E+00   -9.8408501173296958E+00    5.3783797922032024E+00
Pb   -9.8204083389096866E+00    5.8277803450864363E-01   -2.8427322829924346E+00
Pb   -3.5685212957327712E+00   -4.7287770130194566E+00   -8.0224017166658257E+00
Pb   -5.5769260250408192E-01   -8.4926302222431396E+00    4.8956073078804918E+00
Pb   -5.0456065728219137E+00    7.2463776259793615E+00   -4.6319514480301578E+00
Pb   -8.0468735158579474E-01   -7.6584013694390549E+00    1.0965289081300369E+01
Pb   -8.6328776696991518E+00   -5.0957144203993847E+00   -1.3361362010121696E+00
Pb   -7.0844141265854397E+00   -1.0672849873225243E+01   -7.7617318008844305E-01
Pb   -4.0148729208418468E+00    1.6796206629977908E+00   -3.0822942927687293E+00
Pb   -6.9500860344479767E+00   -8.2629024794202177E+00    1.1558547433473645E+01
Pb   -9.2364895563559060E+00   -6.3019421637626589E+00   -7.4009012606005626E+00
Pb    8.4984672732849642E+00   -3.4910483683322142E+00   -9.0393695131942486E+00
Pb    9.6915314757219004E+00   -9.2954080139528958E+00   -8.3524906358537105E+00
Pb   -2.4175730912998885E+00   -1.0809097143035460E+01   -6.9514935120399191E+00
Pb   -1.1264903695317852E+01    5.6277743035987911E+00   -1.0312446918518720E+01
Pb    2.4302742972372666E+00   -3.8999712390508821E+00   -8.4868626512908669E+00
Pb    3.4476093774358207E+00   -9.6681281044162724E+00   -7.5845807138519490E+00
Pb   -3.8655363178959994E+00    9.2403513516763180E-01   -8.8313145801553503E+00
Pb    5.5003772632373427E-01    7.3612609760618399E+00   -1.0188497652337022E+01
Pb    1.6818096989090747E+00    1.7756983807778821E+00   -9.4493156999340719E+00
Pb    9.2405174211263787E+00   -1.6991935148101251E+00   -3.2459663249979247E+00
Pb    1.0367628276796996E+01   -7.6444761638859919E+00   -2.5261201092520933E+00
Pb   -7.2239348246924333E+00   -2.7645234365687443E+00    1.0155764249664930E+01
Pb    6.2152958269745193E+00    8.4822474438849973E+00   -1.1222918320238696E+01
Pb   -9.4538286770633970E+00   -4.4404513198686574E-01   -8.5115105448572290E+00
Pb   -3.9368912523955926E+00    9.7600913825035267E+00    6.7147521111133557E+00
Pb    6.3788905343838023E+00    1.0051031984619101E+01   -5.4739655432505101E+00
Pb    7.8144004671445995E+00    3.9445821607913496E+00   -4.6418359087361818E+00
Pb    9.4939341275960096E+00   -5.5186357444335510E-01    2.5643293898312329E+00
Pb    1.1186467682830340E+01   -6.4085211264173063E+00    3.7822666202067095E+00
Pb    7.7498776721686449E+00    2.5482470715446004E+00   -1.0342150907283983E+01
Pb   -2.8639819004383864E+00    4.1838027697457161E+00    8.3226186155128765E+00
Pb    7.4716929876250884E+00    1.0599561641089489E+01    2.2966362411349353E-01
Pb    8.7187036517892711E+00    5.0736008620983633E+00    1.5580442987145675E+00
Pb    9.9511737918519643E+00    4.6446299358718857E-01    8.2299741647754114E+00
Pb    1.1391052109340636E+01   -5.1825939500224756E+00    9.8449853943220518E+00
Pb    7.8383431181908065E+00    1.1576954601092449E+01    6.2471847893030450E+00
Pb    9.1944852011749845E+00    5.9705666654607921E+00    7.1389559442704522E+00
Pb   -8.9206682301990181E+00    2.8320956976101193E+00    8.9476144763218670E+00
Pb   -2.0552827928719077E+00   -2.6381232293866890E+00    3.8301385232801488E+00
Pb   -9.9090231871353112E+00    8.0682456602292518E+00    1.5366543559764239E+00
Pb   -1.0524348198582445E+01    6.3198512569495424E+00   -4.1284344321868778E+00
Pb   -8.0980414686473470E+00   -1.2125951910413274E+01   -6.4941740589192438E+00
Pb   -5.2988466010210189E+00    6.7306845236273576E+00   -1.0495385081016876E+01
Pb   -8.8945741727058092E+00    1.9223699762410840E+00    3.2893212667960752E+00
Pb   -9.8716459331828830E+00    8.5681892414047489E+00    7.4478784860887739E+00
Pb   -2.6463801809616854E+00   -4.0398729898391084E+00   -2.1661434262248451E+00
Br    2.8673856125069719E-01   -3.4248951866517445E+00   -2.7059104445704678E+00
Br    3.0146569031738029E+00   -3.4622799981820491E+00   -5.5177912829798750E+00
Br    2.5307643200274303E+00    5.9102875840205640E-02   -2.7433581856786047E+00
Br    1.3526248559277774E+00   -8.7207237091086007E+00   -1.1269828473124861E+00
Br    3.7932627327890929E+00   -9.0610436202140825E+00   -4.4799906600956545E+00
Br    4.2585830648022611E+00   -5.6509344136258406E+00   -2.7064275330491396E+00
Br   -3.5018505105920146E+00   -4.2751215151459592E+00   -5.3024937497580940E+00
Br   -7.8730938515450335E+00   -3.3312809461685031E+00    7.2888221337974270E+00
Br   -3.1505504516234013E+00   -1.0732185944597907E+00   -3.2088631646751935E+00
Br    3.7802280975430613E+00   -1.1232250470964019E+01   -1.0897718377121557E+00
Br    1.2640440425108954E+01    6.3765444981747424E-02    2.0564736309495739E+00
Br   -4.3163754964147110E+00   -1.0786913569338328E+01   -6.6059149434687681E-01
Br   -1.0617148640896158E+01   -4.3194139811511967E+00    4.5593736193884000E+00
Br   -8.1739221530976813E+00   -4.9181370910351712E+00    1.7615892175433350E+00
Br    1.4016116930919631E+01   -6.1017072950269089E+00    3.7485677541533260E+00
Br   -2.1631172616833445E+00    8.2202665228144429E+00   -4.6725864365984044E+00
Br    5.7506752306012965E-01    7.4759878406240192E+00   -7.1881614525041959E+00
Br    3.6468354163851541E-01    1.0984469498232698E+01   -6.0803841676694246E+00
Br   -1.1842676547835571E+00    2.0419563837450849E+00   -3.2416572355158682E+00
Br    1.5979802237161844E+00    2.2738077801778811E+00   -6.4873997657069484E+00
Br    1.2791181839480190E+00    5.4789010036853876E+00   -3.9349449652487256E+00
Br    1.0535711933080414E+00   -2.3243005996557420E+00    3.4235143213210750E+00
Br    2.8608236222127168E+00   -2.9681332339185449E+00    4.5103374301151328E-01
Br    3.1997425930644909E+00    9.1980823113311472E-01    2.6062585058710144E+00
Br    2.5165985428057596E+00   -8.1285394533523530E+00    4.2231488499436685E+00
Br    5.2241508602221645E+00   -7.5439249150797529E+00    1.3271318347076153E+00
Br    4.8177157745414529E+00   -4.6862247779011659E+00    3.8869136849606365E+00
Br   -8.0205471318963202E+00    6.0024050908570405E+00   -9.8180191757007194E+00
Br   -5.5077909827967506E+00    6.1752552901983071E+00   -1.3500852806714482E+01
Br    6.2142481624464114E+00   -1.0641523688725648E+01    4.5897433186624665E+00
Br   -5.9735816134291158E+00    9.3122525460072598E+00   -1.0796083628994577E+01
Br   -4.4196546945919080E+00    3.8409080026901590E+00   -9.7611824502319280E+00
Br   -7.6108208263151758E+00   -1.2814775069633939E+00    3.6852360566006443E+00
Br   -1.6784095995804171E+00   -1.0443810527321233E+01   -3.8214711955166369E+00
Br   -7.0443558823457506E+00    7.7548676698429606E+00    1.3640919317966596E+00
Br   -5.0431208216466068E+00    8.0533038787033782E+00   -1.9183732954702841E+00
Br   -4.4995093985837018E+00    1.1373383570037953E+01    2.3006731034826938E-01
Br   -1.2805185259993705E+00    9.1687058001134663E+00    1.2170123131365165E+00
Br    1.6768276190133107E+00    9.2937441555478681E+00   -1.7676925836135595E+00
Br    1.1502365166030180E+00    1.2296933221538069E+01    1.3448355610799978E-01
Br   -1.6540702597437518E-01    3.4880865210590217E+00    2.9552832391593409E+00
Br    2.4211748929945909E+00    2.9464352676627970E+00   -5.7011723244961909E-01
Br    2.5320226436678244E+00    6.7040623551601168E+00    1.4442705067496582E+00
Br    1.2045754927174730E+00   -9.1336749869026168E-01    1.0017193952441858E+01
Br    3.7836973774508058E+00   -1.8361257195938423E+00    6.1036213804761426E+00
Br    3.3896219837308772E+00    1.8795029997766262E+00    8.9487190609201743E+00
Br    2.7217590154355733E+00   -7.1048198892122318E+00    1.1577995259448695E+01
Br    5.7234628775924596E+00   -7.7956966153080609E+00    7.3673147348719468E+00
Br    4.6828862701485896E+00   -3.4757583693291303E+00    9.7219495260226232E+00
Br   -1.1688732699800495E+01    1.1941604685360971E+00    4.1301234798049657E+00
Br   -9.5628432331881399E+00    1.1269948298093644E+00    4.9561431302921777E-01
Br    6.0762784040738715E+00   -9.1063356408187595E+00    1.1094664866602535E+01
Br   -9.3884363657408638E+00    4.4980131707739419E+00    2.3504110933706222E+00
Br   -7.5241691927229333E+00   -3.4712140294255680E-05    9.5365169407514507E+00
Br   -2.3282571813377468E+00   -6.7898927889799960E+00   -2.4203863719011243E+00
Br   -6.0302374105811651E+00    1.8429626198947799E+00    2.6689054846484299E+00
Br   -3.4297954312196048E+00    1.4953975121077037E+00   -2.3907196557862717E-01
Br   -3.2747856982271770E+00    5.5121914942266255E+00    1.2298855151324219E+00
Br   -1.0663508404273112E+00    1.0328124867044965E+01    6.5970539911912489E+00
Br    2.4152762710486737E+00    1.0818668107090824E+01    3.7291626754973688E+00
Br    1.4916035639241063E+00    1.3488100375395383E+01    6.6995747377522115E+00
Br    5.3022395605464512E-01    4.4293862865978211E+00    8.3965337535707096E+00
Br    3.2747922691172127E+00    4.1172558885242259E+00    5.2071243683622583E+00
Br    2.0780419238230508E+00    7.7383908303175861E+00    7.7236654175017625E+00
Br   -4.2168040538974711E+00   -2.1600544628509439E+00    9.6108202401025800E+00
Br    5.1564936683782667E+00    8.7044722813550829E-02    1.1914623631061803E+01
Br   -1.6835121861802653E+00   -2.5948649872931475E+00    6.7739552616652574E+00
Br   -2.2163955753923603E+00    1.3919054129708770E+00    8.6371698749696435E+00
Br   -6.0103995493692797E-01   -1.2851414428862642E+01   -8.5314084343005958E-01
Br    5.9425226558092055E+00   -5.5921289059942527E+00    1.3218287770211896E+01
Br   -1.2539920524311666E+01    5.3021959649692829E-01   -3.5443450816956585E+00
Br   -1.0038013921048967E+00   -1.1219001068200182E+01    5.7335109553379011E+00
Br   -1.1559572883542486E+01   -5.2503992759075553E+00   -9.6032317029730929E-01
Br    7.8498586027424500E-01    1.0918052989134139E+01    9.7788248038736274E+00
Br   -9.1998596825713719E+00   -5.5019725553003882E+00   -4.3270992444377203E+00
Br   -9.6062390898323518E+00   -2.4024290981578429E+00   -1.9193390208085293E+00
Br    3.6190913191586533E+00    5.6303831052950830E+00    1.0759510693108476E+01
Br   -7.6944964779540292E+00    6.1541261747961586E+00   -4.3060210707618412E+00
Br   -5.3077726464262467E+00    6.4761000763675600E+00   -7.5351038504232077E+00
Br   -5.7209101556256901E+00    1.0133232827086342E+01   -5.5420857732670026E+00
Br   -7.0730230350839038E+00    9.2700832278852130E-01   -2.9512729382369072E+00
Br   -9.1558038137482924E+00   -1.1365036341461860E+01    5.7270254056519843E+00
Br   -4.4121720886016300E+00    1.8329246398459962E+00   -6.0841259238321053E+00
Br   -6.3869633954020655E+00   -5.8200186082682066E+00   -7.5113915081252163E+00
Br   -3.8827138282086628E+00   -5.2742678214577579E+00   -1.0746216571340353E+01
Br   -2.9366623607159519E+00   -1.8364129259112172E+00   -8.0286245081512480E+00
Br   -2.6617510029103828E+00    5.1888707169291211E+00    1.0950567999318901E+01
Br   -3.8032724684076364E+00   -7.8163542248792881E+00    1.1049585929752691E+01
Br   -2.5562633223318276E-01   -8.0241491974905923E+00    7.6794625991087022E+00
Br   -3.7887969359138635E-01   -4.7666689514881400E+00    9.7799277653114238E+00
Br   -6.8703049147195179E+00   -9.9487533179079950E+00    2.8057738244122281E+00
Br   -7.2433469226077269E+00   -7.0188363399049480E+00    5.3461056925973667E+00
Br   -9.2493409889776625E+00    9.9375158225157545E+00    9.6783721979636432E+00
Br    1.0343797103420023E+01    1.0707091582926621E+01   -3.1385943260670936E-02
Br   -5.7300958945887608E+00   -6.0229484567672076E+00    1.3788530948957074E+01
Br    8.9279186151688474E+00    1.1237063783681849E+01   -6.6851622429273112E+00
Br    1.1561225189537156E+01    5.7254781138675046E+00    5.4081570198641982E-01
Br   -8.1614736348394867E+00    2.7608385801274538E+00    1.2515009141759897E+01
Br   -1.2063763403400694E+01   -6.6513364464155034E+00   -6.7730650411081079E+00
Br    1.2704170614930181E+01    1.0781630974094301E+00    7.5524651555121567E+00
Br   -3.7516318024573461E+00   -9.0306063357568771E+00    5.8139100343300409E+00
Br    5.3754314483882286E+00   -3.5916817994825210E+00   -8.9012962778564919E+00
Br    9.0838000972945672E+00   -3.5835411821148355E+00   -1.1766553957999404E+01
Br    1.3952153033229227E+01   -5.3313317140675913E+00    9.4591324776453778E+00
Br    7.7434286186596610E+00   -4.5999685212126606E-01   -1.0171528339940288E+01
Br   -6.4082453354623130E+00   -1.0641725897580498E+01    1.2945656733017714E+01
Br   -1.6164270112893189E+00   -8.9938959811806534E+00    2.1271281908246369E+00
Br   -9.3172046774284090E-01   -5.5457945683596801E+00    4.2642013064423905E+00
Br    6.3714319946833946E+00   -9.2349465837762867E+00   -7.7789902482734545E+00
Br   -5.1797207688103075E+00   -1.1291981921086601E+01   -7.0901566525146151E+00
Br    7.5427250381617457E+00   -9.7326359666081999E+00   -1.1928950641752763E+01
Br    8.6834556041937052E+00   -6.7240334037671374E+00   -8.9966234677088490E+00
Br    2.0349202323308505E-02   -1.0294601655659360E+01    1.0895039097582075E+01