 # Version information for this restart file 
 # current date 2021-06-17 12:41:42.530
 # current working dir /user/ub2042/exercises/2_fitting/MM_MD_workdir/md_settings.004
 # Program compiled at                              Thu Apr 22 21:44:59 EDT 2021
 # Program compiled on                cpn-k07-07-02.compute.cbls.ccr.buffalo.edu
 # Program compiled for                                                    local
 # Source code revision number                                       git:36754bb
 &GLOBAL
   PRINT_LEVEL  LOW
   PROJECT_NAME cp2k
   RUN_TYPE  MD
 &END GLOBAL
 &MOTION
   &MD
     ENSEMBLE  NVT
     STEPS  10000
     TIMESTEP     2.4999999999999996E+00
     STEP_START_VAL  1500
     TIME_START_VAL     3.7499999999999500E+03
     ECONS_START_VAL    -1.4028929475949734E+01
     TEMPERATURE     3.0000000000000000E+02
     &BAROSTAT
       PRESSURE     1.0100000000000000E+00
       TIMECON     9.9999999999999982E+03
     &END BAROSTAT
     &THERMOSTAT
       TYPE  CSVR
       &CSVR
         TIMECON     9.9999999999999982E+03
         &THERMOSTAT_ENERGY
              -4.9744268829271188E-02
         &END THERMOSTAT_ENERGY
         &RNG_INIT
Wiener process for Thermostat # 1        1 F T F   1.1382529309756741E+00        2887901994.0        1068922118.0        3409092692.0        1438995407.0        1790216091.0        3655652836.0             12345.0             12345.0             12345.0             12345.0             12345.0             12345.0             12345.0             12345.0             12345.0             12345.0             12345.0             12345.0
         &END RNG_INIT
       &END CSVR
     &END THERMOSTAT
     &AVERAGES  T
       &RESTART_AVERAGES
         ITIMES_START  1
         AVECPU     1.7496863397303986E-02
         AVEHUGONIOT     0.0000000000000000E+00
         AVETEMP_BARO     0.0000000000000000E+00
         AVEPOT    -1.4449511360066358E+01
         AVEKIN     4.3974936231417533E-01
         AVETEMP     2.2307100409687206E+02
         AVEKIN_QM     0.0000000000000000E+00
         AVETEMP_QM     0.0000000000000000E+00
         AVEVOL     6.7483345830898769E+06
         AVECELL_A     1.8897261328856047E+02
         AVECELL_B     1.8897261328856047E+02
         AVECELL_C     1.8897261328856047E+02
         AVEALPHA     9.0000000000000000E+01
         AVEBETA     9.0000000000000000E+01
         AVEGAMMA     9.0000000000000000E+01
         AVE_ECONS    -3.2189055406714391E+00
         AVE_PRESS     0.0000000000000000E+00
         AVE_PXX     0.0000000000000000E+00
       &END RESTART_AVERAGES
     &END AVERAGES
     &PRINT
       &ENERGY  SILENT
         &EACH
           MD  10
         &END EACH
       &END ENERGY
     &END PRINT
   &END MD
   &PRINT
     &TRAJECTORY  SILENT
       &EACH
         MD  10
       &END EACH
     &END TRAJECTORY
     &CELL  SILENT
       &EACH
         MD  10
       &END EACH
     &END CELL
     &VELOCITIES  SILENT
       &EACH
         MD  10
       &END EACH
     &END VELOCITIES
     &FORCES  SILENT
       &EACH
         MD  10
       &END EACH
     &END FORCES
     &RESTART  SILENT
       &EACH
         MD  10
       &END EACH
     &END RESTART
   &END PRINT
 &END MOTION
 &FORCE_EVAL
   METHOD  FIST
   &MM
     &FORCEFIELD
       VDW_SCALE14     1.0000000000000000E+00
       EI_SCALE14     1.0000000000000000E+00
       SHIFT_CUTOFF  T
       DO_NONBONDED  T
       IGNORE_MISSING_CRITICAL_PARAMS  T
       &SPLINE
         R0_NB     2.5000000000000000E-01
       &END SPLINE
       &NONBONDED
         &LENNARD-JONES
           ATOMS Br Br
           EPSILON     1.2630795322675199E+02
           SIGMA     3.6900000000000004E+00
         &END LENNARD-JONES
         &LENNARD-JONES
           ATOMS Cs Pb
           EPSILON     8.6920055954630968E+01
           SIGMA     3.6699999999999999E+00
         &END LENNARD-JONES
         &LENNARD-JONES
           ATOMS Cs Cs
           EPSILON     2.2644852172126850E+01
           SIGMA     4.3300000000000001E+00
         &END LENNARD-JONES
         &LENNARD-JONES
           ATOMS Pb Pb
           EPSILON     3.3363415533600227E+02
           SIGMA     5.9000000000000004E+00
         &END LENNARD-JONES
         &LENNARD-JONES
           ATOMS Br Cs
           EPSILON     5.3481070753900497E+01
           SIGMA     3.6300000000000003E+00
         &END LENNARD-JONES
         &LENNARD-JONES
           ATOMS Br Pb
           EPSILON     2.0528187276773045E+02
           SIGMA     2.9800000000000000E+00
         &END LENNARD-JONES
       &END NONBONDED
       &CHARGE
         ATOM Cs
         CHARGE     4.1739999999999999E-01
       &END CHARGE
       &CHARGE
         ATOM Pb
         CHARGE     8.3479999999999999E-01
       &END CHARGE
       &CHARGE
         ATOM Br
         CHARGE    -4.1739999999999999E-01
       &END CHARGE
     &END FORCEFIELD
     &POISSON
       PERIODIC  XYZ
       &EWALD
         EWALD_TYPE  SPME
         GMAX  62 62 62
         O_SPLINE  4
       &END EWALD
     &END POISSON
     &PRINT
       &FF_INFO  LOW
         SPLINE_INFO  F
         SPLINE_DATA  F
       &END FF_INFO
     &END PRINT
   &END MM
   &SUBSYS
     &CELL
       A     1.0000000000000001E+02    0.0000000000000000E+00    0.0000000000000000E+00
       B     0.0000000000000000E+00    1.0000000000000001E+02    0.0000000000000000E+00
       C     0.0000000000000000E+00    0.0000000000000000E+00    1.0000000000000001E+02
       PERIODIC  XYZ
       MULTIPLE_UNIT_CELL  1 1 1
     &END CELL
     &COORD
Cs   -8.3705170580737931E-01    3.0770275632875793E-01   -6.9574898536525032E+00
Cs    4.2372761644874690E-01   -5.7475298063598199E+00   -6.7565095829002999E+00
Cs    3.0808986071945471E-01   -1.1227480533199405E+01   -5.0808543910319566E+00
Cs   -4.8817362346157420E+00   -5.6753231150868553E+00   -5.7747146972093519E+00
Br   -7.3605952551898888E+00   -1.2193420406018534E+01   -7.9795962457123615E+00
Br    1.2266069512189439E+01   -2.2754873724754252E+00   -8.7694173357634888E+00
Br   -4.3293369123965579E+00    2.7689928347241781E+00   -1.1764165372104776E+01
Cs    4.3691667200287526E-01    5.9394699628004872E+00   -5.8288302759356343E+00
Cs    3.4123716048055136E-04   -2.4446178115361317E-01    2.7918769147099587E-01
Cs   -1.2658204528575578E-01   -5.5253851533473561E+00   -2.3221580752171009E-01
Br   -5.5080757371512563E+00   -3.5684079703843987E+00    3.2892029450077471E+00
Cs   -1.0753251691372379E+01   -4.8920278815183842E+00    1.2766333603708187E+01
Cs    1.1749822433078625E+01   -1.1444893501460269E+01   -1.0003266257420886E-01
Cs   -5.9909131658185339E+00    6.0657257832659486E+00    5.4872638502024729E-01
Cs   -6.0351358804215305E-01    1.2468237104391370E+01    1.0372940782603626E+00
Cs    2.3587882805543581E-01    6.6169831457024726E+00    6.7532004523184724E-02
Cs   -2.2818196741259095E-01    1.4493829878006942E-01    5.7134985222737331E+00
Cs    5.3113952485735438E-01   -5.0856910287200225E+00    6.2224987169805628E+00
Cs    5.2420107146408135E-01   -1.1162446529062500E+01    6.2337203432729549E+00
Cs   -6.5711377575088781E+00    6.3158393401201511E+00    1.1180675388189609E+01
Cs   -6.7726641543699548E+00   -1.9878019932988816E-01   -1.1910359483592526E+01
Cs   -5.0000023112988909E+00   -1.1625574845926874E+01   -5.2192992397875626E+00
Cs   -5.4113834466260604E+00   -1.4276643950539564E-01    6.2422683555385463E+00
Br   -2.8690854094894962E+00   -2.5140846997360748E+00    7.1508349881589467E-02
Cs    2.8282623031681242E-01    5.7072103458689796E+00    6.1368587758364566E+00
Br    1.1741914630806074E+01   -9.3348967865294910E+00   -1.0021161689998532E+01
Cs    1.3704283556312202E+00   -5.0056583944218005E+00    1.2428326321876677E+01
Br   -2.6381661641607770E+00    9.6244457942898681E-02    2.7986451898805287E+00
Br   -8.0341518156822040E+00   -3.0172384172355251E+00    1.1504223444115324E+01
Cs    1.1162309264994107E+01    1.1173666753833100E+01   -6.7711810612052927E+00
Cs   -1.2154333248253780E+01   -5.4613558978777856E+00    5.9452072286147697E+00
Cs   -5.7369925442970011E+00   -6.4177560918019365E+00    5.9847594606490233E+00
Cs   -6.1507623594935463E+00    1.0523782550000988E+01   -6.2625061532215858E+00
Br   -1.1257889756413197E+01   -1.0160312399040999E+01    8.6938898381324670E+00
Br   -8.1453269237553254E+00   -9.1628083055849459E+00    6.1544978196951110E+00
Cs   -1.1760840774069706E+01   -4.9339030231104388E+00   -5.1099406210318978E+00
Cs   -5.5939612119714202E+00    5.9895551407601424E+00   -5.6188600838516161E+00
Br   -9.0478566427799070E+00   -5.8361994456909025E+00    8.8752085482044389E+00
Cs    1.1323669903370659E+01    6.4624804369034887E+00    1.1057778534293618E+01
Br   -1.1517794622733112E+01    1.0321520801109383E+01    8.8550111929634028E+00
Br   -5.6669809224798273E+00   -3.8557029103701317E+00   -2.9590115906313668E+00
Cs    1.3130419812340868E-01    2.4436044882679400E-01    1.0762629112960322E+01
Cs    1.0864010757459038E+01    6.2361891195889951E+00   -2.1945888890076096E-01
Cs   -1.0347284898997536E+01   -6.9092715368226978E+00   -1.1575660094024412E+01
Cs    1.1367819887331688E+01    8.1871518961805934E-01    6.2596607414909826E+00
Cs   -1.1149857813382196E+01    1.1259271543137039E+01   -5.9939375621785258E+00
Cs    1.2226956788177194E+01   -1.0912645058710080E+01    5.5396102863503955E+00
Cs    6.5556315588185052E+00   -5.8467311315588910E+00   -1.1082286596064094E+01
Cs    6.2437934786296045E+00   -1.0819249627086451E+01    5.7029304805603802E+00
Cs   -5.1126168289546081E+00   -1.1508643172067298E+01   -2.3626583216524633E-01
Cs    6.0995898754497864E+00   -1.1493247283218709E+01   -1.1219441528130629E+01
Cs    1.0428947931857019E+01    5.9705379714727336E+00   -5.7190555532031073E+00
Cs    1.1532931119679413E+01    1.1311921021916826E+01    5.4370405980477523E+00
Cs    1.1734279327623948E+01    6.0317074714755563E+00   -1.1196767818358550E+01
Cs    7.0081830455524385E-01   -6.6850318561459972E+00   -1.1338999544529914E+01
Cs   -1.1372655488980902E+01   -5.9554894026503480E-01   -5.9517212089921809E+00
Cs    5.8433833104989272E+00   -5.4681903005987422E+00    1.0658149625295977E+01
Cs    1.1899718302957597E+01   -4.8471471840702964E+00    5.8844573836525544E+00
Cs   -1.1053755147807994E+01   -1.1586628549969005E+01    1.1855007619206628E+01
Cs   -8.2052551559104692E-01   -3.1461919889138773E-01   -1.1856005399937017E+01
Cs    8.5042762181602519E-02    1.0969451868131827E+01    5.4855277915842198E+00
Cs    6.2256249618660431E-01    5.7840980174454719E+00   -1.1595615362266864E+01
Cs    5.4023114982801257E+00    1.2198380034957935E-01   -6.4898560618260772E+00
Cs    6.2992374825366708E+00   -5.7411469170751515E+00   -5.9070809187427704E+00
Cs   -5.2785528892633309E+00   -1.0626263159024932E+01    5.8803309311947309E+00
Cs   -1.1872385810985101E+01    2.6197080103186804E-01    6.0035034019164577E+00
Cs    5.6719164765929460E+00    6.2857460838353241E-01   -1.2221929609565324E+01
Cs    6.1932215534390584E+00    1.1069381122628430E+01   -1.2251414442397397E+01
Cs    1.0040953245057558E-02    6.4048446062198865E+00    1.1457834730504045E+01
Cs   -5.4494180421527600E+00    1.0917167378886901E+01    5.4193085937577710E+00
Cs    6.0081219333722311E+00    1.2586769097880248E+01   -7.2858620349944356E+00
Cs    5.6701239050209153E+00    6.1223487552011688E+00   -5.5375800301506617E+00
Cs    5.8229349251543923E+00   -1.0163775477397367E-01   -8.3624959915380281E-03
Cs    6.4717399816005035E+00   -5.8114498963545014E+00   -5.0016370005372335E-01
Cs    6.4407620847632998E+00   -1.1119389204845039E+01    7.5626860919926542E-01
Cs    6.5636316088962827E+00    5.5030484383548259E+00   -1.1850922969709531E+01
Cs   -5.1262987071889539E+00    5.7678849152981462E+00    5.9787295899469157E+00
Cs   -5.5032883347569754E+00   -6.6270190239935802E+00   -1.1061633755717235E+01
Cs    6.1501535119744988E+00    5.6554523836690294E+00    1.9747901075664190E-01
Cs    6.1065854461623825E+00    1.6121067851579138E-01    5.3002790327717397E+00
Cs    6.5309135289761198E+00   -5.8180655725668258E+00    6.2391259948385436E+00
Cs   -6.3473462006311845E+00    1.1574544869052325E+01    1.5719896511541098E-01
Cs    1.1313821646701951E+01    2.4765438367584597E-01    1.5782392114050742E-01
Cs   -5.4076410010683338E+00    2.5880896930199943E-01   -4.8310730956956240E-02
Cs   -1.1352733161200220E+01    5.6240971556371253E+00    5.9278970054624258E+00
Cs   -5.9746562966506742E+00    1.3082863514391321E-01    1.1693824473143456E+01
Cs    5.2778013419055956E+00    1.2085431381368188E+01    5.7496139911098112E+00
Cs    5.9830525614162138E+00    6.5947285053492095E+00    5.8829895373974406E+00
Cs    5.5140763795097243E+00    5.2577650740804283E-01    1.1058669366342102E+01
Cs    5.7596566405154963E+00    1.1649729692792057E+01   -1.4321733533406020E+00
Cs    1.1854219177248595E+01    2.1092347665428188E-01   -6.3287462197401148E+00
Cs    1.0839670911415174E+01   -6.0361951967757994E+00   -5.6845116772620683E+00
Cs    6.3198968501694859E+00   -1.0927323541987642E+01    1.1399269046162734E+01
Cs    1.1293355082899977E+01    1.1240878421620616E+01   -3.8436792369470663E-01
Cs   -1.1215132641273408E+01    9.9935708622998976E-01    1.1360445888640896E+01
Cs   -6.9821377661736452E+00    5.3510222598730968E+00   -1.1278617207798586E+01
Cs   -1.1252975353264938E+01    1.1252466919735021E+01    4.9380353620981998E-01
Cs   -4.8920040124714923E+00   -5.3729817678042942E+00    1.1882666191398975E+01
Cs   -4.9838678994901384E+00   -1.1223281104911363E+01    1.1496735174698607E+01
Cs    5.6936231195120559E+00    6.4580294633410915E+00    1.1095189831800322E+01
Cs    1.1364254596953431E+01   -5.6084926467048550E+00    2.1002572226624355E-01
Cs   -1.0924356363280349E+01    3.0261070113596344E-01   -4.9645150985692554E-02
Cs   -6.8326615062704033E+00    9.9036548498056813E+00   -1.1828506350582288E+01
Cs   -1.1598168905859668E+01    4.8554222920834142E+00    1.7300578368673866E-01
Cs   -9.6849878588264584E+00   -1.2453667653198593E+01   -5.7856598632590490E+00
Cs   -1.0765267136200698E+01   -6.5290222876940405E+00    1.4213585505237386E-01
Cs   -5.4627113736003636E+00   -5.9732321293395607E+00    7.1183726747365916E-01
Cs   -9.5472697187898685E+00   -1.2744828636182397E+01    6.9537709798907557E+00
Cs    1.0545215884854903E+01   -5.4268309419556884E+00    1.2208756362388302E+01
Cs    1.0937659790304416E+01    6.2590669216693051E+00    6.1841911431414855E+00
Cs   -1.1505908943561112E+01    5.9212055818454417E+00   -5.8893035512544740E+00
Cs   -5.7405265856224501E+00    2.9298154346590138E-02   -6.3461893405308860E+00
Cs   -1.1012853537727395E+01   -1.2432410953493749E+01    6.9744197055374935E-01
Cs    1.0392450983082705E+01   -1.1943924719818293E+01   -1.1849039333098391E+01
Cs   -9.1698329549907971E+00   -1.2681396249549509E+01   -1.1900663657130766E+01
Cs   -4.0530767450527708E-02    1.2262607834540333E+01   -1.0800261982640313E+01
Cs    1.4328007762798550E-01   -1.1934057917045795E+01   -1.0624083262315834E+01
Cs   -4.1676603380594979E-01    1.1808760126119498E+01   -5.4105003830629581E+00
Cs   -1.0117899640276846E+01    1.2451888752540318E+01    1.1428607941147064E+01
Cs    3.4652722106504524E-01   -1.0891098304776456E+01    1.1298163991281347E-01
Cs   -1.1645981669142213E+01    7.1127839820346173E-01   -1.1662557285709942E+01
Cs   -1.0553718390317348E+01    1.2042148982908103E+01    5.8810306018488259E+00
Cs    5.3918946946408415E+00   -1.1614772542482870E+01   -5.4977249476422694E+00
Cs    1.2081388269302249E+01    3.4795160105618554E-03   -1.1222572213513077E+01
Cs   -1.1134634823984114E-01    1.1614110762246927E+01    1.0554536727813632E+01
Pb    3.0133071731574157E+00   -3.1512226977355100E+00   -3.4824659226960324E+00
Pb    3.3763356957025872E+00   -8.8534142886067890E+00   -2.8105174347241646E+00
Pb   -8.8590825274720526E+00   -3.2551487607347407E+00    2.9927503479394018E+00
Pb   -2.5836466266040037E+00   -8.8655929887125247E+00   -2.8252019995719433E+00
Pb    2.6290640375500689E+00    9.1573804999776627E+00   -3.3051362421593540E+00
Pb    2.9787053566101558E+00    2.6930616112048815E+00   -3.0966080352148442E+00
Pb    3.0155721593600777E+00   -3.0173859536853218E+00    2.6237586850467225E+00
Pb    3.1275825888711384E+00   -8.6261791384592250E+00    3.1778782683654057E+00
Pb   -2.9419636110235201E+00    8.7642652227735773E+00    2.7078771689091790E+00
Pb    2.8184582913229952E+00    8.9324853760312308E+00    2.7826209280471934E+00
Pb    2.9512264673516939E+00    2.8226278988148534E+00    2.6360189819940758E+00
Pb    2.9799856412551482E+00   -2.5858975759738074E+00    8.4035648150102542E+00
Pb    3.2855316481879093E+00   -8.6676842434647519E+00    9.2432314931682651E+00
Pb   -2.7634044736825061E+00    2.8563043294263424E+00    2.7356745803098832E+00
Pb    2.9047469590890529E+00    9.4256381448388122E+00    8.7985587316472369E+00
Pb    3.1102049328881254E+00    3.2816336628376375E+00    8.5668948735161674E+00
Pb   -2.9169039891223387E+00   -2.8840533212749495E+00    8.8537537604886829E+00
Pb   -8.8879980910833662E+00   -9.2635474283515027E+00    3.2642377687073689E+00
Pb   -8.8891812232293432E+00    2.7765358384804384E+00   -2.8025520915719131E+00
Pb   -3.1249780892836418E+00   -2.9276047266683722E+00   -8.8122880700902559E+00
Pb   -2.7984820309885832E+00   -9.3685676616141880E+00    3.2744639137147349E+00
Pb   -3.2807902978217740E+00    8.5994590251023695E+00   -3.2863399871285415E+00
Pb   -2.7588202766428274E+00   -8.7665484153851523E+00    9.4412720918121789E+00
Pb   -8.5818248521513283E+00   -3.1638942369157781E+00   -2.8600039852672827E+00
Pb   -8.4826127441754569E+00   -9.2790716799831383E+00   -2.6940329691124867E+00
Pb   -2.8783863049500771E+00    2.8468138482722694E+00   -3.1039288207713045E+00
Pb   -8.6456154483491137E+00   -8.8286113939334534E+00    9.2883313498710294E+00
Pb   -9.1428480735525230E+00   -3.3492114958698052E+00   -8.4199627690049095E+00
Pb    9.3721021419665362E+00   -3.1415919948852378E+00   -9.3179690711711398E+00
Pb    9.0733043106228042E+00   -9.0323900829338193E+00   -8.8038318701548732E+00
Pb   -2.4273888691343393E+00   -9.3268662569280334E+00   -8.7478248642731185E+00
Pb   -9.3338991926610966E+00    8.5621733084124401E+00   -9.0393137876174823E+00
Pb    3.0024325552159259E+00   -3.0705365410331358E+00   -9.1654790644404773E+00
Pb    3.2824058428082776E+00   -9.0863424293091573E+00   -8.5976574533444587E+00
Pb   -3.5980728747524213E+00    2.8358431940733109E+00   -9.0862609340181741E+00
Pb    2.6917587211010638E+00    9.1301987495249577E+00   -8.9845826280015935E+00
Pb    2.7776592599549175E+00    2.7252608003841581E+00   -9.1812627387273622E+00
Pb    8.8058088100902623E+00   -3.1276685312695234E+00   -3.1182492987626524E+00
Pb    9.2691178367062808E+00   -9.2703702047625693E+00   -2.7602655730813428E+00
Pb   -8.6766837512491275E+00   -2.7045199172593914E+00    8.8953776113162419E+00
Pb    8.8139982549816001E+00    8.6756648542604271E+00   -9.5664635638706770E+00
Pb   -9.4544869564481537E+00    2.6958286915848291E+00   -8.4463349176926172E+00
Pb   -2.7973379699674954E+00    8.6744286377914825E+00    8.9224846905321247E+00
Pb    8.5630183142377216E+00    8.8410774262939409E+00   -3.4611100095737375E+00
Pb    8.6715232360511791E+00    2.8587368807146261E+00   -2.9971456443907245E+00
Pb    8.7384343061847822E+00   -2.8212939615828074E+00    2.9770900877547115E+00
Pb    9.2940596988121058E+00   -8.4215917269964375E+00    3.2243485308415889E+00
Pb    8.8828710463401936E+00    2.8126061039123185E+00   -8.7197400018514735E+00
Pb   -2.4929453338153120E+00    3.1655775910745985E+00    8.5421167543351828E+00
Pb    8.9187275985595207E+00    8.7501278637427919E+00    2.9625963398751374E+00
Pb    9.0595725549081401E+00    3.0906513245293623E+00    2.9108446188476127E+00
Pb    8.7954884842675014E+00   -2.5298070026744295E+00    8.9214326318772237E+00
Pb    9.1349191522026256E+00   -8.7725624377160063E+00    9.0841168053192884E+00
Pb    8.8202976997753808E+00    9.3249989069043391E+00    8.6355450915947340E+00
Pb    9.0244616452153377E+00    3.4023303436404735E+00    9.0332551857146868E+00
Pb   -8.6117725462113164E+00    3.2064940178259556E+00    8.8567822266880167E+00
Pb   -2.7926944256063533E+00   -3.0580106940599654E+00    2.9690949233884107E+00
Pb   -8.9862477139412604E+00    8.4193159569965452E+00    2.8973783902549433E+00
Pb   -9.1238912663787701E+00    8.7326439353569523E+00   -2.9974070541953393E+00
Pb   -8.0215999870514718E+00   -9.4951469246866509E+00   -8.3308745939616493E+00
Pb   -3.2529000699335331E+00    8.5201483349794174E+00   -9.1152233564279914E+00
Pb   -8.6014089980805135E+00    2.5673537663558550E+00    3.1619388252970335E+00
Pb   -8.9194749299490681E+00    9.0144933997681473E+00    8.8751211884194774E+00
Pb   -2.8899583587342916E+00   -3.1210681845879784E+00   -3.0853157912590583E+00
Br    2.2743956444155070E-02   -2.9902703545401805E+00   -3.4342802528306775E+00
Br    3.2589553722294400E+00   -3.2399831728593442E+00   -6.2979245425608443E+00
Br    3.5797188362122241E+00   -2.9501910809628568E-01   -3.3559075245560361E+00
Br    1.9759286684282423E-01   -8.8502355193886313E+00   -2.6901104402980116E+00
Br    2.8034150962128979E+00   -8.7897283512429549E+00   -5.6688886187681087E+00
Br    3.4647276911185814E+00   -5.8521928518580681E+00   -3.1082154896675029E+00
Br   -2.8755918139076413E+00   -2.2055974580742088E+00   -5.9933963089537681E+00
Br   -9.6889991956937198E+00   -2.9868312363508314E+00    6.2303203920068393E+00
Br   -4.0553313370726434E+00   -2.5034402052710336E-01   -3.1366261824527846E+00
Br    3.0173888887271039E+00   -1.1670975126216756E+01   -2.9859055215716848E+00
Br    1.1559759529835054E+01   -2.2716090758963041E+00    2.8194589127521690E+00
Br   -5.4208760545834167E+00   -8.9402823148469110E+00   -2.4906062327338794E+00
Br   -1.1398192331404225E+01   -4.5647674562499834E+00    2.6355604305882334E+00
Br   -8.3954305488655319E+00   -3.6335964304440234E+00    1.1022134220975933E-01
Br    1.1993221511278088E+01   -8.0012109573778325E+00    2.2459098227973255E+00
Br   -2.2463486344591119E-01    8.4612146564597204E+00   -3.4064885984081421E+00
Br    2.7577413358898042E+00    8.8679613170719183E+00   -6.1715869130501533E+00
Br    2.5200444449686832E+00    1.1873429308743512E+01   -3.4050350802222642E+00
Br   -1.3268878773201112E-01    2.1928671139970817E+00   -2.9930025860695237E+00
Br    3.0211178153469440E+00    2.8165692942697200E+00   -6.1137264609856370E+00
Br    2.8914577201744143E+00    6.2567238607695144E+00   -3.3712012486132390E+00
Br    5.4580813316486940E-02   -2.3638436418308939E+00    3.0372188786960925E+00
Br    2.2151445847470055E+00   -2.9914531028503339E+00   -3.3966999723678593E-01
Br    3.3311198451845825E+00   -9.9422157740962677E-02    2.7698380162465379E+00
Br    1.2476143559804873E-01   -9.0020834899674256E+00    3.4410842099016259E+00
Br    2.8513661510411477E+00   -8.5012803334599489E+00    3.3513752925524561E-02
Br    2.3030838786898613E+00   -5.6720243379686721E+00    2.3807604595375027E+00
Br   -6.4230332854080929E+00    7.9356848690154518E+00   -8.8348173606453173E+00
Br   -3.7403271044860902E+00    8.9234731139360104E+00   -1.1924733506445643E+01
Br    3.8093091440709772E+00   -1.1426738322310529E+01    2.9622138750559222E+00
Br   -3.1034244949129848E+00    1.1605017245996653E+01   -8.7331380343738356E+00
Br   -3.2122957822064748E+00    5.7232322859800941E+00   -9.4928305436620413E+00
Br   -8.3092303337831783E+00   -5.9602937671639644E-01    3.3983303927016979E+00
Br   -2.6993040114010558E+00   -9.2707295493913193E+00   -5.7715517976810924E+00
Br   -5.8014718459549046E+00    8.4064217339637288E+00    3.3633737541606541E+00
Br   -2.9409417410518133E+00    8.4218945233635711E+00   -1.0075571780284814E-01
Br   -3.8365627094825028E+00    1.1314261510271610E+01    2.1031009971913956E+00
Br   -5.3650457019544682E-03    8.8091038546145253E+00    2.6029830720970661E+00
Br    2.0103429673520932E+00    9.4290593637517226E+00   -1.9113175898398183E-01
Br    2.6614490264358359E+00    1.1959203939855481E+01    2.6264759315772066E+00
Br    1.6629716492174215E-01    2.3263229802438028E+00    2.8136828551346142E+00
Br    3.2559618127796917E+00    2.3838690958478201E+00   -1.6053833442578491E-01
Br    2.9466064105683669E+00    6.1906967491480547E+00    1.8933465094768103E+00
Br   -7.8697997548795948E-03   -2.4319222075877991E+00    8.5471538260674933E+00
Br    2.9599048360829272E+00   -3.3128166947648841E+00    5.5493370292780551E+00
Br    3.6820713299387724E+00    3.9189745339908877E-01    8.0187103353357596E+00
Br    3.4042471396972795E-01   -9.2347326758667982E+00    8.9065793275763809E+00
Br    3.2206596058775796E+00   -8.4553124379354383E+00    6.1299551849502185E+00
Br    2.9345305188191566E+00   -5.7063821828011525E+00    9.1669016209895116E+00
Br   -1.1355133487750104E+01    2.1050558957680252E+00    2.8249494841778851E+00
Br   -8.9115288768189753E+00    3.0450459539320609E+00    2.5791628895323010E-01
Br    3.8476824270061223E+00   -1.1490717404749423E+01    9.1794608173281897E+00
Br   -9.4089411985637668E+00    5.4131324537509506E+00    2.9494597644453444E+00
Br   -8.1618319693294499E+00    2.3157350640840532E-01    8.8402540742929929E+00
Br   -3.0107233592728244E+00   -5.9459578804575317E+00   -3.2439454716572125E+00
Br   -6.0171268132675539E+00    3.5676131997822864E+00    2.8693401627717301E+00
Br   -2.6495075841535769E+00    2.7260811332987815E+00   -1.3275515486466745E-02
Br   -2.5055693258835281E+00    5.5686453803695164E+00    2.4918570777302360E+00
Br    4.4147070527628507E-02    8.7192212036222987E+00    8.4355687302272546E+00
Br    3.0016541608061522E+00    9.2398388448266111E+00    5.7995876615912350E+00
Br    2.3107098715785703E+00    1.2181672802866833E+01    7.9436254728219184E+00
Br    2.5040926572588534E-01    2.5388365761258722E+00    7.9841476453859350E+00
Br    2.9688945659247610E+00    3.7986850538983585E+00    5.6045675104437054E+00
Br    2.4374541429824248E+00    5.9673838755302748E+00    8.8765660076871153E+00
Br   -5.9706818184297719E+00   -2.8369131176757785E+00    8.2288783053405314E+00
Br    3.1700245936443459E+00   -2.3946522125742771E+00    1.1276569747914657E+01
Br   -2.7619572505099894E+00   -2.8063097681724662E+00    5.7817542764071250E+00
Br   -2.8987913990292284E+00    1.1107776417896656E-01    8.3781887069313949E+00
Br   -2.0634079625757997E+00   -1.1858872561671784E+01   -2.4291440329250076E+00
Br    3.8903809030081002E+00   -8.2422706074244267E+00    1.2000652404880052E+01
Br   -1.1737558242713785E+01    2.7846106094291181E+00   -2.4843955242745999E+00
Br   -2.3957505229117260E+00   -1.2347385687595573E+01    3.2806739968793117E+00
Br   -1.1188395931376171E+01   -2.5884261623859883E+00   -2.4017885420023641E+00
Br    2.6512698891845012E+00    9.3175481316051965E+00    1.1756054108882518E+01
Br   -8.7891810422537251E+00   -3.2611028860298994E+00   -5.6857770064444404E+00
Br   -8.0659819766154879E+00   -1.2763669296220748E-01   -2.1973477264425956E+00
Br    3.1405406114304473E+00    2.7164724941751826E+00    1.1359043646716277E+01
Br   -6.2103779596242248E+00    8.5842436134888995E+00   -3.3966185606493542E+00
Br   -3.0010549711121297E+00    8.6035906996956832E+00   -6.1332559430598783E+00
Br   -3.7291830896996951E+00    1.1298712513857636E+01   -3.5387692642878563E+00
Br   -5.7602391889972635E+00    3.0691799940124960E+00   -2.8584679447126038E+00
Br   -1.1802290269562389E+01   -8.9158565510804308E+00    2.9511485487200466E+00
Br   -2.8729480802797558E+00    2.8074994919168001E+00   -6.1136691223910526E+00
Br   -6.1408426540104672E+00   -3.2661391615941011E+00   -8.1703916391660893E+00
Br   -4.2106536496716833E+00   -3.0916178327596975E+00   -1.1567889268972912E+01
Br   -3.4421797340780333E+00   -5.8168802479344479E-02   -9.0181368879257828E+00
Br   -1.6099609195827660E+00    3.5091494427005543E+00    1.1333280912780161E+01
Br   -5.8270139806008148E+00   -8.5231783245624921E+00    9.1986624479067860E+00
Br   -2.7193802571568924E+00   -8.6940058279888746E+00    5.9910216989220233E+00
Br   -3.1014385562232611E+00   -5.7345147473911027E+00    8.9407827710555345E+00
Br   -8.6211193615035615E+00   -9.2452374091606178E+00    4.0954714157873251E-01
Br   -8.3173545818413377E+00   -6.4689706450196773E+00    3.2671344422983046E+00
Br   -8.9941072949427294E+00    9.0936586427293431E+00    1.1745915642737977E+01
Br    1.1850208095877411E+01    8.4616674475390603E+00    2.5922158598433409E+00
Br   -9.4107757058601624E+00   -8.0148532536125057E+00    1.2090404339118164E+01
Br    1.1591192803763958E+01    9.0352677297186226E+00   -2.8019887571875191E+00
Br    1.1919036447845336E+01    3.2591794418297666E+00    2.7257769753357359E+00
Br   -8.3637406104293603E+00    2.9158867210822663E+00    1.1653078343584365E+01
Br   -1.2020647184454369E+01   -2.9029065476029041E+00   -8.0812298660040049E+00
Br    1.1819497107054724E+01   -2.4340420907841520E+00    8.8345126113823973E+00
Br   -5.7742589056547464E+00   -9.3418827541836329E+00    2.6633609052312637E+00
Br    6.0929517766150720E+00   -2.6738165934248679E+00   -9.0745964508632575E+00
Br    9.3498124130291309E+00   -3.7259272606332803E+00   -1.2257198761247736E+01
Br    1.2425006101015654E+01   -8.7304981625091802E+00    7.8626812875107204E+00
Br    9.1584449175838785E+00   -1.7187136607661611E-02   -9.4365566457402377E+00
Br   -8.1681456342124328E+00   -1.1663791946237531E+01    9.9887800117935530E+00
Br   -2.5725833295107994E+00   -8.9727794992946190E+00    3.0473213757464035E-01
Br   -3.0140048154374042E+00   -6.0337637476473143E+00    2.7957396497220777E+00
Br    6.1646871887922181E+00   -8.9181461628870746E+00   -8.4990079434650934E+00
Br   -5.2721459527254897E+00   -9.0607780966845191E+00   -8.8021633199380140E+00
Br    8.2933384258882175E+00   -8.8985390844752956E+00   -1.1922126159256127E+01
Br    9.0363921421411444E+00   -5.9059704889726410E+00   -8.4386052879378131E+00
Br   -3.4260245226913324E+00   -1.1274913314166348E+01    8.5273739565696385E+00