 # Version information for this restart file 
 # current date 2021-06-17 12:42:17.342
 # current working dir /user/ub2042/exercises/2_fitting/MM_MD_workdir/md_settings.004
 # Program compiled at                              Thu Apr 22 21:44:59 EDT 2021
 # Program compiled on                cpn-k07-07-02.compute.cbls.ccr.buffalo.edu
 # Program compiled for                                                    local
 # Source code revision number                                       git:36754bb
 &GLOBAL
   PRINT_LEVEL  LOW
   PROJECT_NAME cp2k
   RUN_TYPE  MD
 &END GLOBAL
 &MOTION
   &MD
     ENSEMBLE  NVT
     STEPS  10000
     TIMESTEP     2.4999999999999996E+00
     STEP_START_VAL  3500
     TIME_START_VAL     8.7499999999999727E+03
     ECONS_START_VAL    -1.4028929475949734E+01
     TEMPERATURE     3.0000000000000000E+02
     &BAROSTAT
       PRESSURE     1.0100000000000000E+00
       TIMECON     9.9999999999999982E+03
     &END BAROSTAT
     &THERMOSTAT
       TYPE  CSVR
       &CSVR
         TIMECON     9.9999999999999982E+03
         &THERMOSTAT_ENERGY
              -1.0439923139100465E-01
         &END THERMOSTAT_ENERGY
         &RNG_INIT
Wiener process for Thermostat # 1        1 F T F  -2.0184626487796824E+00        1270000953.0         926334897.0        3528524991.0        1371575034.0        3658295165.0        4103480558.0             12345.0             12345.0             12345.0             12345.0             12345.0             12345.0             12345.0             12345.0             12345.0             12345.0             12345.0             12345.0
         &END RNG_INIT
       &END CSVR
     &END THERMOSTAT
     &AVERAGES  T
       &RESTART_AVERAGES
         ITIMES_START  1
         AVECPU     1.7465265750552426E-02
         AVEHUGONIOT     0.0000000000000000E+00
         AVETEMP_BARO     0.0000000000000000E+00
         AVEPOT    -1.4436453199664932E+01
         AVEKIN     4.5752399195703569E-01
         AVETEMP     2.3208751400382749E+02
         AVEKIN_QM     0.0000000000000000E+00
         AVETEMP_QM     0.0000000000000000E+00
         AVEVOL     6.7483345830903742E+06
         AVECELL_A     1.8897261328855802E+02
         AVECELL_B     1.8897261328855802E+02
         AVECELL_C     1.8897261328855802E+02
         AVEALPHA     9.0000000000000000E+01
         AVEBETA     9.0000000000000000E+01
         AVEGAMMA     9.0000000000000000E+01
         AVE_ECONS    -3.9068291433957021E+00
         AVE_PRESS     0.0000000000000000E+00
         AVE_PXX     0.0000000000000000E+00
       &END RESTART_AVERAGES
     &END AVERAGES
     &PRINT
       &ENERGY  SILENT
         &EACH
           MD  10
         &END EACH
       &END ENERGY
     &END PRINT
   &END MD
   &PRINT
     &TRAJECTORY  SILENT
       &EACH
         MD  10
       &END EACH
     &END TRAJECTORY
     &CELL  SILENT
       &EACH
         MD  10
       &END EACH
     &END CELL
     &VELOCITIES  SILENT
       &EACH
         MD  10
       &END EACH
     &END VELOCITIES
     &FORCES  SILENT
       &EACH
         MD  10
       &END EACH
     &END FORCES
     &RESTART  SILENT
       &EACH
         MD  10
       &END EACH
     &END RESTART
   &END PRINT
 &END MOTION
 &FORCE_EVAL
   METHOD  FIST
   &MM
     &FORCEFIELD
       VDW_SCALE14     1.0000000000000000E+00
       EI_SCALE14     1.0000000000000000E+00
       SHIFT_CUTOFF  T
       DO_NONBONDED  T
       IGNORE_MISSING_CRITICAL_PARAMS  T
       &SPLINE
         R0_NB     2.5000000000000000E-01
       &END SPLINE
       &NONBONDED
         &LENNARD-JONES
           ATOMS Br Br
           EPSILON     1.2630795322675199E+02
           SIGMA     3.6900000000000004E+00
         &END LENNARD-JONES
         &LENNARD-JONES
           ATOMS Cs Pb
           EPSILON     8.6920055954630968E+01
           SIGMA     3.6699999999999999E+00
         &END LENNARD-JONES
         &LENNARD-JONES
           ATOMS Cs Cs
           EPSILON     2.2644852172126850E+01
           SIGMA     4.3300000000000001E+00
         &END LENNARD-JONES
         &LENNARD-JONES
           ATOMS Pb Pb
           EPSILON     3.3363415533600227E+02
           SIGMA     5.9000000000000004E+00
         &END LENNARD-JONES
         &LENNARD-JONES
           ATOMS Br Cs
           EPSILON     5.3481070753900497E+01
           SIGMA     3.6300000000000003E+00
         &END LENNARD-JONES
         &LENNARD-JONES
           ATOMS Br Pb
           EPSILON     2.0528187276773045E+02
           SIGMA     2.9800000000000000E+00
         &END LENNARD-JONES
       &END NONBONDED
       &CHARGE
         ATOM Cs
         CHARGE     4.1739999999999999E-01
       &END CHARGE
       &CHARGE
         ATOM Pb
         CHARGE     8.3479999999999999E-01
       &END CHARGE
       &CHARGE
         ATOM Br
         CHARGE    -4.1739999999999999E-01
       &END CHARGE
     &END FORCEFIELD
     &POISSON
       PERIODIC  XYZ
       &EWALD
         EWALD_TYPE  SPME
         GMAX  62 62 62
         O_SPLINE  4
       &END EWALD
     &END POISSON
     &PRINT
       &FF_INFO  LOW
         SPLINE_INFO  F
         SPLINE_DATA  F
       &END FF_INFO
     &END PRINT
   &END MM
   &SUBSYS
     &CELL
       A     1.0000000000000001E+02    0.0000000000000000E+00    0.0000000000000000E+00
       B     0.0000000000000000E+00    1.0000000000000001E+02    0.0000000000000000E+00
       C     0.0000000000000000E+00    0.0000000000000000E+00    1.0000000000000001E+02
       PERIODIC  XYZ
       MULTIPLE_UNIT_CELL  1 1 1
     &END CELL
     &COORD
Cs   -2.3433236740466631E-01   -4.0445866897972871E-01   -6.5824904786486842E+00
Cs    3.4301994477921749E-01   -5.9854510407765096E+00   -5.8194231036400934E+00
Cs    5.5748246502675258E-01   -1.1251233013599405E+01   -5.5207982482161970E+00
Cs   -5.7407469664674551E+00   -7.4105472609601790E+00   -4.8486095140934644E+00
Br   -8.9325972276834555E+00   -1.3019235008459525E+01   -8.9024156771452283E+00
Br    1.1828655057781134E+01   -3.5940212905031381E+00   -8.7122500169940267E+00
Br   -3.7050947505479375E+00    1.6109563847227635E+00   -1.2249948149472964E+01
Cs   -9.8590424836075663E-01    4.7463877996651220E+00   -6.8345824122348278E+00
Cs   -1.9868267325741390E-01    1.6790818796097043E-01    3.1880751186018308E-01
Cs    7.7495939371520417E-01   -5.4374762294159087E+00    8.6481239700346724E-01
Br   -5.4481938865692747E+00   -3.3334691836919781E+00    2.8043508701343081E+00
Cs   -1.0222862115262489E+01   -6.3175801124060635E+00    1.2873172015152889E+01
Cs    1.1574978393856352E+01   -1.1410245318699014E+01   -6.1168544171813610E-01
Cs   -6.0881277605543600E+00    5.6520546416124890E+00   -7.6452056627881737E-01
Cs   -2.4334002882455774E-01    1.0985976840933873E+01   -1.2913920417706495E+00
Cs   -3.1742559644723733E-01    5.6825664773105018E+00   -1.4412531628048886E-01
Cs    1.4066021311164786E-01    1.1442849381967966E+00    5.7387469634314101E+00
Cs    2.0603910715689008E-01   -5.8472438003932110E+00    6.1487976567835831E+00
Cs    9.3748466487075288E-01   -1.0931911594212615E+01    7.0093530512988336E+00
Cs   -5.3228718003948847E+00    6.6929148107205672E+00    1.0364223526674854E+01
Cs   -5.1573726920058443E+00   -1.3209702499268885E+00   -1.1704073369901558E+01
Cs   -4.8225929984275631E+00   -1.2479964468494789E+01   -4.9430812782105207E+00
Cs   -5.4078945264537452E+00   -2.8262017838566389E-01    6.3046724401258736E+00
Br   -2.5921725811786849E+00   -3.2632857316485344E+00    1.1516904133599884E-01
Cs    1.4413338720945398E-01    6.1068377997370877E+00    5.8243634475476469E+00
Br    1.1590452080017334E+01   -8.4143554849611757E+00   -9.6338722914940558E+00
Cs    6.0450699162785793E-01   -5.0608999110256105E+00    1.0928079435876114E+01
Br   -2.5499405689024073E+00   -8.8734707336255561E-02    3.0375003217140839E+00
Br   -9.0239573058913543E+00   -3.4656394013383132E+00    1.1986252312446871E+01
Cs    1.1179648756545248E+01    1.1853766322804985E+01   -6.8626509647833531E+00
Cs   -1.1292543286236299E+01   -5.5784411269063980E+00    5.8207479979364702E+00
Cs   -5.9845491237034212E+00   -6.1321083639399685E+00    5.8969794090909673E+00
Cs   -6.1583305582865915E+00    1.0342286478434573E+01   -5.9933051734314597E+00
Br   -1.0516878076343493E+01   -1.1195745758648867E+01    9.5872673047939507E+00
Br   -8.2604914012150701E+00   -9.6491384369004116E+00    6.3591426032041207E+00
Cs   -1.1760192914781605E+01   -6.4425838375014495E+00   -5.5120906891427097E+00
Cs   -6.2547849345544968E+00    5.1245714994715135E+00   -6.1662794165453345E+00
Br   -8.8590660420755380E+00   -6.1752984569384717E+00    9.1142292069223689E+00
Cs    1.0995989720901509E+01    7.8728868630200814E+00    1.0998367531637202E+01
Br   -1.1386759932504177E+01    1.0145984153498498E+01    8.9493998201880984E+00
Br   -5.7103295997351919E+00   -3.4676920480647344E+00   -3.1075214842621217E+00
Cs    8.9131032401026700E-01    6.6096377433636611E-01    1.1511798640627282E+01
Cs    1.0865811958443738E+01    6.5120384221071248E+00   -6.1806309756739963E-01
Cs   -1.0805057855887364E+01   -7.0836276844688495E+00   -1.1449058831434975E+01
Cs    1.1364229314007369E+01    8.3281137803640859E-01    6.4130821310878909E+00
Cs   -1.1403529650747663E+01    1.0821685356181256E+01   -6.7682556776773870E+00
Cs    1.1844761778263264E+01   -1.0938709897439265E+01    7.4209114681639026E+00
Cs    5.2355680114582226E+00   -7.0108864818769225E+00   -1.1170321452353104E+01
Cs    6.8140234624211038E+00   -1.1067547842507160E+01    6.1475741805803130E+00
Cs   -6.4467417124860251E+00   -1.2194993938357419E+01    7.6506313635970558E-01
Cs    6.2005514254580758E+00   -1.1773457445524777E+01   -1.1412030162152341E+01
Cs    1.1054980393458491E+01    6.2230260170996212E+00   -5.8299700975334652E+00
Cs    1.1914111274163270E+01    1.2030661611953674E+01    4.3048078336293480E+00
Cs    1.0792897360260177E+01    6.4354252555623246E+00   -1.1716151206023348E+01
Cs    5.6194637530954161E-01   -5.2790608819529830E+00   -1.1889623157497788E+01
Cs   -1.1701331654889234E+01   -1.1759823591646621E+00   -4.9930735378682485E+00
Cs    6.9750296224037047E+00   -4.7670910387885064E+00    1.2010643549184488E+01
Cs    1.1894277411072872E+01   -4.4015401862820660E+00    6.2743424784449049E+00
Cs   -9.1061767067268349E+00   -1.3985531308971710E+01    1.0225105128818907E+01
Cs   -1.6348557999499128E-01   -3.1744414884889915E-01   -1.1370430214954187E+01
Cs    4.1277080890847079E-01    1.1364403987112697E+01    4.6703855088114281E+00
Cs   -7.8377715872802434E-01    5.6563728400855107E+00   -1.2242499347159288E+01
Cs    6.5360701973223758E+00   -1.5508021258888713E-01   -5.5984718620316647E+00
Cs    5.5243195081218337E+00   -6.2704843114533864E+00   -5.4490616921181863E+00
Cs   -4.5125246963220569E+00   -1.0925952359541087E+01    6.5740107372750680E+00
Cs   -1.1283227424050317E+01   -1.6670040976982706E-01    5.6199019638366465E+00
Cs    6.9925749233073899E+00   -3.5506189337844739E-02   -1.1649560548278956E+01
Cs    5.1194975028342915E+00    1.0781639767279481E+01   -1.2413634397605993E+01
Cs    3.0776694150241540E-01    6.7534176214695600E+00    1.1552097652178544E+01
Cs   -6.5999623572262376E+00    1.1219931500774402E+01    5.1070019552883021E+00
Cs    5.1474911464558666E+00    1.0628057219611080E+01   -6.7662348342262426E+00
Cs    6.1203577490340466E+00    5.3563857887487485E+00   -6.4348871183270795E+00
Cs    5.4941399351464408E+00    3.4212740809731429E-01    3.7624073472663583E-01
Cs    5.8255083867270203E+00   -5.7419886814284897E+00    4.3339020184171401E-01
Cs    6.3228321865876254E+00   -1.0837096110666742E+01    7.2822475211583904E-01
Cs    4.6190941211830872E+00    5.9052314137800144E+00   -1.1309514128769477E+01
Cs   -5.1107937909869712E+00    5.7767091643577730E+00    5.2958284290440956E+00
Cs   -5.8294139146621804E+00   -7.2542921912561029E+00   -1.0182198595294853E+01
Cs    5.6165821399946170E+00    6.2682261655722256E+00   -7.7129894939774113E-01
Cs    6.1771274950523365E+00    1.1049408788466988E+00    6.4692424791875425E+00
Cs    5.6253346240741111E+00   -5.8624583474411445E+00    5.9014304260940555E+00
Cs   -6.3661103056894230E+00    1.0887187839375114E+01   -2.8656042529221781E-02
Cs    1.1650372368231368E+01    7.7377180268827206E-01    3.5526154522372938E-01
Cs   -5.4389853791473355E+00   -4.6709301769039330E-01    5.4702505852847938E-01
Cs   -1.1748308541758227E+01    5.5449676133080272E+00    7.2250464251737672E+00
Cs   -4.9229976802396607E+00    9.3405927039213765E-01    1.1393100882185433E+01
Cs    5.6140518959833461E+00    1.2855357110962510E+01    4.8741073706175237E+00
Cs    6.6222585033988066E+00    7.0951445492948357E+00    5.9350558959025914E+00
Cs    5.9487380046265503E+00    1.7674840033813413E+00    1.1607738626451207E+01
Cs    4.8019362159650667E+00    1.2739147064925779E+01   -5.8971528265820361E-01
Cs    1.1618914410061826E+01    2.9189631004873673E-01   -5.4020765828104240E+00
Cs    1.1246485117957620E+01   -6.4547498995522519E+00   -6.7471633326937814E+00
Cs    6.8692812279695126E+00   -9.7515738623879020E+00    1.1156157669826570E+01
Cs    9.7102840602688332E+00    1.2463411252155010E+01   -6.6568143955105818E-01
Cs   -1.1017334942427864E+01    2.3754021046242545E-02    1.0900231358954988E+01
Cs   -8.0378848651837913E+00    3.8816653070543605E+00   -1.2037428855361481E+01
Cs   -1.1707561930521244E+01    1.0628968779216089E+01    3.3279293178369779E-01
Cs   -5.3865456697791583E+00   -4.9563921949671963E+00    1.1767610699435197E+01
Cs   -4.4721925500432089E+00   -1.0169273087593091E+01    1.2137497208982216E+01
Cs    5.8055881769166513E+00    7.3340231562818516E+00    1.0910526233007989E+01
Cs    1.2959545725775911E+01   -5.9065762708958038E+00   -9.9489842292495057E-01
Cs   -1.1425884621158820E+01   -1.3365826823408442E+00    2.1133616312418979E-01
Cs   -7.3422579820377170E+00    1.0007020311746386E+01   -1.2132073035839017E+01
Cs   -1.2569690755100430E+01    4.2585204407607185E+00    4.9690310310408498E-01
Cs   -1.1607270739168188E+01   -1.2748699812527914E+01   -5.0189148600481808E+00
Cs   -1.1847632944924326E+01   -6.3729041978823870E+00   -4.4168692141155180E-01
Cs   -5.4028767808322913E+00   -6.4320903127639841E+00    1.0248794406425608E+00
Cs   -1.1285401062359227E+01   -1.1618691895187508E+01    6.0214688014445752E+00
Cs    1.1876361438654685E+01   -4.5106541552372663E+00    1.1558078517271491E+01
Cs    1.1772400385147117E+01    7.1474250352126765E+00    5.2902372848760928E+00
Cs   -1.3524144593405815E+01    4.3379652936643769E+00   -8.0352643019157863E+00
Cs   -5.6313615191396993E+00   -6.0345705174728737E-01   -5.7379764442039152E+00
Cs   -1.1259197913754619E+01   -1.1454464192623096E+01    5.1262620596345365E-01
Cs    1.0916794321208366E+01   -6.0428745902668188E+00   -1.1925778822658266E+01
Cs   -6.8982801013442048E+00   -1.2246566129788286E+01   -1.1771183857688532E+01
Cs   -7.2771233201048602E-01    1.1221957694157290E+01   -1.1636124927785522E+01
Cs   -4.3583459415594578E-01   -1.2447544680259579E+01   -1.0119098713216689E+01
Cs   -1.0492057329275939E+00    1.0469122569237763E+01   -6.4909369205326763E+00
Cs   -5.3944717141456149E+00    1.2328110986030486E+01    1.0322704819320242E+01
Cs    6.6350257685600111E-01   -1.1415915194351761E+01    1.1323296246921646E+00
Cs   -1.2779029276686028E+01   -1.4852390727832478E+00   -1.0696445874579688E+01
Cs   -1.1322417634089938E+01    1.1170630901301788E+01    6.0001467683703380E+00
Cs    5.8303504525802889E+00   -1.1786320104532129E+01   -5.6098211891373913E+00
Cs    1.2391415871439033E+01   -3.4437666365534580E-01   -1.1064081910761328E+01
Cs    2.5333132287151650E-01    1.2531691657731400E+01    1.0186689925738335E+01
Pb    3.0730475556164771E+00   -3.3310962412838023E+00   -2.7652145078514780E+00
Pb    2.6911148875151749E+00   -8.8676202641720838E+00   -2.5126308844890430E+00
Pb   -8.4010224300850425E+00   -3.2386480052132702E+00    3.1118062894812897E+00
Pb   -2.8560238030921967E+00   -9.6658795602212884E+00   -2.0162467746686485E+00
Pb    2.5869806705396945E+00    8.6702490048578387E+00   -3.6642150425569322E+00
Pb    2.6366945569587839E+00    2.7868701732388854E+00   -3.0476924983821623E+00
Pb    3.5503904437550289E+00   -2.6496263160334155E+00    3.2749815020652022E+00
Pb    3.4931929846781662E+00   -8.6345975891029259E+00    3.4526753470163589E+00
Pb   -3.2056679553317733E+00    9.0004894171104333E+00    2.3324471475199680E+00
Pb    2.8267900480009946E+00    9.0043115962871951E+00    2.5812418794132577E+00
Pb    3.1828195827563066E+00    3.2247518729302556E+00    2.8915807044182196E+00
Pb    3.5281175283857542E+00   -1.9314930486823041E+00    9.2122790758086914E+00
Pb    3.5134093428088322E+00   -7.7130142367870924E+00    9.2470635313778669E+00
Pb   -2.8092191654986927E+00    2.7501975201573390E+00    2.7329926946034617E+00
Pb    3.0809519215348642E+00    1.0090468384586762E+01    8.3172913111668283E+00
Pb    3.1691611516317231E+00    3.9822263517936940E+00    9.0966042279674308E+00
Pb   -2.5386995374349715E+00   -2.4390875844496480E+00    9.0232966283327425E+00
Pb   -8.7502727701901293E+00   -9.2236510556849005E+00    3.5211914747517823E+00
Pb   -9.1163610252379339E+00    1.9532745158914864E+00   -2.5815175251696663E+00
Pb   -2.9864824897764768E+00   -3.5550816989617742E+00   -8.9641804370500058E+00
Pb   -2.5491496592211389E+00   -8.9069342601188435E+00    3.7722951592556417E+00
Pb   -3.4893299062709291E+00    8.0989789926821878E+00   -3.6878889428549875E+00
Pb   -2.2138450283488758E+00   -8.6297769357406704E+00    9.4487264435653096E+00
Pb   -8.6443321920060416E+00   -4.0119337662328105E+00   -2.7224313102628974E+00
Pb   -8.7433945613787163E+00   -9.6068389049538716E+00   -2.7820382510161852E+00
Pb   -3.1550576461177458E+00    2.2893744804586400E+00   -3.0490679950768902E+00
Pb   -8.2740265141084510E+00   -9.3568509618461757E+00    9.4341641729373240E+00
Pb   -8.7240005795557547E+00   -4.2766706656528823E+00   -8.7848500999515515E+00
Pb    8.8916497616597212E+00   -3.1087836073980641E+00   -8.7348062157813278E+00
Pb    8.6015583619513407E+00   -9.2039360700780097E+00   -9.1515582973282346E+00
Pb   -3.0951160266206181E+00   -9.5476282185005630E+00   -8.3234980020225251E+00
Pb   -9.6582336104436131E+00    7.6418840523928990E+00   -9.2891436065570048E+00
Pb    3.1245076014375042E+00   -3.1057128125046769E+00   -8.7832223490335402E+00
Pb    2.7241887242496281E+00   -9.0179982284017690E+00   -8.4058136359364770E+00
Pb   -3.3190606249602879E+00    2.2918829152630793E+00   -8.9109679084295852E+00
Pb    2.3978212012949967E+00    8.8625662666925393E+00   -9.3496988706371695E+00
Pb    3.0339599953463017E+00    2.8612024934869944E+00   -9.2159942908099701E+00
Pb    8.9036501582567436E+00   -2.8334490287373999E+00   -2.8804627003161740E+00
Pb    8.8920745720622154E+00   -8.7868935896657341E+00   -2.8277002654366350E+00
Pb   -8.6311378241998646E+00   -2.8584866346167375E+00    8.8199895895222351E+00
Pb    8.4663520082687231E+00    9.0874783825455907E+00   -9.5574251331680671E+00
Pb   -9.6511816531876864E+00    1.4489869804124214E+00   -8.5835023533042492E+00
Pb   -2.6539967128990316E+00    9.2681403633390520E+00    8.2212409415426535E+00
Pb    8.4218103749207653E+00    9.4624563774141315E+00   -3.4230894833776091E+00
Pb    8.6883321538380560E+00    3.2412119707946663E+00   -3.0464192940867911E+00
Pb    9.2542969409567082E+00   -2.6145688802967362E+00    3.1216239344587784E+00
Pb    9.6775857488400696E+00   -8.5160522259195712E+00    2.9733935132349698E+00
Pb    8.8552561268159558E+00    3.4792308613712857E+00   -9.3741480117691864E+00
Pb   -2.7383201389400758E+00    3.5848175971231031E+00    8.7178394701642947E+00
Pb    8.6621561233671276E+00    9.1030697765927631E+00    2.2561473535678660E+00
Pb    9.3626017619563449E+00    3.4209652803193826E+00    2.9169548722428789E+00
Pb    9.3015132380557262E+00   -2.0031963159119353E+00    9.1054301929533175E+00
Pb    9.7612623214321950E+00   -7.7925220631485539E+00    8.9333687184804926E+00
Pb    8.8966294282522664E+00    1.0589597335016993E+01    7.9674880773962302E+00
Pb    9.0921272075023101E+00    4.2951094767776734E+00    8.6252946772126204E+00
Pb   -8.4617573411146765E+00    3.1490298164630630E+00    9.0908663884019667E+00
Pb   -2.2506455770120155E+00   -3.1644692193478368E+00    3.0087436499507891E+00
Pb   -9.2271755857773545E+00    8.3583721973238507E+00    2.9634317285233456E+00
Pb   -9.4291536721854659E+00    8.3320724446661991E+00   -3.2047466316301545E+00
Pb   -9.2906620285727417E+00   -1.0240323450983507E+01   -8.5497814227012974E+00
Pb   -3.4854347478105789E+00    8.4722268488679902E+00   -9.6248667061552808E+00
Pb   -8.6187842045072163E+00    2.3730114637334356E+00    3.0670164212008411E+00
Pb   -8.6996819949183646E+00    9.4450626373928976E+00    8.7499104200726698E+00
Pb   -2.9569039684038625E+00   -3.7565810590655153E+00   -2.8309905900964272E+00
Br    2.4379369720244146E-01   -3.7218878716541375E+00   -2.4083106026163321E+00
Br    3.0057966449591293E+00   -3.0727888970549766E+00   -5.7878373634878075E+00
Br    2.6411104699076553E+00   -1.7987896877927675E-01   -2.5453051144702550E+00
Br   -1.5530191755636327E-01   -8.8485420527339365E+00   -1.8842078061914889E+00
Br    2.5963170614712250E+00   -8.8958819867007826E+00   -5.3622998892693561E+00
Br    3.2350289533292336E+00   -6.0180090173612655E+00   -2.4791366346817254E+00
Br   -2.8104510956467914E+00   -3.8950487642441582E+00   -6.1368628586599820E+00
Br   -8.3944102810220560E+00   -3.3438703134478138E+00    5.8302749987704647E+00
Br   -2.5750054911812748E+00   -4.8572567880500173E-01   -3.7607471438290512E+00
Br    2.9097010231971669E+00   -1.1804821171448843E+01   -2.4929586672884110E+00
Br    1.2094269395599429E+01   -1.7734420533487150E+00    3.9264295804507445E+00
Br   -5.8302078258908727E+00   -1.0300724843942529E+01   -2.6792124995045179E+00
Br   -1.1231777647011295E+01   -3.9446801475208035E+00    3.0522360027418318E+00
Br   -8.3284401949274152E+00   -4.1545248416573042E+00    4.1393896913555939E-02
Br    1.2196463446019173E+01   -7.6433327629112133E+00    1.8087263463866554E+00
Br   -2.4277402108610466E-01    8.5852086533667293E+00   -3.8496205690991734E+00
Br    2.1105361616532692E+00    8.8699241972846874E+00   -6.6572302738980982E+00
Br    2.2597453541473280E+00    1.1372963984229530E+01   -3.4292963169100226E+00
Br    3.9279686437309301E-02    2.1225764537377056E+00   -2.9760793696891117E+00
Br    3.1557573216864667E+00    2.2509020321561342E+00   -6.2078301766636352E+00
Br    2.6686872097477150E+00    5.6802149197762830E+00   -3.0770417141211559E+00
Br    4.2410840199692640E-01   -3.2940712255275817E+00    3.5534829762275777E+00
Br    3.0388603179460114E+00   -3.0947792778275907E+00    4.8312120520815505E-01
Br    3.0057303280012722E+00    3.8541750215795606E-01    2.8628488074528042E+00
Br    3.6328835521785763E-01   -8.1168287551218157E+00    2.9817566848937389E+00
Br    3.4445646475445546E+00   -8.7936931181411904E+00    4.8763994375440017E-01
Br    3.3050067861549204E+00   -5.7098775167026625E+00    3.2235068859138294E+00
Br   -6.4793146872089578E+00    9.1500457367814114E+00   -9.2405362846879306E+00
Br   -3.1158730321851844E+00    8.8403875211453276E+00   -1.2260095949346729E+01
Br    3.9995271264562042E+00   -1.1449554678104871E+01    3.3888589904273205E+00
Br   -2.7777106831087095E+00    1.1255161821051427E+01   -9.0591783340454803E+00
Br   -3.2644538902594737E+00    5.0272650960045047E+00   -9.4717931164158831E+00
Br   -8.4006485310376551E+00   -3.9795312611994677E-01    3.5332741226557784E+00
Br   -2.8075171401207659E+00   -9.8173277113336326E+00   -5.1593964931205418E+00
Br   -6.0973338546290243E+00    8.1611010742423478E+00    2.8486040797249972E+00
Br   -3.3550290215203451E+00    8.6020199497951353E+00   -5.0539909922752901E-01
Br   -3.7879726354918821E+00    1.1807548537806488E+01    2.0106065987771631E+00
Br   -3.2310317048086173E-01    9.4780849179486903E+00    2.1270478233652987E+00
Br    3.2044394722734073E+00    9.1663868351604183E+00   -3.9642330383937208E-01
Br    2.8837071345861109E+00    1.1962807831566732E+01    2.8350821055424209E+00
Br    3.4390135441349626E-02    2.6147863367762745E+00    2.5016368979129098E+00
Br    3.3402531406829965E+00    3.0035111806540562E+00   -1.2653723746446430E-01
Br    2.0477663101608776E+00    6.0691585152535614E+00    2.3980282757077540E+00
Br    3.8070959061769960E-01   -2.0003563434546821E+00    8.8319265029517489E+00
Br    4.0511670938930084E+00   -1.8189569568183592E+00    6.2799869464092719E+00
Br    3.6234697429524192E+00    1.2575747786094593E+00    9.1604371102572237E+00
Br    6.0617273964394691E-01   -7.8887230815440788E+00    9.5229340131571263E+00
Br    2.9557146684584721E+00   -8.1492152494776384E+00    6.2360012887631795E+00
Br    3.4584884250671450E+00   -4.9382549171013563E+00    8.7078435175648590E+00
Br   -1.1321531312197502E+01    1.6167433394534094E+00    2.3975948917790211E+00
Br   -8.4182774696996177E+00    1.8840219772173474E+00    1.2606895111241287E-01
Br    3.8144024988060750E+00   -1.0442579474998420E+01    9.0419914518782818E+00
Br   -9.6727655615867167E+00    5.2862978597286086E+00    2.8698505987138305E+00
Br   -8.5050003127633094E+00    4.7621546241817025E-02    8.3659061188931858E+00
Br   -3.1990073514430244E+00   -6.5153218489287035E+00   -2.6781949197292727E+00
Br   -5.6020614878496762E+00    2.6658361555465251E+00    3.0709658282725050E+00
Br   -3.2308011169346509E+00    2.2061260974031742E+00   -8.7741392775216143E-02
Br   -3.0427903419491069E+00    5.9087425628572419E+00    2.0773438126347750E+00
Br    2.0133696274967156E-01    9.4400270864678344E+00    8.4685032256817880E+00
Br    2.6346877003650668E+00    9.0733241115942374E+00    5.4151651740751277E+00
Br    2.2752189079707241E+00    1.2657689916314673E+01    7.6236835996442585E+00
Br    1.7994273951453088E-01    3.6008191521610677E+00    9.6637115627133223E+00
Br    2.5881301735334938E+00    3.3069782132003898E+00    6.2637130759226434E+00
Br    3.2885500310693812E+00    6.6953502930428295E+00    8.9264558717188258E+00
Br   -5.6574255646336225E+00   -2.6223921360658053E+00    9.1625596126187148E+00
Br    3.0077874695143918E+00   -2.5198868345576311E+00    1.1860776330255351E+01
Br   -2.7209225125729612E+00   -2.7987542793502027E+00    5.9205185330642367E+00
Br   -2.8919250132933119E+00    7.8711047140979362E-01    8.7317943124413997E+00
Br   -2.6400791074302914E+00   -1.2597707021221453E+01   -6.0456830873708534E-01
Br    4.4786941527799629E+00   -7.2704853751858547E+00    1.1967893625683757E+01
Br   -1.2033982115140084E+01    1.6320201726980965E+00   -2.1478132343552905E+00
Br   -2.2862636332844444E+00   -1.1936709437703097E+01    4.0983369645927255E+00
Br   -1.1581408767201392E+01   -3.8829846614112027E+00   -2.5639307809591014E+00
Br    2.8201942111374434E+00    1.0740138672788307E+01    1.1449942106252722E+01
Br   -8.6148157095755842E+00   -4.1636008609425872E+00   -5.6117632745545771E+00
Br   -9.0180457520432622E+00   -8.3469716218109236E-01   -2.7623473006727952E+00
Br    3.6976148485647449E+00    4.3555931144935895E+00    1.1816167908958361E+01
Br   -6.1720293250172560E+00    8.0558346606451465E+00   -3.4773838650148643E+00
Br   -3.7998663433710980E+00    7.5641290123996461E+00   -6.7231395776714633E+00
Br   -3.4952920105024106E+00    1.0995111739069474E+01   -4.4421722721987109E+00
Br   -6.0925077165745156E+00    2.3302979152520535E+00   -3.2058972272077733E+00
Br   -1.1817680219081895E+01   -8.4319881940184658E+00    2.9934862518139802E+00
Br   -3.6470631263210040E+00    2.9539474737222604E+00   -5.8369561862653097E+00
Br   -5.7501080618664151E+00   -4.2331680873533033E+00   -8.5039293774917954E+00
Br   -2.3688451176485898E+00   -3.1969666602671594E+00   -1.1778595693811912E+01
Br   -3.2707059319709537E+00   -5.4636560524305222E-01   -8.8909229356665538E+00
Br   -3.2959134009506479E+00    4.4476145767856288E+00    1.1673467482376218E+01
Br   -5.0335184646846516E+00   -8.2220118247612692E+00    8.7853526431752762E+00
Br   -1.5876037502729969E+00   -8.9599320931886730E+00    6.5965874032488108E+00
Br   -2.2386467429283936E+00   -5.3846065548245718E+00    8.9364896480661091E+00
Br   -8.9319586921099283E+00   -9.2004079722275378E+00    5.0116805971548495E-01
Br   -8.2913257728924599E+00   -6.3028627249540952E+00    3.4060525727283681E+00
Br   -7.4783988785905740E+00    9.1026222262063214E+00    1.1316816294359411E+01
Br    1.1386386744896489E+01    1.0090346904336602E+01    2.0681301720827365E+00
Br   -7.9166153660341454E+00   -8.4421963680859236E+00    1.1871872874215928E+01
Br    1.0976564635509247E+01    1.0529205619126211E+01   -3.5887129772453945E+00
Br    1.2031623023756541E+01    3.6240261900494688E+00    2.5488333025291086E+00
Br   -8.2561360308322396E+00    1.5001049944690035E+00    1.1871540099536819E+01
Br   -1.1509499292937731E+01   -4.5281052381069582E+00   -9.1935748633335646E+00
Br    1.2206706139840142E+01   -2.0271631363768350E+00    8.9902212359218368E+00
Br   -5.6247662497913122E+00   -9.0917858151110238E+00    3.7193312784168286E+00
Br    6.1305383719654172E+00   -2.6889911159237072E+00   -8.6806205707466155E+00
Br    9.2081464655740568E+00   -2.7520621798271132E+00   -1.1517318892226399E+01
Br    1.2613392877500925E+01   -7.6151972164733639E+00    8.2922204745948935E+00
Br    9.8535796883010818E+00    2.7186791144447438E-02   -8.7951137414136618E+00
Br   -6.7819155171966843E+00   -1.1715159296212592E+01    9.5795128780441647E+00
Br   -2.7412649192288869E+00   -8.5573315947579918E+00    7.4586138423040194E-01
Br   -2.7131407937752741E+00   -6.0893722495735298E+00    3.6461769605723577E+00
Br    5.7742062149957789E+00   -9.3415985108187396E+00   -8.9732686277734590E+00
Br   -5.8949978743257470E+00   -9.6849503115492990E+00   -7.3179713262545754E+00
Br    7.9362122343195880E+00   -9.0516867733468711E+00   -1.1980742827270348E+01
Br    8.6381754310828551E+00   -6.1900815934152522E+00   -9.4178935443804725E+00
Br   -3.0281109244190549E+00   -1.1446050675668841E+01    9.6779679307296735E+00