 # Version information for this restart file 
 # current date 2021-06-17 12:44:10.460
 # current working dir /user/ub2042/exercises/2_fitting/MM_MD_workdir/md_settings.004
 # Program compiled at                              Thu Apr 22 21:44:59 EDT 2021
 # Program compiled on                cpn-k07-07-02.compute.cbls.ccr.buffalo.edu
 # Program compiled for                                                    local
 # Source code revision number                                       git:36754bb
 &GLOBAL
   PRINT_LEVEL  LOW
   PROJECT_NAME cp2k
   RUN_TYPE  MD
 &END GLOBAL
 &MOTION
   &MD
     ENSEMBLE  NVT
     STEPS  10000
     TIMESTEP     2.4999999999999996E+00
     STEP_START_VAL  9990
     TIME_START_VAL     2.4974999999995493E+04
     ECONS_START_VAL    -1.4028929475949734E+01
     TEMPERATURE     3.0000000000000000E+02
     &BAROSTAT
       PRESSURE     1.0100000000000000E+00
       TIMECON     9.9999999999999982E+03
     &END BAROSTAT
     &THERMOSTAT
       TYPE  CSVR
       &CSVR
         TIMECON     9.9999999999999982E+03
         &THERMOSTAT_ENERGY
              -2.7488223837809578E-01
         &END THERMOSTAT_ENERGY
         &RNG_INIT
Wiener process for Thermostat # 1        1 F T F  -1.4436051593819570E+00        2305787847.0         317263915.0         649490368.0        2437808356.0        3240923174.0        2748373337.0             12345.0             12345.0             12345.0             12345.0             12345.0             12345.0             12345.0             12345.0             12345.0             12345.0             12345.0             12345.0
         &END RNG_INIT
       &END CSVR
     &END THERMOSTAT
     &AVERAGES  T
       &RESTART_AVERAGES
         ITIMES_START  1
         AVECPU     1.7440719980475288E-02
         AVEHUGONIOT     0.0000000000000000E+00
         AVETEMP_BARO     0.0000000000000000E+00
         AVEPOT    -1.4390929981320452E+01
         AVEKIN     5.0410058516674638E-01
         AVETEMP     2.5571435307421379E+02
         AVEKIN_QM     0.0000000000000000E+00
         AVETEMP_QM     0.0000000000000000E+00
         AVEVOL     6.7483345830912264E+06
         AVECELL_A     1.8897261328855686E+02
         AVECELL_B     1.8897261328855686E+02
         AVECELL_C     1.8897261328855686E+02
         AVEALPHA     9.0000000000000000E+01
         AVEBETA     9.0000000000000000E+01
         AVEGAMMA     9.0000000000000000E+01
         AVE_ECONS    -5.1010895715162015E+00
         AVE_PRESS     0.0000000000000000E+00
         AVE_PXX     0.0000000000000000E+00
       &END RESTART_AVERAGES
     &END AVERAGES
     &PRINT
       &ENERGY  SILENT
         &EACH
           MD  10
         &END EACH
       &END ENERGY
     &END PRINT
   &END MD
   &PRINT
     &TRAJECTORY  SILENT
       &EACH
         MD  10
       &END EACH
     &END TRAJECTORY
     &CELL  SILENT
       &EACH
         MD  10
       &END EACH
     &END CELL
     &VELOCITIES  SILENT
       &EACH
         MD  10
       &END EACH
     &END VELOCITIES
     &FORCES  SILENT
       &EACH
         MD  10
       &END EACH
     &END FORCES
     &RESTART  SILENT
       &EACH
         MD  10
       &END EACH
     &END RESTART
   &END PRINT
 &END MOTION
 &FORCE_EVAL
   METHOD  FIST
   &MM
     &FORCEFIELD
       VDW_SCALE14     1.0000000000000000E+00
       EI_SCALE14     1.0000000000000000E+00
       SHIFT_CUTOFF  T
       DO_NONBONDED  T
       IGNORE_MISSING_CRITICAL_PARAMS  T
       &SPLINE
         R0_NB     2.5000000000000000E-01
       &END SPLINE
       &NONBONDED
         &LENNARD-JONES
           ATOMS Br Br
           EPSILON     1.2630795322675199E+02
           SIGMA     3.6900000000000004E+00
         &END LENNARD-JONES
         &LENNARD-JONES
           ATOMS Cs Pb
           EPSILON     8.6920055954630968E+01
           SIGMA     3.6699999999999999E+00
         &END LENNARD-JONES
         &LENNARD-JONES
           ATOMS Cs Cs
           EPSILON     2.2644852172126850E+01
           SIGMA     4.3300000000000001E+00
         &END LENNARD-JONES
         &LENNARD-JONES
           ATOMS Pb Pb
           EPSILON     3.3363415533600227E+02
           SIGMA     5.9000000000000004E+00
         &END LENNARD-JONES
         &LENNARD-JONES
           ATOMS Br Cs
           EPSILON     5.3481070753900497E+01
           SIGMA     3.6300000000000003E+00
         &END LENNARD-JONES
         &LENNARD-JONES
           ATOMS Br Pb
           EPSILON     2.0528187276773045E+02
           SIGMA     2.9800000000000000E+00
         &END LENNARD-JONES
       &END NONBONDED
       &CHARGE
         ATOM Cs
         CHARGE     4.1739999999999999E-01
       &END CHARGE
       &CHARGE
         ATOM Pb
         CHARGE     8.3479999999999999E-01
       &END CHARGE
       &CHARGE
         ATOM Br
         CHARGE    -4.1739999999999999E-01
       &END CHARGE
     &END FORCEFIELD
     &POISSON
       PERIODIC  XYZ
       &EWALD
         EWALD_TYPE  SPME
         GMAX  62 62 62
         O_SPLINE  4
       &END EWALD
     &END POISSON
     &PRINT
       &FF_INFO  LOW
         SPLINE_INFO  F
         SPLINE_DATA  F
       &END FF_INFO
     &END PRINT
   &END MM
   &SUBSYS
     &CELL
       A     1.0000000000000001E+02    0.0000000000000000E+00    0.0000000000000000E+00
       B     0.0000000000000000E+00    1.0000000000000001E+02    0.0000000000000000E+00
       C     0.0000000000000000E+00    0.0000000000000000E+00    1.0000000000000001E+02
       PERIODIC  XYZ
       MULTIPLE_UNIT_CELL  1 1 1
     &END CELL
     &COORD
Cs   -4.9135217343385246E-01   -1.1415526027476479E+00   -6.1870637091036551E+00
Cs    1.3330828865991449E+00   -6.4469868008248872E+00   -4.7791253839466386E+00
Cs    1.3719890748149683E+00   -1.2278187398492570E+01   -3.6560617307143395E+00
Cs   -4.8665890189114771E+00   -8.8082942146524825E+00   -4.2761302347218173E+00
Br   -6.7043575942425955E+00   -1.5020297230261592E+01   -5.7863534005566342E+00
Br    1.1444059053708616E+01   -2.9594669199048731E+00   -8.6932104583970986E+00
Br   -3.6932715316284686E+00    4.0193339411514212E-01   -1.1679818547068372E+01
Cs   -1.6290207740019496E+00    4.2916468500980951E+00   -6.6207945321995156E+00
Cs   -5.9776010906155613E-02    2.3155032963777888E-01    4.2703994436766812E-01
Cs    1.8168586310900359E+00   -6.3057511509760182E+00    1.1362103705404569E+00
Br   -4.7012841018971709E+00   -3.6013988912070825E+00    4.0225485660883598E+00
Cs   -9.1007087664540300E+00   -5.1556413488761361E+00    1.2908802625221460E+01
Cs    1.4343728838950488E+01   -8.7083348553295465E+00    1.0108010315685882E+00
Cs   -6.6915408900826323E+00    5.2324804349283358E+00   -1.0862585232845432E+00
Cs   -1.7241302257935165E+00    1.1536706912859072E+01   -2.0025799408858997E+00
Cs   -5.2640425038622518E-01    5.0366654931212445E+00   -7.1929689329075985E-01
Cs    3.3799761245772908E-01    1.7062020664382600E+00    6.1618865030575796E+00
Cs    9.7029337761485723E-01   -4.5822289895312993E+00    6.8097394139574616E+00
Cs    2.7529275818945225E+00   -1.0606082174394901E+01    8.9895043146731677E+00
Cs   -6.6224231245507195E+00    7.3080041966991081E+00    1.0491113450145912E+01
Cs   -7.9076759259388760E+00   -3.4964147900568530E+00   -1.0899690396088435E+01
Cs   -4.5332423639161519E+00   -1.4043266746554904E+01   -3.0640857201934861E+00
Cs   -5.2553479763072417E+00    1.0127538312750310E-01    6.6030999165048856E+00
Br   -2.6565883007561539E+00   -3.6245250343139936E+00    6.9357987920076036E-01
Cs   -1.0471877645731174E+00    7.0642977598214802E+00    4.7109324057983635E+00
Br    1.2018109152364939E+01   -8.2693228795804146E+00   -9.4038606622095458E+00
Cs    2.5050144412212560E+00   -3.5797127305592484E+00    1.2208988080302435E+01
Br   -2.4580038366480368E+00   -4.3451046333852800E-02    3.3079610501617625E+00
Br   -7.0723910171053426E+00   -2.3438599183289699E+00    1.2905299928747446E+01
Cs    9.1685109427271794E+00    1.2548604930139954E+01   -9.6076057533919528E+00
Cs   -9.8263653727470501E+00   -6.6408027859059722E+00    7.7497287423456473E+00
Cs   -4.1493517275513110E+00   -5.3457474882629734E+00    7.5640341225815586E+00
Cs   -8.9041400783839695E+00    9.2354597114420454E+00   -8.0026709472629474E+00
Br   -1.0025571779808420E+01   -7.6748872094307874E+00    1.1253020341509798E+01
Br   -6.8694559104677735E+00   -9.1688433671463105E+00    8.4976620698029617E+00
Cs   -1.1125649582526449E+01   -8.1685876947904337E+00   -3.3179504828394353E+00
Cs   -7.3712608441772094E+00    3.8625201277216195E+00   -6.9102801758852337E+00
Br   -6.6888036059324270E+00   -5.6662020465532308E+00    9.7738188662138974E+00
Cs    1.1683371238560698E+01    9.4444857240612254E+00    8.7667413442566264E+00
Br   -1.2643946695705033E+01    8.1714168449695777E+00    7.0884405952233616E+00
Br   -5.8550421733294273E+00   -4.6576790150050575E+00   -1.7231791113985986E+00
Cs    8.7761222846895559E-01    2.3580040078773417E+00    1.1444118230536205E+01
Cs    1.0637601382039994E+01    6.4443429308564246E+00   -2.3849183266133043E+00
Cs   -1.1595158959082674E+01   -9.8533102532603003E+00   -8.4490992902337574E+00
Cs    1.1755110680460259E+01    3.3210638022784291E+00    5.4676853937031380E+00
Cs   -1.4640483319463723E+01    7.7902940897243376E+00   -7.0282993299644598E+00
Cs    1.5003352647660817E+01   -8.5220118647698690E+00    6.4308324104637657E+00
Cs    5.6064504197704803E+00   -7.1428087083207084E+00   -1.0249640714007514E+01
Cs    9.1415263317441671E+00   -8.6104302672951523E+00    7.1779476978138108E+00
Cs   -3.3997096328791838E+00   -1.2234737899222196E+01    2.9412950254923613E+00
Cs    8.3329644189409464E+00   -1.2820601478230854E+01   -1.0398944193475096E+01
Cs    9.0937737172279363E+00    7.9263931473862126E+00   -8.0248268177674316E+00
Cs    1.0282003210819207E+01    1.5670700420205959E+01    5.4504951018795094E+00
Cs    9.2073639127592468E+00    5.8815446219973451E+00   -1.3293309981796385E+01
Cs   -5.4363267393102355E-01   -8.6964924193419151E+00   -1.0258215338605234E+01
Cs   -1.1232233892560314E+01   -2.9607578552028309E+00   -5.4713262104147899E+00
Cs    7.8921645306251174E+00   -2.2851942566226899E+00    1.1240031362136884E+01
Cs    1.2910004589864268E+01   -2.1827853322148569E+00    6.1065589072471207E+00
Cs   -3.7925245815695314E+00   -8.6000840317825968E+00    1.5154357705720461E+01
Cs   -9.6665778090185650E-01   -1.9543315303083837E+00   -1.0629896130796288E+01
Cs   -1.0150871475078878E+00    1.1926236659383669E+01    3.7460973079171844E+00
Cs   -1.7297170545267992E+00    3.6177602857740845E+00   -1.2461502989419479E+01
Cs    5.2295487512632537E+00   -5.6222805906841500E-01   -6.6921731872716661E+00
Cs    6.3206575956428681E+00   -6.5735415835937490E+00   -5.6086620205597084E+00
Cs   -3.2813289511850017E+00   -1.0825826455424128E+01    8.4541762870575230E+00
Cs   -1.0707107622268545E+01   -1.0872323634342291E+00    7.4764058700780502E+00
Cs    4.3811480351693559E+00   -1.0042901351533395E+00   -1.1659198699268682E+01
Cs    2.6943676529197282E+00    1.0514113510823806E+01   -1.3041410653749587E+01
Cs   -1.8546912234101018E-01    8.1882629652259400E+00    1.0861805392692510E+01
Cs   -6.8231564444690047E+00    1.0738614452093367E+01    4.1882397793874295E+00
Cs    2.5946811738518116E+00    1.0489704453753426E+01   -8.7469669246869017E+00
Cs    3.6229424744085850E+00    5.2133281609217734E+00   -6.5390291235291640E+00
Cs    5.3292112059057093E+00    9.5429093382264163E-01   -1.0193795337470155E+00
Cs    7.0406961754031467E+00   -4.6450122697617546E+00    3.9151956423439893E-01
Cs    8.6387467220149787E+00   -9.0745539596468543E+00    1.7132899213595734E+00
Cs    4.2108358634355580E+00    4.2151987323742475E+00   -1.2022451090979203E+01
Cs   -6.2165859447878429E+00    4.9638200054035275E+00    5.1232804303749688E+00
Cs   -5.6182152759084243E+00   -8.3422324277933946E+00   -9.5560850440395164E+00
Cs    5.1998485276480455E+00    6.6244400983830705E+00   -1.5517071584710564E+00
Cs    6.7973431955292805E+00    2.2515784633250462E+00    4.5003637065472484E+00
Cs    7.0925287379036881E+00   -3.2757763160246385E+00    6.5083739777036751E+00
Cs   -7.8979090559637264E+00    1.0450412681537024E+01   -1.1891268054546347E+00
Cs    1.2079270650254282E+01    1.9918417408295186E+00   -9.8887798569946728E-01
Cs   -5.7133950438016043E+00   -1.2575762258307057E+00    3.2493923891946680E-01
Cs   -1.2388086509177649E+01    5.4878887396942719E+00    4.7093968922292246E+00
Cs   -4.7515936896904689E+00    1.5257986171825801E+00    1.1221937727126388E+01
Cs    4.8360508284382746E+00    1.3355086060696449E+01    2.9235981405076132E+00
Cs    5.8139362011473130E+00    8.1068498776093545E+00    4.4888726840616151E+00
Cs    6.1020282557257293E+00    3.1603803073103860E+00    9.9229430163082384E+00
Cs    3.6051127215217718E+00    1.1911635482685170E+01   -2.3565161086254514E+00
Cs    1.0687085417877592E+01    1.1478904612288940E+00   -6.4700104321802252E+00
Cs    1.2168516183742463E+01   -5.1626008997021229E+00   -6.2577866889929838E+00
Cs    8.5858315778561991E+00   -7.5985117472149044E+00    1.3126763737082962E+01
Cs    7.9036652078955782E+00    1.3062114066064430E+01   -3.3389351263905991E+00
Cs   -1.0630027063442325E+01    2.3528409933639108E-01    1.1892833988589075E+01
Cs   -6.8242755588855255E+00    2.6145482206557453E+00   -1.2019404973220915E+01
Cs   -1.2315001467525112E+01    9.5074451484538418E+00   -1.4273224913636355E+00
Cs   -3.2836632974640816E+00   -3.8048284069241718E+00    1.2535282432995155E+01
Cs    2.1572894700701482E+00   -8.2973204878723230E+00    1.4612303477362406E+01
Cs    6.6853955128496585E+00    9.0689566302453759E+00    9.8613086106284964E+00
Cs    1.2970014702701453E+01   -2.9642710644366250E+00    7.0490974956176000E-01
Cs   -1.0752161691485851E+01   -2.2963426186259017E+00    1.4301623368272678E+00
Cs   -8.5900055895117173E+00    8.0721252277680744E+00   -1.3282126535803824E+01
Cs   -1.1602703689479895E+01    4.0335499536931883E+00   -5.1184056252680377E-01
Cs   -9.9802805160096586E+00   -1.4267211876563195E+01   -2.7105284610793459E+00
Cs   -1.0295683008047215E+01   -7.3980549208412363E+00    2.6867207214775908E+00
Cs   -4.9362985903608321E+00   -6.5097429818771690E+00    1.8525050254882629E+00
Cs   -9.2750517855992385E+00   -1.1353526152648444E+01    8.8758173649542975E+00
Cs    1.1847431644162093E+01   -1.6445483462314139E+00    1.2244749019052254E+01
Cs    1.1570570470194228E+01    9.1633846104545018E+00    2.9450904632843455E+00
Cs   -1.2379556470875469E+01    2.4121546474860134E+00   -6.5009235305234263E+00
Cs   -5.8911346144427732E+00   -1.8874742148614532E+00   -5.1723250247670771E+00
Cs   -9.1392596796196237E+00   -1.3394801703468843E+01    2.9597262340070736E+00
Cs    9.3540847451133011E+00   -6.9216490278641807E+00   -1.2334780161918045E+01
Cs   -4.4698127925504476E+00   -1.4350505586599073E+01   -8.5642361858719109E+00
Cs   -2.6205288424376265E+00    8.4314218798619223E+00   -1.3465612967769919E+01
Cs    9.2850997386628298E-01   -1.3488605287592751E+01   -8.2859222621839166E+00
Cs   -2.8114433711036479E+00    1.0544495285530527E+01   -7.9354758732224333E+00
Cs   -7.4982877021034238E+00    1.2487565538474497E+01    8.9601172537242650E+00
Cs    2.3081061541040144E+00   -1.2164719317563012E+01    2.8108474309003593E+00
Cs   -1.2325484718335050E+01   -3.7087868385776761E+00   -9.9257623277096645E+00
Cs   -1.3276347512502868E+01    1.0022954520180390E+01    4.1696010559298280E+00
Cs    7.0564964626870221E+00   -1.0997925081742626E+01   -4.8402506070216926E+00
Cs    1.1107823085627013E+01   -1.0250232842022318E+00   -1.1901319997215046E+01
Cs   -1.8635170057388435E+00    1.2963179696072148E+01    8.5673635175237344E+00
Pb    3.2653016879072547E+00   -3.0055881120178167E+00   -2.3743186369426432E+00
Pb    4.4463131585829432E+00   -8.4685991097837245E+00   -1.4997469643959802E+00
Pb   -7.8398549016870263E+00   -4.0757575658595098E+00    4.5061628531239553E+00
Pb   -1.5473457286132200E+00   -1.0050472633457913E+01   -9.5218009163870376E-01
Pb    8.2207990474994641E-01    8.6690488603880667E+00   -4.5805570612313247E+00
Pb    1.7314660433918740E+00    2.7404557312154876E+00   -3.6467049589331024E+00
Pb    3.8579544633586367E+00   -2.0938747318188913E+00    3.2012237062215343E+00
Pb    5.3358583256133967E+00   -7.6631231847500647E+00    4.4803517537339888E+00
Pb   -3.9513911895497227E+00    8.5615929967571187E+00    1.1177382452702282E+00
Pb    1.8935880208667160E+00    9.5995290722992959E+00    1.0487194347686111E+00
Pb    3.1028374543154231E+00    3.5971642896140295E+00    2.3680334047240952E+00
Pb    4.2436530391601606E+00   -6.7989806554455845E-01    9.0389295634751150E+00
Pb    5.4036867465055662E+00   -6.4552705734354463E+00    1.0438712247308940E+01
Pb   -3.0546811324167709E+00    2.9044690384294083E+00    2.5520796911729455E+00
Pb    2.0482899338864171E+00    1.0860916536856401E+01    7.0112560668078059E+00
Pb    3.3383639317550946E+00    5.1707106336772881E+00    8.0417052641448805E+00
Pb   -1.4138979854329243E+00   -1.6307866842320782E+00    9.7148565411045009E+00
Pb   -6.3932145909068412E+00   -9.8708258293289841E+00    5.4092990892852022E+00
Pb   -9.7901334220363587E+00    5.8746401736153897E-01   -2.8398079303191968E+00
Pb   -3.6190591158777718E+00   -4.7795638494838197E+00   -8.0024126542827787E+00
Pb   -5.3168533365020565E-01   -8.5138913582615299E+00    4.9021811766459864E+00
Pb   -5.0438487118395914E+00    7.2214666372421714E+00   -4.6414645650247550E+00
Pb   -7.8676650074949461E-01   -7.5914353180185374E+00    1.0963685137704779E+01
Pb   -8.6533065999500653E+00   -5.1263364549155988E+00   -1.3273897410117377E+00
Pb   -7.1106372546300198E+00   -1.0675128369537063E+01   -7.6654044573553926E-01
Pb   -3.9705354749332762E+00    1.6834773597201174E+00   -3.1445818174044327E+00
Pb   -6.9828223146036548E+00   -8.2208769009665303E+00    1.1609409380763720E+01
Pb   -9.2218500007876756E+00   -6.3004396990415454E+00   -7.3838079432950590E+00
Pb    8.5047132532268090E+00   -3.4769200243798575E+00   -9.0438990608830316E+00
Pb    9.6820086289935823E+00   -9.2910546438202921E+00   -8.3695274775431514E+00
Pb   -2.3608707058766769E+00   -1.0803340305419436E+01   -6.9699357421800254E+00
Pb   -1.1279735761322728E+01    5.6175538942152734E+00   -1.0279350228596178E+01
Pb    2.4155148829120807E+00   -3.9159598141211451E+00   -8.5220357431380815E+00
Pb    3.4482362530850299E+00   -9.6550679760547791E+00   -7.6076847554525546E+00
Pb   -3.8708749083454883E+00    9.1370398675132380E-01   -8.8118622608499724E+00
Pb    5.3490040499720415E-01    7.3829817941457909E+00   -1.0197136564820767E+01
Pb    1.6744187815554155E+00    1.7959843799556914E+00   -9.4124769917573889E+00
Pb    9.2346526261859037E+00   -1.7349428445399366E+00   -3.2420591424855361E+00
Pb    1.0388540649979639E+01   -7.6725479216439494E+00   -2.5388219301560815E+00
Pb   -7.2432440560041531E+00   -2.7754305482330333E+00    1.0109299428591010E+01
Pb    6.2231352733859637E+00    8.4461562537936157E+00   -1.1240846086873953E+01
Pb   -9.4334142137536379E+00   -4.3825288702109377E-01   -8.5028916633405647E+00
Pb   -3.9269109077312301E+00    9.7416209185873992E+00    6.6578563056988402E+00
Pb    6.4077900283578897E+00    1.0007721553697438E+01   -5.4805033594904042E+00
Pb    7.7922740147251597E+00    3.9516375316376222E+00   -4.6159035786550175E+00
Pb    9.4586597217809860E+00   -5.3555337651318524E-01    2.5975570785962487E+00
Pb    1.1225840539832221E+01   -6.4038449892635176E+00    3.7640060578247345E+00
Pb    7.7256304379082952E+00    2.5652573658771085E+00   -1.0313543099739944E+01
Pb   -2.8637122673874740E+00    4.2302963891713059E+00    8.3382451991309541E+00
Pb    7.4270165879221084E+00    1.0595052921761251E+01    2.1873109955008224E-01
Pb    8.7581543934178860E+00    5.0580871066221116E+00    1.5853705131024614E+00
Pb    1.0004383693250073E+01    4.9180574027691892E-01    8.2215152624978103E+00
Pb    1.1379645095860624E+01   -5.2088988587822742E+00    9.8609981659497610E+00
Pb    7.8234818217102946E+00    1.1535487084707471E+01    6.2713045530648879E+00
Pb    9.1968074698752069E+00    6.0297121553560098E+00    7.1329680281202412E+00
Pb   -8.9039429675743893E+00    2.8583838176975100E+00    8.9446632793694008E+00
Pb   -2.0332580662775861E+00   -2.6678588856104946E+00    3.8769744747139159E+00
Pb   -9.8930954879750406E+00    8.0801395372388214E+00    1.5357603419497952E+00
Pb   -1.0546228270455845E+01    6.2921689200943245E+00   -4.0977794227076778E+00
Pb   -8.1010341586435466E+00   -1.2088041705226358E+01   -6.5339131194524676E+00
Pb   -5.3773193123697833E+00    6.7370915846119503E+00   -1.0480108984389735E+01
Pb   -8.9049955433185275E+00    1.9461683711130424E+00    3.2904360463135682E+00
Pb   -9.8563908326636884E+00    8.5607360221060969E+00    7.4609658550183040E+00
Pb   -2.6390632743220692E+00   -4.0782888891150950E+00   -2.1119742444165714E+00
Br    2.9200514062965988E-01   -3.4884182912612998E+00   -2.6996261285070946E+00
Br    3.1088382015508031E+00   -3.4933101440144227E+00   -5.6365286135930726E+00
Br    2.5453022723471128E+00    2.5590524027359982E-02   -2.7986720391864974E+00
Br    1.3741213844943301E+00   -8.6921567738963770E+00   -1.1947490710043858E+00
Br    3.7967875090173719E+00   -9.0801873868851111E+00   -4.4664722485518000E+00
Br    4.2502482258723129E+00   -5.7466263767657484E+00   -2.6999266771720483E+00
Br   -3.4512016192134101E+00   -4.3415686657267107E+00   -5.2365872271332083E+00
Br   -7.7697110881510190E+00   -3.3609941286953045E+00    7.3269848815140355E+00
Br   -3.0821401656957539E+00   -1.0848759535018302E+00   -3.1543186627271655E+00
Br    3.8000157970298973E+00   -1.1272126997299617E+01   -1.1228879709711475E+00
Br    1.2665927545801900E+01    6.7829283739605145E-02    2.0234055300610607E+00
Br   -4.2315583204296994E+00   -1.0814180031717552E+01   -6.7732707942599613E-01
Br   -1.0612270758033205E+01   -4.3134781212248852E+00    4.5605736840800493E+00
Br   -8.1209027999668866E+00   -4.9031938788018312E+00    1.7736051542143725E+00
Br    1.4069020678597411E+01   -6.0927388128350755E+00    3.7394829325250911E+00
Br   -2.1444153581366243E+00    8.2554243320468306E+00   -4.6107611247449762E+00
Br    5.4244346083433959E-01    7.4818418560550608E+00   -7.1896007150009371E+00
Br    2.7943957301579875E-01    1.0904779066321948E+01   -6.1644380006977553E+00
Br   -1.2009251314647542E+00    2.0731024912064568E+00   -3.2549291682289696E+00
Br    1.6543114700502584E+00    2.2803470510447150E+00   -6.4993588886439637E+00
Br    1.2245137800335526E+00    5.4243204776185658E+00   -3.9542790806367534E+00
Br    1.0980394765750630E+00   -2.3951853734289190E+00    3.3594938423179581E+00
Br    2.9336340328764505E+00   -3.0090561655255281E+00    4.8345843868897420E-01
Br    3.1705903408542810E+00    8.9301285400086072E-01    2.6808533943421509E+00
Br    2.5632255513644693E+00   -8.0999301265113033E+00    4.2809937197080759E+00
Br    5.2227672875207976E+00   -7.5568394271116315E+00    1.3001416981525622E+00
Br    4.7218430760402050E+00   -4.6995305419330968E+00    3.8888711539003702E+00
Br   -7.9600637364774416E+00    6.0465089957440448E+00   -9.7983128837073448E+00
Br   -5.5158901625470680E+00    6.1759799408861733E+00   -1.3424041650403211E+01
Br    6.1758840626931821E+00   -1.0613979134641010E+01    4.5716959523999927E+00
Br   -5.9703112825546132E+00    9.3481535248999155E+00   -1.0730317133922014E+01
Br   -4.4515626674982274E+00    3.7983187944057395E+00   -9.7655039643373023E+00
Br   -7.6528060970168204E+00   -1.2263015197306835E+00    3.7157941695757724E+00
Br   -1.6533860511354970E+00   -1.0457827488709663E+01   -3.8065795879562239E+00
Br   -7.0853587866764904E+00    7.7974904005080079E+00    1.3347281631713042E+00
Br   -5.0221101066163278E+00    7.9998067363545360E+00   -1.8881699230274174E+00
Br   -4.5342065192835088E+00    1.1402426216626459E+01    1.7999380141528967E-01
Br   -1.2637857176853939E+00    9.1832526291987921E+00    1.1858548954734387E+00
Br    1.6375192489288204E+00    9.2753608338980982E+00   -1.8482009547769638E+00
Br    1.1222953283610773E+00    1.2294042297932135E+01    1.1021270493923192E-01
Br   -1.6129060618976326E-01    3.4852447489188982E+00    2.9597087423637385E+00
Br    2.3794419252836772E+00    2.9730223982859982E+00   -6.5651924778649062E-01
Br    2.4740760039536824E+00    6.6829215090416865E+00    1.4739525441912358E+00
Br    1.2136133279815664E+00   -9.0109225573368457E-01    1.0023989184378694E+01
Br    3.8583594787694606E+00   -1.8712045842537459E+00    6.1238119761857543E+00
Br    3.4578087515014975E+00    1.8875255962884696E+00    8.8928178827011450E+00
Br    2.7455739438393842E+00   -7.1757707629034497E+00    1.1600917991853628E+01
Br    5.7459266421598159E+00   -7.8438729473444253E+00    7.4039085603281141E+00
Br    4.6514730941199485E+00   -3.4424145601204761E+00    9.7308746464176021E+00
Br   -1.1682888107525173E+01    1.2068164075236050E+00    4.0969628182797369E+00
Br   -9.5603524080082369E+00    1.1249876694629668E+00    5.6956201832611508E-01
Br    6.0842190636223297E+00   -9.1303106234623339E+00    1.1099362853766589E+01
Br   -9.3485449604592503E+00    4.4869973680395754E+00    2.2619927065008465E+00
Br   -7.5324372772888291E+00    2.6912805859832089E-02    9.5242062204323474E+00
Br   -2.3237302554559234E+00   -6.8340307043155581E+00   -2.4845217957615153E+00
Br   -5.9735365876033537E+00    1.8032809656152127E+00    2.6939506572866616E+00
Br   -3.4760458074782346E+00    1.4500465581518509E+00   -2.1673890951942226E-01
Br   -3.2299641061117463E+00    5.5597081173784249E+00    1.2437044834215341E+00
Br   -1.0862813647690053E+00    1.0292062221605914E+01    6.6035812506561529E+00
Br    2.3744348966173376E+00    1.0777026452836450E+01    3.7860317052549632E+00
Br    1.4681310892224977E+00    1.3472153481912807E+01    6.6863444005532129E+00
Br    5.4132043280003883E-01    4.4242245976989398E+00    8.4012602131402012E+00
Br    3.2143869801589249E+00    4.0715846860098353E+00    5.2272146105060786E+00
Br    2.0410207082406915E+00    7.7561531462054711E+00    7.7679849598180208E+00
Br   -4.2848325463099766E+00   -2.1564484120889937E+00    9.6442954543815809E+00
Br    5.1155539264034431E+00    1.1670797007028146E-01    1.1980975652567421E+01
Br   -1.6972405949859655E+00   -2.5434063333889432E+00    6.8220751027314979E+00
Br   -2.1979244873944834E+00    1.3190625819121586E+00    8.6714578657942738E+00
Br   -6.0255859632176700E-01   -1.2818351334319800E+01   -8.3181371315841901E-01
Br    5.9550728690095642E+00   -5.5333732467437562E+00    1.3190080444773095E+01
Br   -1.2565511530677162E+01    4.4173273390730555E-01   -3.4855391359599905E+00
Br   -1.0495990914646609E+00   -1.1188519518493766E+01    5.7250005961902719E+00
Br   -1.1517723307473032E+01   -5.2176728306734397E+00   -8.4809821290959597E-01
Br    7.5128692903149863E-01    1.0914733914381401E+01    9.7496595079219688E+00
Br   -9.1529911315162913E+00   -5.5006238300529153E+00   -4.3565798946674139E+00
Br   -9.6298432729878236E+00   -2.4706800986087205E+00   -1.9253266530419273E+00
Br    3.6221646956060556E+00    5.6620375143562942E+00    1.0799438591041850E+01
Br   -7.7383607237175172E+00    6.1385778713929362E+00   -4.3014790464070600E+00
Br   -5.3229910009721815E+00    6.4290838236746612E+00   -7.4821922427111289E+00
Br   -5.7176845047182621E+00    1.0132150928760961E+01   -5.5805566162453824E+00
Br   -7.0195698776361510E+00    8.7464031628652650E-01   -2.8642110501393434E+00
Br   -9.1705008479151378E+00   -1.1343084669906805E+01    5.7911708725505235E+00
Br   -4.5042425858836506E+00    1.8765108386110874E+00   -6.0972908222232940E+00
Br   -6.3970382580760230E+00   -5.8084653094643945E+00   -7.5641894142484007E+00
Br   -3.8834251763048906E+00   -5.1967086950427186E+00   -1.0839274730092686E+01
Br   -2.9730014552236526E+00   -1.8550431264257550E+00   -8.0640492988479711E+00
Br   -2.6760305043718917E+00    5.2055101582207053E+00    1.0898802952903525E+01
Br   -3.7235324444930060E+00   -7.8219902454755497E+00    1.1039631170551306E+01
Br   -2.5315938956463113E-01   -8.0064750341097284E+00    7.7153873566850448E+00
Br   -4.7859188616590104E-01   -4.8436650620073287E+00    9.7767813940135255E+00
Br   -6.9066051380451281E+00   -9.9464993483776869E+00    2.8125035468449244E+00
Br   -7.2929900582855485E+00   -6.9990957010831902E+00    5.3479731475778554E+00
Br   -9.2556220842320531E+00    9.9380617468015249E+00    9.6366996506484544E+00
Br    1.0310691377629418E+01    1.0676347538961149E+01   -4.5720682087431824E-02
Br   -5.6819132150156495E+00   -6.0227475974313736E+00    1.3821356461298199E+01
Br    8.9359543272844881E+00    1.1243118497645195E+01   -6.6373498177302013E+00
Br    1.1559344063475905E+01    5.7507205620758803E+00    5.1109934765916598E-01
Br   -8.1954301138660561E+00    2.8446315929169996E+00    1.2555705061246270E+01
Br   -1.1976360527959853E+01   -6.5692208929691747E+00   -6.7592840734988160E+00
Br    1.2671109706723117E+01    1.1576577122014609E+00    7.5911764332881697E+00
Br   -3.8271830990089812E+00   -9.0459904390211641E+00    5.7945861865658541E+00
Br    5.3580130742313363E+00   -3.5899728650888036E+00   -8.9307231784525154E+00
Br    9.0015319275993004E+00   -3.6284157047647296E+00   -1.1765062683618794E+01
Br    1.3966850427197700E+01   -5.2882157416413182E+00    9.4234239906605914E+00
Br    7.6713853495289976E+00   -5.1187132854849293E-01   -1.0161584163103441E+01
Br   -6.3828030546814052E+00   -1.0607133428974041E+01    1.2989061414472728E+01
Br   -1.5193589996994017E+00   -9.0091853811633715E+00    2.1053543231922842E+00
Br   -9.7488735989167286E-01   -5.5469978456941158E+00    4.2511914371591839E+00
Br    6.3554161189115046E+00   -9.2190265943414627E+00   -7.8015540827895036E+00
Br   -5.2342707319112094E+00   -1.1228652690838549E+01   -7.0566477453768091E+00
Br    7.5833101871356003E+00   -9.6799749359865856E+00   -1.1931024892592310E+01
Br    8.6712047447331262E+00   -6.7089117283140602E+00   -8.9065415818691758E+00
Br    3.8416808414776044E-02   -1.0299354629991795E+01    1.0932862801096247E+01