 # Version information for this restart file 
 # current date 2021-06-17 12:42:26.054
 # current working dir /user/ub2042/exercises/2_fitting/MM_MD_workdir/md_settings.004
 # Program compiled at                              Thu Apr 22 21:44:59 EDT 2021
 # Program compiled on                cpn-k07-07-02.compute.cbls.ccr.buffalo.edu
 # Program compiled for                                                    local
 # Source code revision number                                       git:36754bb
 &GLOBAL
   PRINT_LEVEL  LOW
   PROJECT_NAME cp2k
   RUN_TYPE  MD
 &END GLOBAL
 &MOTION
   &MD
     ENSEMBLE  NVT
     STEPS  10000
     TIMESTEP     2.4999999999999996E+00
     STEP_START_VAL  4000
     TIME_START_VAL     1.0000000000000160E+04
     ECONS_START_VAL    -1.4028929475949734E+01
     TEMPERATURE     3.0000000000000000E+02
     &BAROSTAT
       PRESSURE     1.0100000000000000E+00
       TIMECON     9.9999999999999982E+03
     &END BAROSTAT
     &THERMOSTAT
       TYPE  CSVR
       &CSVR
         TIMECON     9.9999999999999982E+03
         &THERMOSTAT_ENERGY
              -1.2088878867682690E-01
         &END THERMOSTAT_ENERGY
         &RNG_INIT
Wiener process for Thermostat # 1        1 F T F  -1.2979613312884362E+00        1825527127.0        2808732464.0        4063912891.0        4257845861.0        1604363975.0        1268783381.0             12345.0             12345.0             12345.0             12345.0             12345.0             12345.0             12345.0             12345.0             12345.0             12345.0             12345.0             12345.0
         &END RNG_INIT
       &END CSVR
     &END THERMOSTAT
     &AVERAGES  T
       &RESTART_AVERAGES
         ITIMES_START  1
         AVECPU     1.7459910750971214E-02
         AVEHUGONIOT     0.0000000000000000E+00
         AVETEMP_BARO     0.0000000000000000E+00
         AVEPOT    -1.4433882349301584E+01
         AVEKIN     4.6171272292173943E-01
         AVETEMP     2.3421232532196316E+02
         AVEKIN_QM     0.0000000000000000E+00
         AVETEMP_QM     0.0000000000000000E+00
         AVEVOL     6.7483345830905447E+06
         AVECELL_A     1.8897261328855768E+02
         AVECELL_B     1.8897261328855768E+02
         AVECELL_C     1.8897261328855768E+02
         AVEALPHA     9.0000000000000000E+01
         AVEBETA     9.0000000000000000E+01
         AVEGAMMA     9.0000000000000000E+01
         AVE_ECONS    -4.0662138492575970E+00
         AVE_PRESS     0.0000000000000000E+00
         AVE_PXX     0.0000000000000000E+00
       &END RESTART_AVERAGES
     &END AVERAGES
     &PRINT
       &ENERGY  SILENT
         &EACH
           MD  10
         &END EACH
       &END ENERGY
     &END PRINT
   &END MD
   &PRINT
     &TRAJECTORY  SILENT
       &EACH
         MD  10
       &END EACH
     &END TRAJECTORY
     &CELL  SILENT
       &EACH
         MD  10
       &END EACH
     &END CELL
     &VELOCITIES  SILENT
       &EACH
         MD  10
       &END EACH
     &END VELOCITIES
     &FORCES  SILENT
       &EACH
         MD  10
       &END EACH
     &END FORCES
     &RESTART  SILENT
       &EACH
         MD  10
       &END EACH
     &END RESTART
   &END PRINT
 &END MOTION
 &FORCE_EVAL
   METHOD  FIST
   &MM
     &FORCEFIELD
       VDW_SCALE14     1.0000000000000000E+00
       EI_SCALE14     1.0000000000000000E+00
       SHIFT_CUTOFF  T
       DO_NONBONDED  T
       IGNORE_MISSING_CRITICAL_PARAMS  T
       &SPLINE
         R0_NB     2.5000000000000000E-01
       &END SPLINE
       &NONBONDED
         &LENNARD-JONES
           ATOMS Br Br
           EPSILON     1.2630795322675199E+02
           SIGMA     3.6900000000000004E+00
         &END LENNARD-JONES
         &LENNARD-JONES
           ATOMS Cs Pb
           EPSILON     8.6920055954630968E+01
           SIGMA     3.6699999999999999E+00
         &END LENNARD-JONES
         &LENNARD-JONES
           ATOMS Cs Cs
           EPSILON     2.2644852172126850E+01
           SIGMA     4.3300000000000001E+00
         &END LENNARD-JONES
         &LENNARD-JONES
           ATOMS Pb Pb
           EPSILON     3.3363415533600227E+02
           SIGMA     5.9000000000000004E+00
         &END LENNARD-JONES
         &LENNARD-JONES
           ATOMS Br Cs
           EPSILON     5.3481070753900497E+01
           SIGMA     3.6300000000000003E+00
         &END LENNARD-JONES
         &LENNARD-JONES
           ATOMS Br Pb
           EPSILON     2.0528187276773045E+02
           SIGMA     2.9800000000000000E+00
         &END LENNARD-JONES
       &END NONBONDED
       &CHARGE
         ATOM Cs
         CHARGE     4.1739999999999999E-01
       &END CHARGE
       &CHARGE
         ATOM Pb
         CHARGE     8.3479999999999999E-01
       &END CHARGE
       &CHARGE
         ATOM Br
         CHARGE    -4.1739999999999999E-01
       &END CHARGE
     &END FORCEFIELD
     &POISSON
       PERIODIC  XYZ
       &EWALD
         EWALD_TYPE  SPME
         GMAX  62 62 62
         O_SPLINE  4
       &END EWALD
     &END POISSON
     &PRINT
       &FF_INFO  LOW
         SPLINE_INFO  F
         SPLINE_DATA  F
       &END FF_INFO
     &END PRINT
   &END MM
   &SUBSYS
     &CELL
       A     1.0000000000000001E+02    0.0000000000000000E+00    0.0000000000000000E+00
       B     0.0000000000000000E+00    1.0000000000000001E+02    0.0000000000000000E+00
       C     0.0000000000000000E+00    0.0000000000000000E+00    1.0000000000000001E+02
       PERIODIC  XYZ
       MULTIPLE_UNIT_CELL  1 1 1
     &END CELL
     &COORD
Cs   -6.1480188930270230E-01    2.2431508664465796E-01   -6.1134605865931881E+00
Cs    1.9902464930476599E-01   -7.2121699710298319E+00   -5.2825578976200918E+00
Cs    5.4978463529073718E-01   -1.2134091269117215E+01   -5.3332967186347453E+00
Cs   -5.6910189333465384E+00   -6.2969322174838931E+00   -5.8760746276246962E+00
Br   -7.7430964497800208E+00   -1.3136726779720188E+01   -7.2477239312879576E+00
Br    1.1910282670770480E+01   -3.0991974338969794E+00   -8.6464401906524966E+00
Br   -3.1209069150657851E+00    1.8285032752617583E+00   -1.2010882378979066E+01
Cs   -6.8745493930524082E-01    5.5871092550364851E+00   -6.5045392635629691E+00
Cs    1.8453439811928529E-01   -1.4559802946990666E-01    3.0226805978670357E-01
Cs    4.2029224722894892E-01   -5.8041466933950963E+00    1.2032306136045371E-02
Br   -5.5259615848883579E+00   -3.3643968732189928E+00    2.7094139427094674E+00
Cs   -9.9679935615723014E+00   -5.8400699818350761E+00    1.2721150631869198E+01
Cs    1.2568792736038825E+01   -1.0625868628786291E+01    8.8823038365110840E-01
Cs   -5.9903466410299853E+00    5.4883185761035316E+00   -2.7894525077774351E-01
Cs   -9.1636754982087554E-01    1.1758475514698839E+01   -1.3196578488456043E-01
Cs   -8.7957448462313292E-01    6.3427491741690920E+00   -4.6358528168712521E-01
Cs    3.2514957156984409E-02    2.2177857827789588E-01    5.7584164883231814E+00
Cs    1.3443664461979110E-01   -5.7992931376525050E+00    6.2242967277665198E+00
Cs    1.6656762951494788E+00   -1.0745202198513505E+01    6.4744505607901361E+00
Cs   -6.2369684372198329E+00    6.1341571266741441E+00    1.1631825764941201E+01
Cs   -6.4575265660955292E+00   -1.4805951806996198E+00   -1.0922931194185535E+01
Cs   -5.6282309264376069E+00   -1.1304686592801412E+01   -5.2761864705131440E+00
Cs   -5.9773080320000753E+00    4.7693083890243343E-01    5.5962303484453875E+00
Br   -2.4428380759609469E+00   -3.4634615796224821E+00    3.9051754271949742E-02
Cs   -1.2103690550426227E-01    6.0464927102296144E+00    5.4740822893366614E+00
Br    1.2032373429976428E+01   -7.9879902109218843E+00   -9.0742728556182151E+00
Cs   -5.2747211617714429E-01   -4.2311517137579457E+00    1.2728752040818978E+01
Br   -2.9259828227571121E+00   -2.0310970509203391E-01    2.5927468720496556E+00
Br   -8.4512644620983455E+00   -3.0435650201897597E+00    1.1951823665797557E+01
Cs    1.0547392250661234E+01    1.0777807572975444E+01   -6.9514778368855117E+00
Cs   -1.0648152406823870E+01   -6.2799768977126496E+00    6.0420176563571735E+00
Cs   -5.0364977022257094E+00   -5.9267890725190338E+00    6.4101140802285794E+00
Cs   -6.8880197799225273E+00    1.0274085958131124E+01   -6.7503769088096020E+00
Br   -1.0381994675225766E+01   -9.5795475868438356E+00    1.0415586858508316E+01
Br   -8.3556208218568564E+00   -8.8572610553161333E+00    6.9146296653210708E+00
Cs   -1.0991857656610724E+01   -7.1320120956633071E+00   -4.9526836081244410E+00
Cs   -6.4458720620013086E+00    4.5265988537836721E+00   -6.2301662512024940E+00
Br   -8.5409586715543320E+00   -5.9553426078385945E+00    9.4919227266078732E+00
Cs    1.1580133923346027E+01    7.1194925808695091E+00    1.1005081670699076E+01
Br   -1.1467254339515270E+01    9.9308378540472049E+00    8.7364218373946319E+00
Br   -5.5707603237476366E+00   -3.7392859645028516E+00   -3.1333625334877420E+00
Cs    6.3692466969728134E-01    1.0022340765295241E+00    1.0725220149958021E+01
Cs    1.1015480473207774E+01    6.7581730390343520E+00   -2.6252196614691015E-02
Cs   -1.1286728888269561E+01   -8.0019419998845844E+00   -1.0528435024504589E+01
Cs    1.1462672510751380E+01    1.1553247120188035E+00    5.4205174040768318E+00
Cs   -1.2723487816759496E+01    1.0753793473897881E+01   -6.6221116274290033E+00
Cs    1.2181847878380134E+01   -9.3630895683633373E+00    6.2005716529367323E+00
Cs    5.1238691736771091E+00   -6.1386063272497688E+00   -1.0329577552535337E+01
Cs    6.8099440781494325E+00   -1.0352632397283651E+01    5.9496743188026642E+00
Cs   -5.2976437092432418E+00   -1.1210821255334837E+01    1.1146861186382979E+00
Cs    5.9894722734677623E+00   -1.0884935896983329E+01   -1.1478933262816566E+01
Cs    1.1180049318620751E+01    6.1040210997600575E+00   -5.8593956562579086E+00
Cs    1.0999646133693766E+01    1.2331201626753485E+01    4.3785504069642149E+00
Cs    1.1145509718340158E+01    5.3137222281873449E+00   -1.1350696381443958E+01
Cs    3.8196175833421153E-01   -5.8749481377084036E+00   -1.0725604935137905E+01
Cs   -1.1983392649304033E+01   -8.5010036690473734E-01   -4.7913661254425310E+00
Cs    6.0730715046473520E+00   -5.1123716755247823E+00    1.2095780827662056E+01
Cs    1.2118994020601800E+01   -4.4381839485387449E+00    6.0162000757731748E+00
Cs   -8.8677687629462447E+00   -1.2699617673593561E+01    1.1524382634962580E+01
Cs   -6.4569925939025952E-01   -4.8403013173352449E-01   -1.1492609632494425E+01
Cs   -7.1527144324416175E-02    1.2043044393900914E+01    5.6599131215736822E+00
Cs   -3.5497889538490784E-01    4.6686854661067345E+00   -1.1772722162010572E+01
Cs    5.6757436730416444E+00    7.8665445112841570E-01   -6.3830784759945072E+00
Cs    6.0197230760082565E+00   -6.6614679571135573E+00   -5.2453115252926779E+00
Cs   -3.9146740940236202E+00   -1.0723824801417880E+01    6.7773854954564419E+00
Cs   -1.0551622783897066E+01   -1.1566239163270828E-01    5.9949081385925922E+00
Cs    4.8537389416495049E+00   -3.6801836155538520E-01   -1.1189951680125176E+01
Cs    5.6831013837056474E+00    1.1724922632617176E+01   -1.0824592889239637E+01
Cs    2.0865814873843008E-01    6.7987841093674382E+00    1.0395805698161046E+01
Cs   -5.5901556126131471E+00    1.2036440305356766E+01    5.6049880645852825E+00
Cs    4.8037807482631099E+00    1.1701724029018727E+01   -5.2775623886355127E+00
Cs    5.1212900610139629E+00    5.9101496773701960E+00   -6.2384291223929749E+00
Cs    5.7939138824010721E+00   -3.6746955150087446E-01   -3.4910077496968939E-01
Cs    7.1883419887614757E+00   -5.2333700449651070E+00    2.4636554839147945E-01
Cs    7.3380795240025236E+00   -1.1015007098447390E+01    4.6208531306829398E-01
Cs    6.1699363687347182E+00    5.1216224668660839E+00   -1.1902268549687768E+01
Cs   -5.8711355884289347E+00    6.1643795614074506E+00    5.8680568512604045E+00
Cs   -6.0214689794247427E+00   -6.7390249716575381E+00   -1.1121011472562321E+01
Cs    5.3282663935386232E+00    5.9801995513535466E+00    1.1198601250530264E-01
Cs    5.6117234731269079E+00    5.5524347459926437E-01    5.1240239131576768E+00
Cs    6.4302315066371056E+00   -4.8122269802055673E+00    6.5282299671004118E+00
Cs   -6.0266132883022498E+00    1.1506649612157709E+01   -8.3651784065308854E-01
Cs    1.2160613504375894E+01   -1.7213650241103585E-02   -9.5576102620228837E-02
Cs   -6.0723409690762651E+00   -2.1564355237194160E-01    1.3276618551984870E-02
Cs   -1.1632394616155439E+01    5.2718232433478018E+00    5.6307079193589802E+00
Cs   -4.9650028316163679E+00    1.0945569129413115E+00    1.1949550159553935E+01
Cs    6.4618243677236675E+00    1.2314544394892931E+01    5.2488832219355768E+00
Cs    5.0287823213219278E+00    6.6660369093101437E+00    4.6814500898131195E+00
Cs    7.4019857250827101E+00    1.0964676498841448E+00    1.1462329751782331E+01
Cs    4.2722023079029725E+00    1.1836692235217592E+01   -1.3532902074316093E+00
Cs    1.1585875783842930E+01    5.4245171816582949E-01   -5.9705393929429169E+00
Cs    1.1785572364015163E+01   -5.7499999639529342E+00   -5.7957885595726077E+00
Cs    7.0192526489690641E+00   -1.0293832996445584E+01    1.1314988086460183E+01
Cs    1.0966563497581234E+01    1.1511758675527767E+01   -1.7948352591984009E+00
Cs   -1.0863384648530914E+01    6.2428638672323726E-02    1.1442585451018525E+01
Cs   -7.2100512663453165E+00    5.0089925947202945E+00   -1.1764702418859036E+01
Cs   -1.2750068812258563E+01    9.1988631365031175E+00   -1.0206696542889618E-01
Cs   -5.4455337651724607E+00   -4.7929785345009508E+00    1.1858709421058080E+01
Cs   -4.0564499430646181E+00   -1.0262862184531478E+01    1.2473009781617087E+01
Cs    5.6428277572037784E+00    7.1859162286039311E+00    1.0816014226577243E+01
Cs    1.1404013708051130E+01   -5.1553627698496696E+00    1.6417509521765884E-02
Cs   -1.1078683081356493E+01   -4.0107075111496582E-01    6.7766338147690186E-01
Cs   -9.6582439179971011E+00    1.0198049763107466E+01   -1.2933571110623566E+01
Cs   -1.1423940225718070E+01    5.3184492792379672E+00    2.1737051074007921E-01
Cs   -1.1127427826413719E+01   -1.3721158423034344E+01   -5.4727203856726430E+00
Cs   -1.0171075490659481E+01   -6.3195305239482256E+00    1.1304221461565054E+00
Cs   -5.3281265007716083E+00   -6.1781015845745237E+00   -2.4430879894400920E-01
Cs   -1.1817667575589073E+01   -1.0086093045774872E+01    7.2417132955643444E+00
Cs    1.1228622789872862E+01   -4.7676899994984296E+00    1.1820315571878080E+01
Cs    1.1400995723360593E+01    7.0378064174352399E+00    5.3150295435291186E+00
Cs   -1.2797099396362022E+01    4.3589402800109935E+00   -7.4924584312709479E+00
Cs   -5.6883865932691720E+00   -1.2772247100107075E+00   -5.7168845699531277E+00
Cs   -1.1133231457339210E+01   -1.0955152486825133E+01    9.6036433968597279E-01
Cs    1.0829598749287669E+01   -5.5485734489416041E+00   -1.1063287108179573E+01
Cs   -6.8906336403611066E+00   -1.3244610521578583E+01   -1.0623675373463595E+01
Cs   -1.2731140973560209E+00    1.0013109671703681E+01   -1.2449513000813408E+01
Cs   -2.2963787549168060E-01   -1.1693634562625363E+01   -1.0953244542330989E+01
Cs   -1.1466002189097591E+00    1.0666166437607714E+01   -6.5301605262195741E+00
Cs   -6.4768922923062258E+00    1.1418264509640675E+01    1.1586279809083223E+01
Cs    6.5054770745937707E-01   -1.1386576629695586E+01    1.4484083748120438E+00
Cs   -1.2599892830138755E+01   -1.1721636303771306E+00   -1.0766751120016435E+01
Cs   -1.0677061342548182E+01    1.1920881808086511E+01    5.5760867506691909E+00
Cs    8.1133060107504686E+00   -1.2155601375759314E+01   -5.3341916673271621E+00
Cs    1.1503197712654581E+01   -4.3201993862842225E-01   -1.1360907014221684E+01
Cs    1.2350843753892378E+00    1.1600786577680058E+01    1.1433894218255174E+01
Pb    3.4172094673286471E+00   -3.4865991048141924E+00   -2.6632524394601109E+00
Pb    3.5751206032659915E+00   -9.7554413221026355E+00   -2.7996439019336621E+00
Pb   -8.4603524145616493E+00   -3.1821874320366890E+00    3.1211836612861168E+00
Pb   -2.4058668656382856E+00   -9.4465138335435750E+00   -2.4403083010586335E+00
Pb    2.1926693101987329E+00    8.5646218334973163E+00   -3.6091106571591332E+00
Pb    2.7618771587409747E+00    2.9508660540104343E+00   -3.5406104757001744E+00
Pb    3.0340575763744160E+00   -2.6069066676401813E+00    3.1456081515071745E+00
Pb    3.7416393761522193E+00   -8.3411660196500286E+00    2.9807063047304654E+00
Pb   -3.3392478298814963E+00    8.9684448644201780E+00    2.6939159402552266E+00
Pb    2.4556926168895195E+00    9.4307463475366475E+00    2.0802051750234778E+00
Pb    2.7783959590918448E+00    3.3323077869876414E+00    2.4727202169179976E+00
Pb    2.9735638864139204E+00   -2.1926243565194556E+00    8.9756024524870082E+00
Pb    4.0732580144377435E+00   -8.2119001292173088E+00    8.9323856315690513E+00
Pb   -2.9911732958252655E+00    2.9854443733296452E+00    2.6145296028962992E+00
Pb    3.0816349292808987E+00    9.6924832532721048E+00    7.7619605312248208E+00
Pb    2.9471620081254710E+00    3.8955929068680901E+00    8.3868562901064454E+00
Pb   -2.7636678524065075E+00   -2.2972835751393279E+00    8.8961666505396622E+00
Pb   -8.0726559233360788E+00   -9.0521183309599582E+00    4.0475662234264327E+00
Pb   -8.7067410735195416E+00    2.2485466548616557E+00   -3.0675787924556648E+00
Pb   -2.7957077023046950E+00   -3.5623739630382176E+00   -8.6863805859107703E+00
Pb   -2.0959737067654429E+00   -8.8437102667222476E+00    3.4884618975042678E+00
Pb   -3.7508688336237448E+00    8.4752557019499069E+00   -3.3905276919298672E+00
Pb   -1.5599760064225141E+00   -8.0055374929965240E+00    9.5743560148787523E+00
Pb   -8.4451668095804848E+00   -3.6723803756696283E+00   -3.0060547038363370E+00
Pb   -8.8022502311040043E+00   -9.6573598651437820E+00   -2.1379052185379823E+00
Pb   -3.0268217727908446E+00    2.3726959070047351E+00   -3.2217007564806441E+00
Pb   -7.6869407800021419E+00   -8.9309465291763086E+00    1.0092036558972390E+01
Pb   -9.1143294611944743E+00   -4.4285692838735189E+00   -8.8301899699841098E+00
Pb    8.8405049662314656E+00   -2.9379321415214417E+00   -8.6638666716080657E+00
Pb    9.1003641572576512E+00   -8.9765512324796486E+00   -8.6074743393334376E+00
Pb   -2.7686726047123487E+00   -9.7922846156807122E+00   -8.6732120627814435E+00
Pb   -9.9126649933869171E+00    7.9217893366330969E+00   -9.0133721716990962E+00
Pb    3.0465655530373086E+00   -3.2065611162102545E+00   -8.2158751572676749E+00
Pb    2.8859749716374843E+00   -9.2881345611671300E+00   -8.6200398640839779E+00
Pb   -3.4614560299399959E+00    2.1376084070338797E+00   -9.1594366417821931E+00
Pb    2.5503848181708348E+00    8.7844726267423745E+00   -9.5404027966795599E+00
Pb    2.4100667933102753E+00    2.5648675006626385E+00   -9.3255948950593766E+00
Pb    9.1032995617300880E+00   -2.4902364793835816E+00   -2.8923408174466063E+00
Pb    9.5037240408093009E+00   -8.4839162430418504E+00   -2.6259823798070419E+00
Pb   -8.5456961030459926E+00   -2.9422900582486653E+00    9.0351037461349470E+00
Pb    8.5039654278053813E+00    8.5944252448999148E+00   -9.6753082144490890E+00
Pb   -9.3888848393800277E+00    1.4423749259424599E+00   -8.9487885512867837E+00
Pb   -2.9436779611960167E+00    9.4429960183895592E+00    8.4088111092436826E+00
Pb    8.0852270183485953E+00    8.9525782126483939E+00   -3.6262799031294528E+00
Pb    9.2204152483125323E+00    3.4396439885961518E+00   -3.4261556333359588E+00
Pb    8.8846044999837552E+00   -2.1444610999948974E+00    3.0008195351357081E+00
Pb    9.5047105726977588E+00   -7.9713048807395488E+00    3.3236649340815063E+00
Pb    8.4332454187616150E+00    2.9412838547432116E+00   -8.9375858842548279E+00
Pb   -2.6104156886957712E+00    3.5401225904491014E+00    8.3686555345815119E+00
Pb    8.7226213734555635E+00    9.5614523227664225E+00    2.1002776411140101E+00
Pb    8.8520758016404066E+00    3.6758886994607134E+00    2.4378746374489682E+00
Pb    8.9749901318066847E+00   -1.9011805520701892E+00    8.9248669453518747E+00
Pb    9.7751717538446652E+00   -7.9180162028676833E+00    9.4140297877947994E+00
Pb    8.8211924702745588E+00    9.5577468609210534E+00    8.5106516809868484E+00
Pb    8.9775246000430258E+00    3.8850311557644694E+00    8.3707584897492442E+00
Pb   -8.5348410190827622E+00    3.0395289226270661E+00    8.9263072886390322E+00
Pb   -2.5683690727486925E+00   -3.0013034291250866E+00    2.8802497650345837E+00
Pb   -8.9891443722941187E+00    8.8787047005024125E+00    2.8961933387611309E+00
Pb   -9.6891576740883600E+00    7.9895296214732454E+00   -3.2373927715044708E+00
Pb   -8.5655600554185867E+00   -1.0408354444531618E+01   -8.2207732309457331E+00
Pb   -3.7099991111558843E+00    7.7653100326776912E+00   -9.3364781135508217E+00
Pb   -8.8775625904924471E+00    2.9488146185541901E+00    2.8139242354900316E+00
Pb   -8.6887606440115803E+00    8.7990834941363989E+00    8.9104259806919313E+00
Pb   -2.5555958624177260E+00   -3.5204064317306578E+00   -2.9926125951595943E+00
Br    3.9907679777129518E-01   -3.4743117086122046E+00   -2.7223899998727030E+00
Br    3.5503577274038736E+00   -4.0904284887095690E+00   -5.4646961833829311E+00
Br    3.3932596929826988E+00    8.0821404299214833E-02   -3.2909675119135384E+00
Br    4.6456658052289374E-01   -9.7262823012353099E+00   -2.8302225292421950E+00
Br    3.0242275715980544E+00   -9.6208454129357399E+00   -5.8255373458594208E+00
Br    2.8953798150657013E+00   -6.1149440943284441E+00   -2.4224868635280621E+00
Br   -3.2793068896197828E+00   -3.3671167584026311E+00   -5.8709437376401876E+00
Br   -8.6258454041812822E+00   -2.8425349725650872E+00    5.9957095304532713E+00
Br   -2.6027800548306046E+00   -3.4350398083136308E-01   -2.8002898007831409E+00
Br    3.8451635218082645E+00   -1.2351932316112975E+01   -2.5257570303903050E+00
Br    1.1789578623444442E+01   -2.0980212876072439E+00    2.8831574260148942E+00
Br   -5.7539223104214097E+00   -9.5822142356997446E+00   -1.9385640405735740E+00
Br   -1.1247629211459964E+01   -4.1353582101954069E+00    3.4404537662449948E+00
Br   -8.5744014598433047E+00   -3.3768338655465837E+00    5.6483723317206330E-02
Br    1.2433989421006777E+01   -7.6796541879321483E+00    3.8224461069285147E+00
Br   -1.0020703396233568E+00    8.5157855763899040E+00   -3.5593516860430303E+00
Br    2.3467130305260162E+00    8.1839592662510636E+00   -6.6691490885087550E+00
Br    1.8054829693175660E+00    1.1535288148135136E+01   -3.9552008721507792E+00
Br   -3.6285318604764027E-01    2.1880025000713905E+00   -4.0679765516178641E+00
Br    2.8607505462263090E+00    3.0924964206549865E+00   -6.4018800998529910E+00
Br    2.2197761549434230E+00    5.8052187028215805E+00   -3.7415038714891291E+00
Br    4.2346155946322445E-01   -3.0211732155182194E+00    2.6751429421570081E+00
Br    3.1985120743352131E+00   -2.7291311818568764E+00    1.3413661628313664E-01
Br    2.2885176388869413E+00    3.8082470816228198E-01    3.2277641030329458E+00
Br    8.0698651770231056E-01   -8.4056867709508847E+00    3.0479990206567140E+00
Br    3.0368457698158027E+00   -8.6494642114134734E+00   -6.0318485637632549E-02
Br    3.3928515727839481E+00   -5.5829933296546166E+00    2.8424824906579556E+00
Br   -6.9419191177190376E+00    7.7968260377774472E+00   -9.3461002526429695E+00
Br   -2.9967668162496768E+00    6.6436424044325300E+00   -1.1750653388446338E+01
Br    3.7245507478951403E+00   -1.1026927861392224E+01    3.6371425416271133E+00
Br   -3.9944158812877761E+00    1.0590972330362673E+01   -9.7663187474387438E+00
Br   -3.5271534648980980E+00    4.9895691007872172E+00   -8.7507029217818584E+00
Br   -8.7790684999275701E+00   -1.5094075788808831E-01    3.0124686831447782E+00
Br   -2.9966245870076058E+00   -9.1731941876538556E+00   -5.2753972477599858E+00
Br   -6.2650129629536213E+00    9.2952888724415050E+00    2.4409605144678883E+00
Br   -3.4569839102093387E+00    8.5470061814772382E+00   -3.2796877784172934E-01
Br   -3.3475253758724759E+00    1.1885158759598038E+01    2.2209885688221522E+00
Br   -5.0760763429112232E-01    8.8404532474152511E+00    2.1258329733907044E+00
Br    2.6261718175292854E+00    8.5129545028005111E+00   -7.6866216433511914E-01
Br    2.2224556038153622E+00    1.1951933497563699E+01    1.1503545841540135E+00
Br   -1.5780178401944503E-01    2.9330657208379591E+00    2.8150432040780431E+00
Br    2.7873294236407338E+00    2.7017369033098988E+00   -3.6896161892189694E-01
Br    2.8062435144236724E+00    6.3995750862659113E+00    2.1201433681808792E+00
Br   -1.0658729735048523E-02   -2.1904338786033519E+00    8.7411329365975927E+00
Br    2.9074450539452608E+00   -3.0681222498974887E+00    5.9260304323472139E+00
Br    2.8096273965819689E+00    8.3982994259886112E-01    8.4632196103708033E+00
Br    1.1426465482312675E+00   -8.5056798002646001E+00    8.7070757242396830E+00
Br    4.0381099958770452E+00   -7.5412812318111389E+00    5.9004298513262370E+00
Br    3.4241150223702124E+00   -5.0286119290659315E+00    9.7876316694861725E+00
Br   -1.1654960907416427E+01    2.5331865523304042E+00    2.6846282026239079E+00
Br   -8.6124178665988502E+00    2.8118534643421564E+00   -3.8373605243973451E-02
Br    4.7828404884615949E+00   -1.1236004879853192E+01    8.8393614227898958E+00
Br   -8.7943903338547678E+00    5.8832360237211789E+00    2.8957846530024547E+00
Br   -8.7444065269147906E+00    1.2803074953002927E-01    8.7631380229679756E+00
Br   -2.4058535674236294E+00   -6.5512252270867544E+00   -2.5050082322073211E+00
Br   -5.8763892763169929E+00    2.4770662738769418E+00    2.5644799322515719E+00
Br   -2.4730900784870258E+00    3.3380807813944471E+00   -3.4668810129051608E-01
Br   -3.8220450728842850E+00    5.7711077547387788E+00    3.0599182956549140E+00
Br    1.3542882851861296E-01    9.6345355582905245E+00    7.8622360383619032E+00
Br    3.1050384376771256E+00    9.8285820196154390E+00    4.8013711041264857E+00
Br    2.5748644347239340E+00    1.2449171574402271E+01    7.6355489131619256E+00
Br    1.7169158269439094E-01    3.4220059154557667E+00    7.5700480433937258E+00
Br    3.4779151639996253E+00    3.7826515587016241E+00    5.4004815045002887E+00
Br    2.6462819224215197E+00    6.8276958591800856E+00    7.3456123368232289E+00
Br   -5.6908167699469363E+00   -2.7774780335824945E+00    8.6849376001201115E+00
Br    2.1926949433732719E+00   -1.8698254718991860E+00    1.1566126099637476E+01
Br   -2.6156757795260983E+00   -2.4914699362415273E+00    5.8542257953313097E+00
Br   -2.8195850740473638E+00    7.5536880711608145E-01    9.4727215374188525E+00
Br   -2.6709822411523776E+00   -1.2363442788694226E+01   -2.5474809742040789E+00
Br    3.7853186180364293E+00   -8.9148245579860976E+00    1.1757326661858260E+01
Br   -1.1343204330796633E+01    1.6099957199272201E+00   -2.0085530229904305E+00
Br   -1.3565976872414687E+00   -1.1852307901358550E+01    4.4202570867437849E+00
Br   -1.1377349997079802E+01   -3.8483610589404149E+00   -3.2036254317643169E+00
Br    2.4567870791117494E+00    8.9390420138074429E+00    1.0954398791851638E+01
Br   -8.7472381602227163E+00   -3.9288686506520780E+00   -5.9975587456963249E+00
Br   -8.4378295330918398E+00   -6.7359854309173972E-01   -2.5352997576782124E+00
Br    2.0851135876356364E+00    4.1459494389151228E+00    1.1102541894579263E+01
Br   -6.7006619841615755E+00    8.5339437914094241E+00   -3.8150285291352244E+00
Br   -3.4414927122379169E+00    8.0476227395906079E+00   -6.3404000539377163E+00
Br   -4.0178567618846603E+00    1.1203070757506980E+01   -3.4832249913084432E+00
Br   -5.9058288466848508E+00    1.6431457907856368E+00   -2.8873261492979654E+00
Br   -1.1251314718134456E+01   -9.0495657848597766E+00    3.6102179629117792E+00
Br   -3.7003513414856517E+00    2.1332826255538135E+00   -6.1753091415000005E+00
Br   -5.5818516455494347E+00   -3.8894954808509477E+00   -9.0006580132490974E+00
Br   -2.9002483078573085E+00   -5.1549367339404348E+00   -1.1387967436984582E+01
Br   -2.8620846506298823E+00   -8.4476702768577594E-01   -9.0102425180670842E+00
Br   -2.9186512893656684E+00    4.2777782199295133E+00    1.1464934331532968E+01
Br   -4.7003049877084608E+00   -7.9306194434365116E+00    9.5300549990179366E+00
Br   -2.1113565011004702E+00   -8.2296623407787894E+00    6.3779296162439714E+00
Br   -2.1846340174420913E+00   -5.2544130073297346E+00    8.7734166741110844E+00
Br   -8.4090506677895736E+00   -9.1029984624500724E+00    8.8886152441323563E-01
Br   -8.2907199620565706E+00   -6.2949357442833405E+00    3.7265560277758025E+00
Br   -8.0233124527154036E+00    8.6409459775639590E+00    1.2020839222463641E+01
Br    1.1665203338174278E+01    9.5548140360026785E+00    1.7137214771203499E+00
Br   -7.6560830279232635E+00   -9.3064212688789283E+00    1.2708544788380280E+01
Br    1.0871693680005857E+01    9.2176801218353113E+00   -4.1332825880542066E+00
Br    1.1704997066216967E+01    3.8504948269880490E+00    2.3610924672300997E+00
Br   -7.8765560245548079E+00    2.9631301740776683E+00    1.2200182043814246E+01
Br   -1.1970395888710170E+01   -4.7172607516008762E+00   -8.2283437687459244E+00
Br    1.1902960896046057E+01   -1.7200988623581797E+00    8.1139115750148854E+00
Br   -5.1540101260889486E+00   -8.6560491881482715E+00    3.5059919988479789E+00
Br    5.7229368026009082E+00   -3.2291215149006556E+00   -8.8316914930328885E+00
Br    8.8963903632501058E+00   -2.8211806815301257E+00   -1.1631795874920345E+01
Br    1.2272469410686458E+01   -6.4398403802254549E+00    8.9041361152772431E+00
Br    8.4599915680149422E+00    4.8273666794119853E-02   -8.2618939691761746E+00
Br   -6.0910811491793044E+00   -1.1354917127098362E+01    1.0089910548864125E+01
Br   -2.3897040198373647E+00   -9.8559702023988542E+00    7.0519219442036873E-01
Br   -2.6047452178650179E+00   -5.9710836504157676E+00    3.5040667355537756E+00
Br    6.1380947537134078E+00   -8.6648845611685292E+00   -8.4089720531409053E+00
Br   -5.5079413709691769E+00   -1.0087369512491314E+01   -8.7109870989684666E+00
Br    8.7162772762308425E+00   -7.9743714758261772E+00   -1.1266109983504931E+01
Br    8.6124072004291126E+00   -5.8472135323035470E+00   -8.6392306866217528E+00
Br   -1.9264284292237581E+00   -1.0749729134648460E+01    9.6359198576881653E+00