 # Version information for this restart file 
 # current date 2021-06-17 12:43:18.248
 # current working dir /user/ub2042/exercises/2_fitting/MM_MD_workdir/md_settings.004
 # Program compiled at                              Thu Apr 22 21:44:59 EDT 2021
 # Program compiled on                cpn-k07-07-02.compute.cbls.ccr.buffalo.edu
 # Program compiled for                                                    local
 # Source code revision number                                       git:36754bb
 &GLOBAL
   PRINT_LEVEL  LOW
   PROJECT_NAME cp2k
   RUN_TYPE  MD
 &END GLOBAL
 &MOTION
   &MD
     ENSEMBLE  NVT
     STEPS  10000
     TIMESTEP     2.4999999999999996E+00
     STEP_START_VAL  7000
     TIME_START_VAL     1.7499999999998578E+04
     ECONS_START_VAL    -1.4028929475949734E+01
     TEMPERATURE     3.0000000000000000E+02
     &BAROSTAT
       PRESSURE     1.0100000000000000E+00
       TIMECON     9.9999999999999982E+03
     &END BAROSTAT
     &THERMOSTAT
       TYPE  CSVR
       &CSVR
         TIMECON     9.9999999999999982E+03
         &THERMOSTAT_ENERGY
              -2.0644704284669968E-01
         &END THERMOSTAT_ENERGY
         &RNG_INIT
Wiener process for Thermostat # 1        1 F T F  -9.6117049849395275E-01        4292059355.0        1034014718.0        2730869498.0        3644692507.0         585491445.0        2739155311.0             12345.0             12345.0             12345.0             12345.0             12345.0             12345.0             12345.0             12345.0             12345.0             12345.0             12345.0             12345.0
         &END RNG_INIT
       &END CSVR
     &END THERMOSTAT
     &AVERAGES  T
       &RESTART_AVERAGES
         ITIMES_START  1
         AVECPU     1.7433265641997025E-02
         AVEHUGONIOT     0.0000000000000000E+00
         AVETEMP_BARO     0.0000000000000000E+00
         AVEPOT    -1.4408914332809477E+01
         AVEKIN     4.8493525968459272E-01
         AVETEMP     2.4599238696003997E+02
         AVEKIN_QM     0.0000000000000000E+00
         AVETEMP_QM     0.0000000000000000E+00
         AVEVOL     6.7483345830910429E+06
         AVECELL_A     1.8897261328855717E+02
         AVECELL_B     1.8897261328855717E+02
         AVECELL_C     1.8897261328855717E+02
         AVEALPHA     9.0000000000000000E+01
         AVEBETA     9.0000000000000000E+01
         AVEGAMMA     9.0000000000000000E+01
         AVE_ECONS    -4.7594238141216101E+00
         AVE_PRESS     0.0000000000000000E+00
         AVE_PXX     0.0000000000000000E+00
       &END RESTART_AVERAGES
     &END AVERAGES
     &PRINT
       &ENERGY  SILENT
         &EACH
           MD  10
         &END EACH
       &END ENERGY
     &END PRINT
   &END MD
   &PRINT
     &TRAJECTORY  SILENT
       &EACH
         MD  10
       &END EACH
     &END TRAJECTORY
     &CELL  SILENT
       &EACH
         MD  10
       &END EACH
     &END CELL
     &VELOCITIES  SILENT
       &EACH
         MD  10
       &END EACH
     &END VELOCITIES
     &FORCES  SILENT
       &EACH
         MD  10
       &END EACH
     &END FORCES
     &RESTART  SILENT
       &EACH
         MD  10
       &END EACH
     &END RESTART
   &END PRINT
 &END MOTION
 &FORCE_EVAL
   METHOD  FIST
   &MM
     &FORCEFIELD
       VDW_SCALE14     1.0000000000000000E+00
       EI_SCALE14     1.0000000000000000E+00
       SHIFT_CUTOFF  T
       DO_NONBONDED  T
       IGNORE_MISSING_CRITICAL_PARAMS  T
       &SPLINE
         R0_NB     2.5000000000000000E-01
       &END SPLINE
       &NONBONDED
         &LENNARD-JONES
           ATOMS Br Br
           EPSILON     1.2630795322675199E+02
           SIGMA     3.6900000000000004E+00
         &END LENNARD-JONES
         &LENNARD-JONES
           ATOMS Cs Pb
           EPSILON     8.6920055954630968E+01
           SIGMA     3.6699999999999999E+00
         &END LENNARD-JONES
         &LENNARD-JONES
           ATOMS Cs Cs
           EPSILON     2.2644852172126850E+01
           SIGMA     4.3300000000000001E+00
         &END LENNARD-JONES
         &LENNARD-JONES
           ATOMS Pb Pb
           EPSILON     3.3363415533600227E+02
           SIGMA     5.9000000000000004E+00
         &END LENNARD-JONES
         &LENNARD-JONES
           ATOMS Br Cs
           EPSILON     5.3481070753900497E+01
           SIGMA     3.6300000000000003E+00
         &END LENNARD-JONES
         &LENNARD-JONES
           ATOMS Br Pb
           EPSILON     2.0528187276773045E+02
           SIGMA     2.9800000000000000E+00
         &END LENNARD-JONES
       &END NONBONDED
       &CHARGE
         ATOM Cs
         CHARGE     4.1739999999999999E-01
       &END CHARGE
       &CHARGE
         ATOM Pb
         CHARGE     8.3479999999999999E-01
       &END CHARGE
       &CHARGE
         ATOM Br
         CHARGE    -4.1739999999999999E-01
       &END CHARGE
     &END FORCEFIELD
     &POISSON
       PERIODIC  XYZ
       &EWALD
         EWALD_TYPE  SPME
         GMAX  62 62 62
         O_SPLINE  4
       &END EWALD
     &END POISSON
     &PRINT
       &FF_INFO  LOW
         SPLINE_INFO  F
         SPLINE_DATA  F
       &END FF_INFO
     &END PRINT
   &END MM
   &SUBSYS
     &CELL
       A     1.0000000000000001E+02    0.0000000000000000E+00    0.0000000000000000E+00
       B     0.0000000000000000E+00    1.0000000000000001E+02    0.0000000000000000E+00
       C     0.0000000000000000E+00    0.0000000000000000E+00    1.0000000000000001E+02
       PERIODIC  XYZ
       MULTIPLE_UNIT_CELL  1 1 1
     &END CELL
     &COORD
Cs   -2.5834156310861989E-02   -6.9483200654324687E-02   -6.3855276351455821E+00
Cs   -4.2967021642306163E-01   -6.3145891819465350E+00   -4.7737713472736312E+00
Cs    1.2971625514638627E+00   -1.2013960477787071E+01   -3.7945360581663605E+00
Cs   -5.7039135088172044E+00   -7.1657908453975647E+00   -5.1049655084232279E+00
Br   -7.4509970460907899E+00   -1.3992971629222030E+01   -6.4737076558941586E+00
Br    1.1540493179729902E+01   -3.1063911843942575E+00   -9.6465561810079166E+00
Br   -4.2462693300592198E+00    9.2884914259585150E-01   -1.2068251497613337E+01
Cs   -4.9912185717411717E-01    5.3596910711237413E+00   -5.8012653183876077E+00
Cs   -6.8110341758752302E-01   -1.5056226930161656E-01   -4.8632639113844839E-01
Cs    4.8365477532606538E-01   -5.9312051936248853E+00   -4.3663189497703303E-01
Br   -5.6362661732755486E+00   -3.0072662002395174E+00    3.5920688759267727E+00
Cs   -1.0100415444682804E+01   -5.7788470147699682E+00    1.3713979195232389E+01
Cs    1.1898057044501352E+01   -9.8805730212238618E+00    7.2921213987921873E-01
Cs   -6.4287859812477519E+00    5.5813504526853803E+00   -4.6183461514019752E-01
Cs   -1.3303992123890733E+00    1.1760896123356250E+01   -2.7723493062653146E+00
Cs   -8.5565078395589089E-01    6.6994606410260742E+00   -1.2148511812961087E+00
Cs    5.4640453037038417E-01    9.4975498909345712E-01    5.7601867215002018E+00
Cs    1.0892366247395624E+00   -5.0691404340159467E+00    6.8523181785260467E+00
Cs    1.6337731753448650E+00   -9.9329585972797343E+00    7.6917548800757354E+00
Cs   -6.2447551487782436E+00    6.1764606363303773E+00    1.0642738891753194E+01
Cs   -6.0012436647202323E+00   -1.8127943662950783E+00   -1.1917186953862736E+01
Cs   -5.3906179436779240E+00   -1.3909141746030070E+01   -3.7050185354379637E+00
Cs   -5.9420391763533518E+00    1.1705367162799750E-01    5.9035024832042078E+00
Br   -2.7567260550470944E+00   -3.2390896076781104E+00    7.4421700757370868E-02
Cs    9.5988520404871255E-02    7.0089996368695227E+00    4.9904718797775764E+00
Br    1.1916618688278964E+01   -7.3196392478908026E+00   -8.7332853203502943E+00
Cs    1.5050313458872004E+00   -4.5716735814777198E+00    1.1989733975706818E+01
Br   -3.2130244111953457E+00    9.6626958163698595E-02    2.7473454036230569E+00
Br   -8.0127507943167480E+00   -3.0840625896763609E+00    1.2594630716410338E+01
Cs    9.1572229895022659E+00    1.3451455434577248E+01   -8.3366119547721098E+00
Cs   -1.0234722360493327E+01   -5.8027049981964822E+00    7.2799166162151421E+00
Cs   -4.3541198976829678E+00   -5.7423523736180639E+00    6.8439867208740282E+00
Cs   -7.1347900575478391E+00    9.4903567198904231E+00   -7.5238539149096306E+00
Br   -1.0076835284791814E+01   -8.7231984921434123E+00    1.0196166523814343E+01
Br   -7.1807745706607253E+00   -9.0417952782025601E+00    7.5392417408117760E+00
Cs   -1.1223334600563406E+01   -8.6553595221164290E+00   -4.1746708870456715E+00
Cs   -7.7064073472127523E+00    3.9554094790286527E+00   -5.7432621748647890E+00
Br   -7.0586529124233559E+00   -5.9793481610176498E+00    1.0816226151273465E+01
Cs    1.0589767051100594E+01    8.2430624898958946E+00    1.0515255460740713E+01
Br   -1.2074571599893437E+01    8.2731571211923445E+00    7.7063703825992445E+00
Br   -5.9620930882278342E+00   -4.4562700641131450E+00   -2.6403683189044367E+00
Cs    1.0290498003426647E+00    1.1804965226349500E+00    1.1071005971915106E+01
Cs    1.1661735118016304E+01    6.5817700170574946E+00   -1.4914647039953532E+00
Cs   -1.0853724767148783E+01   -8.9789772127147263E+00   -1.0944278109757992E+01
Cs    1.2857519696577659E+01    3.4973300597593036E+00    5.9607357967835446E+00
Cs   -1.2125408264847760E+01    9.4796133113493646E+00   -6.0743406166181835E+00
Cs    1.3247663637657855E+01   -1.0456292680046271E+01    6.2387178684508227E+00
Cs    5.7857842390599510E+00   -6.4835062814102669E+00   -1.0549035689436680E+01
Cs    7.4723703708557316E+00   -1.0265584711271005E+01    6.3810134239153262E+00
Cs   -3.8462160974188029E+00   -1.2295554397804491E+01    1.2407449586014252E+00
Cs    6.8647432338667675E+00   -1.1548151001046419E+01   -1.0677503485535894E+01
Cs    1.0743368467492708E+01    6.6736390259298188E+00   -6.6814725831608586E+00
Cs    1.0090847327009524E+01    1.3065690634254350E+01    4.2593439280533927E+00
Cs    9.8881183048919450E+00    6.0044267086122822E+00   -1.2801102103638168E+01
Cs   -2.0274855777794597E-02   -7.9899897642774427E+00   -1.0771289823966006E+01
Cs   -1.2026767623563924E+01   -2.7147283657770127E+00   -6.1197900053330763E+00
Cs    7.2913774195244523E+00   -4.1096205303993871E+00    1.1551598849489617E+01
Cs    1.1743208871778451E+01   -3.9055517790203242E+00    5.9992224287555080E+00
Cs   -7.3696691101840131E+00   -1.1788727244201624E+01    1.3969793722281709E+01
Cs   -9.2958678773567971E-01   -1.0317316200821973E+00   -1.0999977870557979E+01
Cs   -1.1709192312363588E+00    1.2627860294548938E+01    4.0797859405511412E+00
Cs   -1.2903508489217916E+00    2.8975287524736797E+00   -1.3059388479565866E+01
Cs    5.9239800796496311E+00   -2.0907393076001171E-01   -6.1439952682813317E+00
Cs    6.1880684822879974E+00   -6.1879876837635539E+00   -5.5936823835206564E+00
Cs   -4.2170903351041265E+00   -1.1282430123161832E+01    7.7148580505734934E+00
Cs   -1.1626286156189909E+01    2.7764926748339031E-01    6.3023934781530668E+00
Cs    5.0406780159746090E+00   -1.3458392410393629E+00   -1.0906285077881090E+01
Cs    3.8103330124532495E+00    1.0982019702429703E+01   -1.2990501354239315E+01
Cs   -3.7829833852690659E-01    6.9092121024242896E+00    1.0075356355606957E+01
Cs   -6.8000804601553524E+00    1.0206766455362708E+01    4.7666246478129208E+00
Cs    4.4032662387073040E+00    1.1682096036077228E+01   -8.4486601578089111E+00
Cs    5.2277398845182539E+00    6.4930771656010000E+00   -7.2132602769722647E+00
Cs    5.8325524527144346E+00    1.6985006183036500E+00    7.9780661152306601E-02
Cs    5.9359177522141477E+00   -4.1789094553988866E+00    2.6400869319493719E-01
Cs    6.6245509228201138E+00   -1.0018193752999313E+01    1.3869632368797067E+00
Cs    4.5994117079209378E+00    4.7509315897734306E+00   -1.2596670748331395E+01
Cs   -6.7592312583033891E+00    5.1715827818371389E+00    5.4399449826252262E+00
Cs   -5.9766175937880925E+00   -8.3158787280628559E+00   -9.9379420705381012E+00
Cs    6.2369201463253274E+00    6.7273472135050518E+00   -6.9666695726438432E-01
Cs    7.1018883766423295E+00    1.6530128247021725E+00    5.5855470788449324E+00
Cs    7.0684678713594469E+00   -4.8533096329973917E+00    7.3138791011316089E+00
Cs   -6.8327120554727712E+00    1.0764111954054007E+01   -3.5353483734748747E-01
Cs    1.1459234612764542E+01    8.6504640858715820E-01   -3.4344272125469383E-01
Cs   -6.7473583986529349E+00    2.8724340764190986E-01    5.6739745227054342E-02
Cs   -1.1952525057147129E+01    5.0905579011900901E+00    7.1077288572382669E+00
Cs   -4.8614354339441403E+00    4.9363171116061771E-01    1.0432230536527486E+01
Cs    5.3062460388137929E+00    1.4243471881750510E+01    6.3560997581068515E+00
Cs    5.0310888333027011E+00    7.1038114339540037E+00    5.1674824807057611E+00
Cs    8.4088544574840522E+00    2.5310060397983558E+00    1.1150548972958426E+01
Cs    4.4944743863243124E+00    1.1688555011026450E+01   -1.3679996486616162E+00
Cs    1.1267543308207630E+01    1.9533008663132143E-01   -6.8137405640265998E+00
Cs    1.1184344835964909E+01   -5.4188912647754339E+00   -6.2768893013576168E+00
Cs    7.6913008665446805E+00   -9.4996128198418575E+00    1.2033531592699685E+01
Cs    1.0811454652155529E+01    1.2136870378813216E+01   -1.6655722957134591E+00
Cs   -9.8118342100004217E+00    2.8789278674288715E-01    1.2746686164720856E+01
Cs   -6.2455486707266985E+00    4.9416682694541461E+00   -1.2653243251310091E+01
Cs   -1.1807225890691166E+01    1.0306410955471835E+01   -1.0434790288289484E+00
Cs   -3.9999716871470401E+00   -4.7751498761346909E+00    1.2181690234566339E+01
Cs    3.5601165553508402E-01   -1.1312386438212615E+01    1.2853128491252857E+01
Cs    5.2654430691899918E+00    7.4697781161819305E+00    9.8560719391590492E+00
Cs    1.1345326526356819E+01   -3.9397404463492589E+00   -1.3092846475503125E-01
Cs   -1.2450638849670414E+01   -9.4540602179641375E-01    3.9980278779927125E-01
Cs   -7.2585883124633543E+00    9.3636789687043169E+00   -1.2113539180300755E+01
Cs   -1.2317859674261156E+01    5.2316364016738461E+00   -6.7058424681826934E-02
Cs   -1.0499586982044541E+01   -1.3812482478685785E+01   -4.6633830830414853E+00
Cs   -1.0613993657690148E+01   -8.2465484488965544E+00    1.7813246526746596E+00
Cs   -5.5794177688648299E+00   -6.0863348204346481E+00    1.2096238069929066E+00
Cs   -9.8847485022008748E+00   -1.1153343117424646E+01    8.1348731730808481E+00
Cs    1.4064217668541795E+01   -4.1604128301733931E+00    9.8841842409457783E+00
Cs    1.1475647302242185E+01    8.0097068580468953E+00    4.9566589020118181E+00
Cs   -1.2539806450653961E+01    4.5448823641906522E+00   -5.7005142732230132E+00
Cs   -5.8899985805132449E+00   -2.3389044451581187E+00   -6.3056414060345976E+00
Cs   -8.4614733034840626E+00   -1.3130555805859821E+01    2.5673994342833866E+00
Cs    1.0763544971443787E+01   -6.0967034534298969E+00   -1.2010957006395728E+01
Cs   -5.1362603835300744E+00   -1.3141427756791256E+01   -9.5523947320221083E+00
Cs   -1.5904638523655985E+00    9.8277704275409263E+00   -1.2832075944232841E+01
Cs    3.8566772758086615E-01   -1.3524620787944775E+01   -9.1515367151856228E+00
Cs   -1.4588503133582635E+00    1.0281061353534707E+01   -7.8000538336676071E+00
Cs   -6.8031806554098377E+00    1.1834098047151567E+01    1.1066726532379995E+01
Cs    1.3762152955285238E+00   -1.1280241857827605E+01    1.6728492815719325E+00
Cs   -1.2134725149378220E+01   -2.5759748436593948E+00   -1.0686473274122278E+01
Cs   -1.1525985992878025E+01    1.0669037878200625E+01    5.3416599088616099E+00
Cs    7.1896626194558069E+00   -1.1695200809759923E+01   -4.7918245976115870E+00
Cs    1.0070538871415891E+01   -1.2553609779275177E+00   -1.2109000486718253E+01
Cs   -7.9388308191781431E-01    1.3104446625792699E+01    9.6255910263572879E+00
Pb    2.9449319019060969E+00   -2.4899963923291848E+00   -2.6821046231549546E+00
Pb    3.5887710771732957E+00   -8.3460074196809231E+00   -1.6596027680384127E+00
Pb   -8.2665599797063134E+00   -3.5313790224188706E+00    3.9007273341846025E+00
Pb   -2.1040307209340354E+00   -9.8094281844548732E+00   -1.6605080153260257E+00
Pb    2.3647531093218981E+00    9.0184259329740879E+00   -4.2148925311414400E+00
Pb    2.4251542029743196E+00    3.3923362332977898E+00   -3.4002216583525535E+00
Pb    3.0553602926262795E+00   -1.9874290130163093E+00    3.1817443847691447E+00
Pb    4.0464961251680451E+00   -7.6204984126555670E+00    4.2764097794984259E+00
Pb   -3.6314450378800038E+00    8.8762812438368659E+00    2.0025844736306877E+00
Pb    2.2868035274212430E+00    9.8998057531564463E+00    1.6845782023199718E+00
Pb    2.7720289828267908E+00    4.0838555072645946E+00    2.4074475886175342E+00
Pb    4.0755570573131870E+00   -1.6531484354333421E+00    9.0635938283673667E+00
Pb    4.4757784584747018E+00   -7.4119786085245210E+00    1.0007125219264635E+01
Pb   -3.1751293844083404E+00    2.8239456810946697E+00    2.5040556425402007E+00
Pb    2.4354093091666327E+00    1.0657890698549444E+01    7.9898712985165092E+00
Pb    2.9239697048845210E+00    4.3126496127054494E+00    8.3546411027628267E+00
Pb   -1.8739111034534819E+00   -2.5807825008240104E+00    8.8664509339322670E+00
Pb   -7.6036700595302698E+00   -9.3492607402916779E+00    4.8931271410096269E+00
Pb   -1.0013308087348703E+01    1.3929505572293364E+00   -2.8242190449975979E+00
Pb   -3.0202144111629079E+00   -4.3581445389606861E+00   -8.6701061014624585E+00
Pb   -1.5989004354071334E+00   -8.7813856711932790E+00    4.2389243628547071E+00
Pb   -3.8104080606788053E+00    8.5744184840317779E+00   -3.8044654139326495E+00
Pb   -1.6180140913281069E+00   -8.3284866122901651E+00    1.0214522321878501E+01
Pb   -9.0122621245060195E+00   -4.6628268260538794E+00   -2.2890651625587588E+00
Pb   -8.0113087647674135E+00   -1.0559664941363154E+01   -1.0796825204512812E+00
Pb   -3.5806104775363217E+00    2.4145345370143065E+00   -3.5319404086545343E+00
Pb   -7.3711487872733121E+00   -8.6444494908014953E+00    1.0877535407889630E+01
Pb   -8.8442886708439001E+00   -5.0680026013962953E+00   -8.2783458953855558E+00
Pb    8.6319333824199944E+00   -3.5334091452429366E+00   -8.8885894254684725E+00
Pb    9.8623832894074681E+00   -9.1517259792123280E+00   -8.3227653221395919E+00
Pb   -2.7892043480725870E+00   -1.0192750373461820E+01   -7.6202058556180603E+00
Pb   -1.0477692021415047E+01    6.6470531405491373E+00   -9.6114092485021168E+00
Pb    2.8135509961422454E+00   -3.7495488446833574E+00   -8.4184404039257643E+00
Pb    3.2329489463217422E+00   -9.9500338842112779E+00   -7.9987985819946150E+00
Pb   -3.8798055050285152E+00    1.6519232265103323E+00   -9.0573850780720502E+00
Pb    1.7194954637104500E+00    8.1361485897290304E+00   -1.0260569358557253E+01
Pb    2.1513749511741054E+00    2.4267102939116305E+00   -9.5139855958932920E+00
Pb    8.7770301018219250E+00   -1.8977634780597326E+00   -3.2229437988895531E+00
Pb    9.4470731763793783E+00   -8.0363653592733701E+00   -2.1679087580061123E+00
Pb   -7.9143168326448459E+00   -3.1722253478394862E+00    9.6459583486177038E+00
Pb    7.7113576776152231E+00    8.3851602240490450E+00   -1.0497623056555732E+01
Pb   -9.7179450387252508E+00    9.7314939301284298E-01   -9.1855384976498193E+00
Pb   -3.3535618832254079E+00    9.3873789374032324E+00    7.8690364794570069E+00
Pb    8.3957656396595386E+00    9.4108264914997495E+00   -4.4932968986030399E+00
Pb    8.3596137913453781E+00    3.6861391698812902E+00   -3.8872442555505713E+00
Pb    9.2077704522595099E+00   -1.3366845717044995E+00    2.8175384782523634E+00
Pb    9.8040919680981808E+00   -6.9256444605759171E+00    3.5566137394253188E+00
Pb    8.3662098675915946E+00    2.2333960694989887E+00   -9.6317189676853072E+00
Pb   -2.5499642072908246E+00    3.3462683944368412E+00    8.2371676003809569E+00
Pb    8.1434057623943765E+00    1.0220365154860259E+01    1.6728800254014444E+00
Pb    8.7946995139222164E+00    4.3021517528943090E+00    1.9964871653108989E+00
Pb    1.0258783117656565E+01   -1.0630404819693051E+00    8.6926509942317871E+00
Pb    1.0516000723295537E+01   -7.0521712030220911E+00    9.3899206256560959E+00
Pb    8.2343107160401683E+00    1.0905845658731190E+01    7.5924106886865568E+00
Pb    8.8247642640767765E+00    5.1923890937554980E+00    7.8575804836075971E+00
Pb   -8.6165103314954639E+00    2.3672611736649101E+00    8.7441699582813506E+00
Pb   -2.6390181288554508E+00   -2.8866276564861768E+00    3.0172251756597936E+00
Pb   -9.7659469200681635E+00    7.9855401770885370E+00    2.1535415057097156E+00
Pb   -9.5811472750309292E+00    7.3824394808211782E+00   -3.6729903028300073E+00
Pb   -8.2750617753387488E+00   -1.0999226794001908E+01   -6.8123694121249372E+00
Pb   -4.0024868221573007E+00    7.4104611851472102E+00   -9.7976450221171660E+00
Pb   -9.0153356894883796E+00    2.2262885308742986E+00    2.8825257626066541E+00
Pb   -9.2680190703189709E+00    8.6598241425379374E+00    8.1717804933876259E+00
Pb   -3.1195435876866919E+00   -3.4336007955874446E+00   -2.7373303518392031E+00
Br   -3.8724735059367313E-02   -3.5675204312214457E+00   -2.5145743889717549E+00
Br    2.5104949425704812E+00   -2.5613548099861640E+00   -5.4395829841751224E+00
Br    2.3494672365995077E+00    3.2040531850868587E-01   -3.1502981663376044E+00
Br    5.9241839324155288E-01   -9.0316850704398881E+00   -1.7932735110985061E+00
Br    3.5538519754778202E+00   -9.4248222668534183E+00   -4.5226365626326244E+00
Br    3.2281239107017439E+00   -5.5084932004146987E+00   -2.3769585683517525E+00
Br   -3.3865821784870960E+00   -4.3448842123608360E+00   -5.6816380237152639E+00
Br   -7.4501331835736941E+00   -3.9304426492597910E+00    6.7054339580295963E+00
Br   -2.8580240728501787E+00   -8.5557154358850607E-01   -3.8934163340035504E+00
Br    4.0928244998647960E+00   -1.1213815743548020E+01   -1.3779521116978184E+00
Br    1.2052958707358759E+01   -1.2921630944040421E+00    1.8032723936293051E+00
Br   -4.7617207052132997E+00   -9.8711074153464491E+00   -7.1086401109702657E-01
Br   -1.0863622077395023E+01   -3.0478846977164986E+00    5.0615902737121159E+00
Br   -8.2784188574654127E+00   -4.3124193641272832E+00    4.2918007372196115E-01
Br    1.2399348358762600E+01   -6.6034157110357405E+00    2.5572894337208991E+00
Br   -9.7691413013863670E-01    8.8464958746579647E+00   -3.9144180960966657E+00
Br    1.4332007833161238E+00    8.5801199354515845E+00   -7.2311502171085742E+00
Br    1.9723785208393718E+00    1.1890312064394283E+01   -4.5799016060173798E+00
Br   -6.6737580915550909E-01    2.8947966315450682E+00   -3.1304912211770763E+00
Br    2.2357568858051584E+00    2.8407914447723366E+00   -6.2353417330812588E+00
Br    2.3338212889517886E+00    6.1686384081661769E+00   -3.8491063425025800E+00
Br    2.0152482805068653E-01   -2.3667799248076671E+00    2.7423293013020902E+00
Br    3.4172774623678075E+00   -2.1461117575743494E+00    1.4213489128603066E-01
Br    2.3479231766979760E+00    7.2400489091049480E-01    3.0837513178647202E+00
Br    1.0128719787660911E+00   -7.8011531784649639E+00    3.8232007625543725E+00
Br    3.8596851413849889E+00   -7.3453994259366970E+00    1.0687426951234491E+00
Br    3.5431976560708076E+00   -4.6066182285106274E+00    4.3096157359152256E+00
Br   -7.1967947367174094E+00    7.1330586046244413E+00   -9.4367366618220565E+00
Br   -4.6855467496900074E+00    7.6779042375116671E+00   -1.2791961313618463E+01
Br    4.4585449331539726E+00   -1.0552092018190034E+01    4.1414236517727208E+00
Br   -4.4899178548152339E+00    1.0207950902031465E+01   -1.0091934445876337E+01
Br   -4.1838550526894185E+00    4.4216957800210963E+00   -1.0110520573582914E+01
Br   -8.7047083613102370E+00   -5.2364316070918193E-01    2.9501871444012138E+00
Br   -2.6130184811758159E+00   -9.4049389844988678E+00   -4.8468071073829941E+00
Br   -6.6871447599045801E+00    8.2123177741699784E+00    1.9129723119287922E+00
Br   -3.4446132017186972E+00    9.1231365541463383E+00   -1.1706555384528590E+00
Br   -4.3690030775420725E+00    1.2321583029393835E+01    2.1142983832276183E+00
Br   -7.7707677887395121E-01    9.8561805671164873E+00    2.2355041389062906E+00
Br    1.7834950529467277E+00    9.2276913499211499E+00   -1.3843090248117407E+00
Br    2.2146473582846151E+00    1.2799454864922836E+01    1.0062522527130551E+00
Br   -4.5825352158629895E-01    3.5581452420373840E+00    2.7416180915583879E+00
Br    1.9808163155713912E+00    3.4394491737495185E+00   -4.8950936013365870E-01
Br    2.1635341337623100E+00    6.7538630862688418E+00    1.7223345753487309E+00
Br    1.2625682265597871E+00   -2.4298097320439251E+00    8.8992814108974017E+00
Br    3.7427832481228323E+00   -1.3291867943184323E+00    6.0180485591605937E+00
Br    4.2057739649457888E+00    1.8511015481367179E+00    8.7112828978496033E+00
Br    1.4405020065739969E+00   -7.3835278737995571E+00    1.0012191112028159E+01
Br    4.0420101642212902E+00   -7.1931208306745305E+00    7.2511609502310330E+00
Br    4.8682375786584355E+00   -4.5496008707490825E+00    9.7376477100011165E+00
Br   -1.2099596012356860E+01    1.6203198688906477E+00    3.1808940955910385E+00
Br   -9.5796776600040801E+00    2.1326956253436262E+00    5.5283536886228543E-02
Br    4.6319221315008612E+00   -1.0349251461341096E+01    9.5547707731913718E+00
Br   -9.2997289619835968E+00    5.2234735589606407E+00    2.5448927709864027E+00
Br   -7.6902042053946458E+00   -2.0865728132669215E-01    8.5745834850693345E+00
Br   -2.6819288868863311E+00   -6.4828985817264133E+00   -1.9714197532059601E+00
Br   -6.1591875454432499E+00    2.7579849354517827E+00    2.7408005889780442E+00
Br   -4.1039742200054325E+00    2.5734623326863777E+00   -5.3201743162490978E-01
Br   -3.1087293491845602E+00    6.0562183875461812E+00    1.0132270349387351E+00
Br   -5.4223259787343792E-01    9.9500447406192283E+00    7.6116151855932683E+00
Br    2.6106551153218294E+00    1.0275139308884368E+01    5.0987713848347820E+00
Br    1.8198275202271452E+00    1.3406423425663821E+01    7.4233877816667357E+00
Br    5.2201170132947905E-01    2.9666061015793392E+00    8.2193559279910620E+00
Br    2.8633912910490666E+00    4.5527909184171333E+00    5.1897728920695219E+00
Br    2.3514455361435478E+00    7.1904752784519621E+00    8.4495004458346710E+00
Br   -5.0036168059711956E+00   -2.7554237730588937E+00    9.2821313567244292E+00
Br    3.4561437144870748E+00   -1.7129991561477034E+00    1.1995465811865074E+01
Br   -1.7923029686556002E+00   -3.3830102271852427E+00    5.9059511470699144E+00
Br   -2.1911526758830666E+00    4.0504557030038224E-01    8.0486418947286911E+00
Br   -1.7579823766631462E+00   -1.2748476587950229E+01   -1.4587884611173680E+00
Br    5.1217725689463069E+00   -7.2282305569713348E+00    1.2747418170155676E+01
Br   -1.3059913603586523E+01    2.0999299149153758E+00   -2.9563789703313543E+00
Br   -6.9199972008609512E-01   -1.1447205648524761E+01    4.5045133606376710E+00
Br   -1.1784773507348172E+01   -4.7860057892180130E+00   -2.3348284345225143E+00
Br    1.9068493422639639E+00    1.0788591389727257E+01    1.0796082593950327E+01
Br   -9.0393274262278993E+00   -4.7531111906564831E+00   -5.3607935532846449E+00
Br   -9.4076031157365083E+00   -1.3657899444038446E+00   -1.9779138941647521E+00
Br    2.4545788208970900E+00    4.2917589668748821E+00    1.1141824941198509E+01
Br   -6.5186045596774189E+00    7.3410883375594125E+00   -3.2558218565959534E+00
Br   -3.8956643553528560E+00    8.2045643404039872E+00   -6.7023145062022857E+00
Br   -4.3158095828601137E+00    1.1282908545998019E+01   -4.4349174777977520E+00
Br   -6.9976254292017890E+00    1.6068768223755980E+00   -3.5143020092301800E+00
Br   -1.0653173297122002E+01   -9.2761569127154822E+00    4.9670975603795009E+00
Br   -3.8520983375758107E+00    2.3504677896480297E+00   -6.3987621221426059E+00
Br   -5.8862653109551397E+00   -5.1605397197640874E+00   -8.7044101192551171E+00
Br   -3.0946919687441592E+00   -4.0842683671365156E+00   -1.1660607067569725E+01
Br   -3.2513228338361277E+00   -1.2790487097173984E+00   -8.4955043791852809E+00
Br   -1.8555234109796281E+00    3.0610342966716098E+00    1.1230710781963738E+01
Br   -4.3519273295981300E+00   -8.4641938106781591E+00    1.0536176635750191E+01
Br   -1.6873522835099186E+00   -8.3254051955083348E+00    7.2088516419715978E+00
Br   -2.0625201845162722E+00   -5.5295948772773782E+00    9.4195531544974607E+00
Br   -7.5636748378816945E+00   -1.0008563559478008E+01    2.0251171319875474E+00
Br   -8.3617697944095841E+00   -6.4623405507447789E+00    3.8777231742704559E+00
Br   -9.4672550687703563E+00    9.4432640891065862E+00    1.0960006766104875E+01
Br    1.0986607723614242E+01    1.0843860265177147E+01    1.6421005827623676E+00
Br   -8.4672893844666817E+00   -8.7456485432596498E+00    1.3832128333999234E+01
Br    1.1153253117759423E+01    8.6415905363983150E+00   -4.0869980801397769E+00
Br    1.1680218270492576E+01    4.8254378831898670E+00    1.8078485536932929E+00
Br   -7.6123051631303715E+00    2.2309473561077722E+00    1.1336887691910967E+01
Br   -1.2225580047185751E+01   -5.2248321317999835E+00   -8.3794024687925894E+00
Br    1.2994215654959346E+01   -7.6991668043367545E-01    9.6717664165728241E+00
Br   -4.5423665817589720E+00   -9.2044114466229168E+00    4.6988099697604557E+00
Br    5.7267373847590353E+00   -3.9295184472038676E+00   -8.1983599427800975E+00
Br    7.7093532753441636E+00   -3.5966192300161013E+00   -1.1600074169374080E+01
Br    1.3345135933701128E+01   -7.5962679254838088E+00    8.9290767608261845E+00
Br    8.2044191012157288E+00   -7.1974899797493030E-01   -9.3902265693112632E+00
Br   -6.8822829628297715E+00   -1.1479223072395722E+01    1.0467860152348898E+01
Br   -1.7016343442634569E+00   -1.0002516557871347E+01    1.4859306082014134E+00
Br   -2.4338506582270285E+00   -6.2454846507464215E+00    2.9412368638679580E+00
Br    6.2531782705266208E+00   -9.2795116926032186E+00   -8.3746529502322797E+00
Br   -5.5495922646826568E+00   -1.0397511745954493E+01   -7.0283444574235112E+00
Br    8.9613835792229253E+00   -8.8064013915543313E+00   -1.1267948913460302E+01
Br    8.3514069333466079E+00   -6.2208099750058876E+00   -8.4549137015584801E+00
Br   -7.2486927605764684E-01   -1.1205379714639744E+01    9.5309338260615331E+00