 # Version information for this restart file 
 # current date 2021-06-17 12:43:53.117
 # current working dir /user/ub2042/exercises/2_fitting/MM_MD_workdir/md_settings.004
 # Program compiled at                              Thu Apr 22 21:44:59 EDT 2021
 # Program compiled on                cpn-k07-07-02.compute.cbls.ccr.buffalo.edu
 # Program compiled for                                                    local
 # Source code revision number                                       git:36754bb
 &GLOBAL
   PRINT_LEVEL  LOW
   PROJECT_NAME cp2k
   RUN_TYPE  MD
 &END GLOBAL
 &MOTION
   &MD
     ENSEMBLE  NVT
     STEPS  10000
     TIMESTEP     2.4999999999999996E+00
     STEP_START_VAL  9000
     TIME_START_VAL     2.2499999999996515E+04
     ECONS_START_VAL    -1.4028929475949734E+01
     TEMPERATURE     3.0000000000000000E+02
     &BAROSTAT
       PRESSURE     1.0100000000000000E+00
       TIMECON     9.9999999999999982E+03
     &END BAROSTAT
     &THERMOSTAT
       TYPE  CSVR
       &CSVR
         TIMECON     9.9999999999999982E+03
         &THERMOSTAT_ENERGY
              -2.4641003007392537E-01
         &END THERMOSTAT_ENERGY
         &RNG_INIT
Wiener process for Thermostat # 1        1 F T F   1.8360017598728720E-01        2587283350.0         742073417.0         736784705.0        2193663472.0        2811323491.0        3638979434.0             12345.0             12345.0             12345.0             12345.0             12345.0             12345.0             12345.0             12345.0             12345.0             12345.0             12345.0             12345.0
         &END RNG_INIT
       &END CSVR
     &END THERMOSTAT
     &AVERAGES  T
       &RESTART_AVERAGES
         ITIMES_START  1
         AVECPU     1.7433650479988377E-02
         AVEHUGONIOT     0.0000000000000000E+00
         AVETEMP_BARO     0.0000000000000000E+00
         AVEPOT    -1.4397112539154884E+01
         AVEKIN     4.9856250968993449E-01
         AVETEMP     2.5290506177501581E+02
         AVEKIN_QM     0.0000000000000000E+00
         AVETEMP_QM     0.0000000000000000E+00
         AVEVOL     6.7483345830912245E+06
         AVECELL_A     1.8897261328855686E+02
         AVECELL_B     1.8897261328855686E+02
         AVECELL_C     1.8897261328855686E+02
         AVEALPHA     9.0000000000000000E+01
         AVEBETA     9.0000000000000000E+01
         AVEGAMMA     9.0000000000000000E+01
         AVE_ECONS    -5.0339867413288291E+00
         AVE_PRESS     0.0000000000000000E+00
         AVE_PXX     0.0000000000000000E+00
       &END RESTART_AVERAGES
     &END AVERAGES
     &PRINT
       &ENERGY  SILENT
         &EACH
           MD  10
         &END EACH
       &END ENERGY
     &END PRINT
   &END MD
   &PRINT
     &TRAJECTORY  SILENT
       &EACH
         MD  10
       &END EACH
     &END TRAJECTORY
     &CELL  SILENT
       &EACH
         MD  10
       &END EACH
     &END CELL
     &VELOCITIES  SILENT
       &EACH
         MD  10
       &END EACH
     &END VELOCITIES
     &FORCES  SILENT
       &EACH
         MD  10
       &END EACH
     &END FORCES
     &RESTART  SILENT
       &EACH
         MD  10
       &END EACH
     &END RESTART
   &END PRINT
 &END MOTION
 &FORCE_EVAL
   METHOD  FIST
   &MM
     &FORCEFIELD
       VDW_SCALE14     1.0000000000000000E+00
       EI_SCALE14     1.0000000000000000E+00
       SHIFT_CUTOFF  T
       DO_NONBONDED  T
       IGNORE_MISSING_CRITICAL_PARAMS  T
       &SPLINE
         R0_NB     2.5000000000000000E-01
       &END SPLINE
       &NONBONDED
         &LENNARD-JONES
           ATOMS Br Br
           EPSILON     1.2630795322675199E+02
           SIGMA     3.6900000000000004E+00
         &END LENNARD-JONES
         &LENNARD-JONES
           ATOMS Cs Pb
           EPSILON     8.6920055954630968E+01
           SIGMA     3.6699999999999999E+00
         &END LENNARD-JONES
         &LENNARD-JONES
           ATOMS Cs Cs
           EPSILON     2.2644852172126850E+01
           SIGMA     4.3300000000000001E+00
         &END LENNARD-JONES
         &LENNARD-JONES
           ATOMS Pb Pb
           EPSILON     3.3363415533600227E+02
           SIGMA     5.9000000000000004E+00
         &END LENNARD-JONES
         &LENNARD-JONES
           ATOMS Br Cs
           EPSILON     5.3481070753900497E+01
           SIGMA     3.6300000000000003E+00
         &END LENNARD-JONES
         &LENNARD-JONES
           ATOMS Br Pb
           EPSILON     2.0528187276773045E+02
           SIGMA     2.9800000000000000E+00
         &END LENNARD-JONES
       &END NONBONDED
       &CHARGE
         ATOM Cs
         CHARGE     4.1739999999999999E-01
       &END CHARGE
       &CHARGE
         ATOM Pb
         CHARGE     8.3479999999999999E-01
       &END CHARGE
       &CHARGE
         ATOM Br
         CHARGE    -4.1739999999999999E-01
       &END CHARGE
     &END FORCEFIELD
     &POISSON
       PERIODIC  XYZ
       &EWALD
         EWALD_TYPE  SPME
         GMAX  62 62 62
         O_SPLINE  4
       &END EWALD
     &END POISSON
     &PRINT
       &FF_INFO  LOW
         SPLINE_INFO  F
         SPLINE_DATA  F
       &END FF_INFO
     &END PRINT
   &END MM
   &SUBSYS
     &CELL
       A     1.0000000000000001E+02    0.0000000000000000E+00    0.0000000000000000E+00
       B     0.0000000000000000E+00    1.0000000000000001E+02    0.0000000000000000E+00
       C     0.0000000000000000E+00    0.0000000000000000E+00    1.0000000000000001E+02
       PERIODIC  XYZ
       MULTIPLE_UNIT_CELL  1 1 1
     &END CELL
     &COORD
Cs   -1.1115969998113338E+00   -6.0736079179247482E-01   -5.4403686447168580E+00
Cs    5.0538874132764056E-01   -6.2687308894643898E+00   -5.1189871976676589E+00
Cs    1.4804509460829813E+00   -1.2498467708214660E+01   -4.5256664126506960E+00
Cs   -4.8074468800703354E+00   -7.9375266210876863E+00   -4.6141210925839395E+00
Br   -7.8681619957432209E+00   -1.4681939548684827E+01   -6.4948724772924846E+00
Br    1.1423137610829913E+01   -2.1020332151214087E+00   -8.5418587940403459E+00
Br   -4.4588359305836418E+00   -4.5684785974959108E-01   -1.1722177086325452E+01
Cs   -1.8603003492933095E+00    4.3237702716651949E+00   -6.8505698122982723E+00
Cs   -1.1276849159082032E+00   -7.9277659064471012E-02   -5.4564750588637834E-01
Cs    7.6716129857421866E-01   -5.6421415674120841E+00    3.6636104753107734E-01
Br   -5.4006104190804889E+00   -3.7279588564951545E+00    3.1921286251513910E+00
Cs   -9.1637305935267399E+00   -6.4705987656770985E+00    1.3256953865424308E+01
Cs    1.2891797138557132E+01   -9.3061738752134051E+00    7.5256336776643995E-01
Cs   -6.9745842017955546E+00    5.4660891863521925E+00   -8.6120579373508410E-01
Cs   -1.8171718040272282E+00    1.1188264267075088E+01   -1.9848003767582498E+00
Cs   -1.0353215191491956E+00    5.5089668458856647E+00   -5.0862477703425490E-01
Cs    1.1118324173628995E+00    1.7454309465063214E+00    5.7273371251650920E+00
Cs    1.9707460201373010E+00   -5.1855700751114799E+00    6.4978839423605850E+00
Cs    2.6953010294545088E+00   -9.7351859708741664E+00    7.8212326067581710E+00
Cs   -5.8850357574360368E+00    7.3022409332312250E+00    1.0245448278080328E+01
Cs   -6.9920336638554108E+00   -2.7589015404598856E+00   -1.1472914735505979E+01
Cs   -3.5889438766716464E+00   -1.3632213181520724E+01   -2.5871071729990431E+00
Cs   -6.0408863166652074E+00    1.6028976684458282E-01    6.0525407314141937E+00
Br   -3.1864653863603922E+00   -3.0629948147355552E+00    6.3720726597389932E-01
Cs   -1.2407162214631906E+00    7.4874937833776061E+00    4.3593339875070516E+00
Br    1.2659649753805652E+01   -7.4308256279296803E+00   -7.8883810699888040E+00
Cs    2.2564172040992458E+00   -3.7044831033731205E+00    1.1561497770707486E+01
Br   -3.5356463275969676E+00    3.1535257978707276E-01    3.1282702136558287E+00
Br   -7.3418065570116138E+00   -2.3457894747678307E+00    1.2952358311739847E+01
Cs    9.2508342040666065E+00    1.1578091369586867E+01   -8.7853594401597430E+00
Cs   -1.0277870371351719E+01   -6.9126386259065162E+00    7.8924561495328707E+00
Cs   -3.8701787425227061E+00   -5.5237484414980429E+00    7.5550175616939983E+00
Cs   -7.5007019590429467E+00    1.0168827761603419E+01   -7.0898237095567644E+00
Br   -9.3914644992866645E+00   -8.9883756547876370E+00    1.0810540795874489E+01
Br   -7.1505786618610463E+00   -8.5498330408833674E+00    8.1309993921854602E+00
Cs   -1.0193802433641784E+01   -9.0376819222511227E+00   -4.2586318850996658E+00
Cs   -7.4324520099509650E+00    3.5124918164502934E+00   -6.6508279473585024E+00
Br   -6.0117845520856861E+00   -5.6995408532723966E+00    1.0721383042729265E+01
Cs    1.1325424989855124E+01    9.0595275153701742E+00    9.1969073409087301E+00
Br   -1.2456745741770927E+01    8.0898272129208220E+00    7.3412203301045516E+00
Br   -5.7551120033391694E+00   -4.8913264409028470E+00   -2.3598713600569772E+00
Cs    5.2398846691874712E-01    2.4658761494675048E+00    1.1180056719739106E+01
Cs    1.1355426065182639E+01    6.1485634289266535E+00   -1.5882283368538435E+00
Cs   -1.0753693644686008E+01   -1.0108197284973743E+01   -9.5113320359127531E+00
Cs    1.1702851664126621E+01    2.9772753681230339E+00    4.8037358021553214E+00
Cs   -1.2531756168483501E+01    8.0614915440839479E+00   -6.6366814840565187E+00
Cs    1.2551879149206425E+01   -9.1638426276856144E+00    7.0515937172241108E+00
Cs    6.6619794219228812E+00   -7.0188096383155685E+00   -1.0802184368962305E+01
Cs    8.1272760681882179E+00   -9.8757517528128727E+00    6.6662051429550173E+00
Cs   -3.8983258230170845E+00   -1.0846238477277494E+01    2.5755668340802078E+00
Cs    7.1345328976622930E+00   -1.2301616028291136E+01   -9.1427687822788304E+00
Cs    1.0029150216559151E+01    6.8471063885621621E+00   -7.7912196750500042E+00
Cs    1.0675362715999524E+01    1.3085458924386957E+01    3.9624370501060393E+00
Cs    8.5099452095520611E+00    4.6727354245476329E+00   -1.4184235667123962E+01
Cs    3.8524187867228311E-02   -7.8106918239640155E+00   -1.1076420080886942E+01
Cs   -1.1620467651351818E+01   -2.8825212760754106E+00   -4.4426833165953123E+00
Cs    7.1579890330465847E+00   -3.0554909565733275E+00    1.1598489064891654E+01
Cs    1.3090654187684819E+01   -3.3846354242471381E+00    5.0187742379033153E+00
Cs   -3.4206110751182237E+00   -9.2709640655278136E+00    1.3887740665961539E+01
Cs   -1.2320618114071653E+00   -1.9794070718956269E+00   -1.1377327051601526E+01
Cs   -2.0504834330238340E+00    1.2463778032801869E+01    3.2723637778885006E+00
Cs   -1.6278186969835153E+00    3.4348481883373592E+00   -1.3230833661047843E+01
Cs    5.6312464783655676E+00   -4.6694851828119839E-02   -6.3209593134709783E+00
Cs    7.0652698068228705E+00   -6.1301114733424313E+00   -5.1229586937695020E+00
Cs   -3.3253676282372298E+00   -1.1221125759490551E+01    8.4444278173168250E+00
Cs   -1.2019339187888459E+01   -5.7733202824882340E-02    6.2698763703058580E+00
Cs    4.4212768225003947E+00   -1.5127425398622671E+00   -1.1857628798180045E+01
Cs    2.6825219101436222E+00    1.1290623142807487E+01   -1.1918780524204509E+01
Cs    1.3524486239196556E-01    7.6197153487909928E+00    1.0404852503510611E+01
Cs   -6.9537034102896707E+00    1.0880313988510876E+01    3.9529712653873212E+00
Cs    4.7183286159698712E+00    1.0852099565029125E+01   -7.6912433827623161E+00
Cs    4.9499645657113422E+00    6.4109880386713911E+00   -6.9765623098048275E+00
Cs    5.1059959787732447E+00    8.0784183084736183E-01   -9.9986436389639544E-01
Cs    7.0388890039620762E+00   -4.9569225694978041E+00    8.9745423712286398E-01
Cs    7.9339324435139336E+00   -9.6969483040647422E+00    1.2600432796226451E+00
Cs    4.0035617465488746E+00    4.9058212914890387E+00   -1.2157464249125246E+01
Cs   -6.6883103651821454E+00    5.3926646915340637E+00    5.3993628906728288E+00
Cs   -5.7078909338078834E+00   -8.9507503457051190E+00   -1.0484739182742175E+01
Cs    4.5763289979333210E+00    6.6642304313414025E+00   -1.3827809994019524E+00
Cs    5.8919953498411868E+00    1.9847970360471936E+00    4.8783812295578599E+00
Cs    8.0366619550487179E+00   -4.3687532060758905E+00    6.7214143493880183E+00
Cs   -7.6787929421573011E+00    1.0330533089169391E+01   -1.2204798649855890E+00
Cs    1.1472377475934120E+01    1.0948736205103342E+00   -8.4311153640902647E-01
Cs   -5.9327144567549350E+00   -6.1250741994095803E-01    2.3658123021458285E-01
Cs   -1.1142415780093424E+01    4.9480952721601126E+00    6.3134278715270558E+00
Cs   -4.7254967506922005E+00    1.9384424358597614E+00    1.2398618383251677E+01
Cs    5.1416924230451126E+00    1.3318414935658240E+01    3.3717739042433790E+00
Cs    5.0667048499351539E+00    7.4702427961327791E+00    4.5237246584575956E+00
Cs    7.6876591859518593E+00    3.0469709597903636E+00    1.1425407641622025E+01
Cs    4.8135506490365234E+00    1.1864385848667618E+01   -1.6472426589018769E+00
Cs    1.0040820898181199E+01    1.6586060417354058E+00   -6.4585440090281594E+00
Cs    1.2451662105541791E+01   -5.1715474945618558E+00   -5.3054924763016196E+00
Cs    8.6466877077318021E+00   -8.5544091473911941E+00    1.2609461541318362E+01
Cs    1.0257752519464482E+01    1.2372487515111745E+01   -3.0370734136328421E+00
Cs   -1.0676202484188083E+01    6.7088612189683516E-01    1.1772920802244487E+01
Cs   -7.1256044862478642E+00    3.1163574584779878E+00   -1.2231887214175597E+01
Cs   -1.2265495488082083E+01    1.0365805707167828E+01   -1.0467413338379545E+00
Cs   -4.3569464572539989E+00   -3.0638413798745838E+00    1.3623511371728839E+01
Cs    2.7765368915652902E+00   -1.0052836202095973E+01    1.2306916886364601E+01
Cs    6.3430706738672766E+00    8.9942345848427312E+00    1.0289175793830763E+01
Cs    1.3330636331016326E+01   -4.1547436792330537E+00   -7.1341507864706222E-02
Cs   -1.1590897562919311E+01   -1.6013830010702639E+00    4.6310365600238862E-01
Cs   -1.0080906078521188E+01    7.7398092328160750E+00   -1.2857156339436916E+01
Cs   -1.3212648335867820E+01    4.4742700356702132E+00    5.1071999599811979E-01
Cs   -9.9721330605550200E+00   -1.3616490435551263E+01   -3.6297862191682779E+00
Cs   -1.1010700021783039E+01   -6.6244430947262636E+00    2.0650350926731953E+00
Cs   -5.8110179927968275E+00   -5.9562557172901078E+00    1.0895484743533068E+00
Cs   -9.1236613004606184E+00   -1.1542661649957262E+01    8.5335341376434517E+00
Cs    1.3434452948310193E+01   -2.9351374211653005E+00    1.0532118015994831E+01
Cs    1.1600235822458748E+01    6.9533987608884136E+00    3.3976366349222875E+00
Cs   -1.3065124050763915E+01    2.9325711060723947E+00   -6.3212587392128965E+00
Cs   -6.1431699937768274E+00   -1.6681020270461093E+00   -4.9558589738426955E+00
Cs   -9.5713734141134488E+00   -1.2401017589117870E+01    2.7007779211767979E+00
Cs    1.1691177786702811E+01   -5.5387604240518673E+00   -1.0468294244885458E+01
Cs   -5.3445314154262320E+00   -1.4290001095801744E+01   -8.7098066387083257E+00
Cs   -2.6951242048498725E+00    9.3479661996444499E+00   -1.3240935425954584E+01
Cs    1.4736712639822163E+00   -1.3315652004000974E+01   -9.3764891419220930E+00
Cs   -2.4396887448302529E+00    9.5816881031450585E+00   -8.5398173718624939E+00
Cs   -7.0960059290361945E+00    1.2051374188907438E+01    9.6916537108920142E+00
Cs    1.2422782413171320E+00   -1.1794205132680762E+01    2.0780676358934707E+00
Cs   -1.1755670416345415E+01   -3.8964946956787490E+00   -1.0487706282816795E+01
Cs   -1.1962786616397526E+01    1.1515435174899393E+01    4.9566326650561345E+00
Cs    7.2263416735530299E+00   -1.1519191258284343E+01   -4.2301580531523282E+00
Cs    1.0410100348520247E+01    5.4712332298094794E-02   -1.1133456595012323E+01
Cs   -8.9485629989290338E-01    1.2860075557136222E+01    9.3590851921665745E+00
Pb    3.0398781353955835E+00   -2.8459979474176493E+00   -2.6903228667759844E+00
Pb    4.3121121412266232E+00   -8.5268071468196069E+00   -1.7960182285110617E+00
Pb   -8.4243426614885379E+00   -3.6786453184548336E+00    4.2573496748840611E+00
Pb   -1.7175819884853987E+00   -9.3393380220511162E+00   -1.2129686085335147E+00
Pb    1.2929355927441168E+00    9.4800556792802162E+00   -4.8186987885427843E+00
Pb    2.1996588874302740E+00    2.7946154782805257E+00   -3.9461047944366228E+00
Pb    3.3691793579474609E+00   -2.1798324607794166E+00    3.0314739468286662E+00
Pb    4.6460880712038994E+00   -7.9821765639580011E+00    3.8595274903678405E+00
Pb   -4.0116914134314907E+00    9.0359941652184670E+00    1.2075212408710774E+00
Pb    2.0022215085135908E+00    9.9972371434137681E+00    1.3523897521877066E+00
Pb    2.6638981460365621E+00    3.6886343497599872E+00    1.9726412450988582E+00
Pb    4.1003345771967199E+00   -7.0988739643331977E-01    8.9938559084041145E+00
Pb    5.2629110050245176E+00   -6.7549852098698455E+00    9.5947813482842417E+00
Pb   -3.2493341073934663E+00    3.0399856792467608E+00    2.7939169151137220E+00
Pb    2.1351732999790842E+00    1.1045395317792909E+01    7.0243377729100152E+00
Pb    3.3296758365866914E+00    5.2993306358030985E+00    8.0875889125061260E+00
Pb   -1.9609070936889539E+00   -1.6589392793916400E+00    1.0009635495257260E+01
Pb   -6.9466312042385914E+00   -9.2731077475994823E+00    5.3513284925657114E+00
Pb   -9.6705474926081969E+00    1.0742889283905617E+00   -2.7077145730834018E+00
Pb   -2.9709261049839508E+00   -5.0513622503110946E+00   -8.4857321343125065E+00
Pb   -1.2041827610285261E+00   -8.3833794559733299E+00    4.6915917639955422E+00
Pb   -4.5757423795676386E+00    7.9469988187176321E+00   -4.5316625317316914E+00
Pb   -8.3360522986355967E-01   -7.6854253778759665E+00    1.0667712235207818E+01
Pb   -8.9111442690968072E+00   -4.9197082418314801E+00   -1.7993145445332934E+00
Pb   -7.3988630243175031E+00   -1.0376196680237507E+01   -5.7949872879912989E-01
Pb   -3.7139746286862074E+00    2.3951807721471106E+00   -3.0833075124957299E+00
Pb   -6.5575976900523063E+00   -8.4494962709905490E+00    1.0968807787764126E+01
Pb   -8.8433728004075078E+00   -6.0755536631052909E+00   -8.4884990655472077E+00
Pb    8.5434128524752513E+00   -2.7381743185678311E+00   -8.6170286146582793E+00
Pb    9.7156395381116187E+00   -8.6052894721519060E+00   -7.9991949552737447E+00
Pb   -1.9512360904671493E+00   -1.1009184588858517E+01   -7.2858393913731208E+00
Pb   -1.0829405746914237E+01    5.3977997810784277E+00   -9.6061454509859487E+00
Pb    2.7512739608119694E+00   -3.9450757653114708E+00   -8.4415321139715349E+00
Pb    4.0303136719380888E+00   -9.5586578235790043E+00   -7.8938750626841143E+00
Pb   -4.4308308366367593E+00    6.0065542495179813E-01   -9.2907459862206174E+00
Pb    8.9454336719322858E-01    7.4854356329108285E+00   -1.0260726982669494E+01
Pb    1.5744199655683633E+00    1.8091436734234867E+00   -9.5789245835560841E+00
Pb    9.0652561040975055E+00   -2.1445449294297250E+00   -2.8506414666136504E+00
Pb    1.0080897194425189E+01   -8.1195752792023299E+00   -2.2989142241253679E+00
Pb   -7.4367617439194316E+00   -2.7905955094235217E+00    1.0143097187096480E+01
Pb    6.7485658357655955E+00    8.5372942383411790E+00   -1.1375704222940792E+01
Pb   -1.0336632990154284E+01   -2.5303070482798679E-01   -8.5940915095592594E+00
Pb   -3.8696612215211581E+00    9.8931746375353793E+00    7.0354836401424397E+00
Pb    7.5533571606188046E+00    9.1708991109140605E+00   -4.6970790160252678E+00
Pb    7.9344957737906272E+00    3.4685778132685021E+00   -3.9530811897496374E+00
Pb    9.0740013626730658E+00   -1.1468040653072851E+00    2.8332294412686085E+00
Pb    1.0386799334983998E+01   -6.8194775733464033E+00    3.4336441076947422E+00
Pb    7.1662285216956585E+00    2.9834116934068118E+00   -9.9012318809547306E+00
Pb   -2.7280210819967032E+00    4.1206509785365899E+00    8.6340801637480169E+00
Pb    7.9295034018340118E+00    1.0280215570115720E+01    1.0616274545794888E+00
Pb    8.5411457778307316E+00    4.6848742061871516E+00    1.7893225634931154E+00
Pb    1.0131618439830312E+01   -5.9487193931908655E-01    8.8417495453542756E+00
Pb    1.1102067623861503E+01   -6.2716448830217519E+00    9.2222111354110261E+00
Pb    7.9374270051629177E+00    1.1673203662918736E+01    7.3125323327994023E+00
Pb    8.9623304485715085E+00    5.7321358656740955E+00    7.8150133683567260E+00
Pb   -8.3446179170385832E+00    3.2182639493785281E+00    9.2351022789456909E+00
Pb   -2.7910439922326558E+00   -2.6296148802832291E+00    3.8703665877831339E+00
Pb   -9.9730457133721426E+00    7.8950225894782244E+00    2.4134943768294681E+00
Pb   -1.0620566805234816E+01    6.8629536603888042E+00   -3.7993330470403568E+00
Pb   -8.0010620180216829E+00   -1.1829222869870941E+01   -7.0694235693715006E+00
Pb   -4.9921881034368853E+00    6.2793892360271366E+00   -1.0958058536970285E+01
Pb   -9.2657188805547168E+00    1.9977895570010276E+00    3.2487629408723562E+00
Pb   -9.7429328250223399E+00    8.8957352532213765E+00    8.2586986953054335E+00
Pb   -3.0591188126991047E+00   -3.8495421938580958E+00   -2.3490295729437451E+00
Br    2.9841985181666378E-02   -3.4132346128308524E+00   -2.4113003815011265E+00
Br    2.9731235547497845E+00   -3.5254268544497349E+00   -5.4646450763204193E+00
Br    2.2798662940732082E+00    1.0677832484306857E-01   -3.0634026168459298E+00
Br    1.3564006762463539E+00   -9.3641805242314593E+00   -9.4376457716221784E-01
Br    3.6284342696606204E+00   -8.4596646623309031E+00   -4.7398863840371197E+00
Br    3.5751275686969550E+00   -5.7186461238919089E+00   -1.5246422611938213E+00
Br   -2.5854028766944008E+00   -5.0239851647264722E+00   -4.8946458566841402E+00
Br   -7.9172666629796327E+00   -3.2307963917994384E+00    7.1663742805827777E+00
Br   -3.5197417929305566E+00   -1.0467821774684585E+00   -2.8882414819802174E+00
Br    4.6976980628002449E+00   -1.1405738622603053E+01   -2.0865078664151415E+00
Br    1.1758827225121324E+01   -1.5846559020051582E-01    2.6245005739048466E+00
Br   -4.4243994541752683E+00   -9.8324333193917717E+00   -6.0419398474409947E-01
Br   -1.1474302668784899E+01   -4.1161839647378100E+00    4.4583683059877597E+00
Br   -8.5950230472909617E+00   -4.3227439354613768E+00    1.0684306249054012E+00
Br    1.3298313533978517E+01   -6.4922005208166897E+00    2.7253200654122107E+00
Br   -1.3569620782466518E+00    8.5617166177242208E+00   -4.9346810779350703E+00
Br    1.1510193594675169E+00    8.6727348369908661E+00   -7.8309411744647273E+00
Br    7.3534598670278128E-01    1.2173033065626681E+01   -5.4476630152182199E+00
Br   -8.4555208321452213E-01    2.2369718211363532E+00   -3.3155886544410578E+00
Br    1.8327760234179551E+00    1.8138391979849229E+00   -6.5956926349278566E+00
Br    8.7418761022799951E-01    5.4953432537309821E+00   -4.7448681605619587E+00
Br   -8.7318417241877500E-02   -1.8871887453432292E+00    3.1077631194778044E+00
Br    2.7177354663505509E+00   -2.2588844816252469E+00    1.0229062944533839E-01
Br    2.6969293903221327E+00    8.5037884138262487E-01    2.0825289235305249E+00
Br    1.6328405602300962E+00   -7.8046454503339913E+00    4.4314914219909678E+00
Br    4.8559123469379939E+00   -8.5388027203604331E+00    1.1559849409260958E+00
Br    3.9881971499261470E+00   -4.8995831635019922E+00    3.9456717199660321E+00
Br   -8.0293053563376038E+00    5.3598858362380923E+00   -1.0015507638604435E+01
Br   -4.8413866628423179E+00    5.2912669017127714E+00   -1.3830232869342680E+01
Br    6.1877699902284515E+00   -1.0386101345337398E+01    4.2168605340451730E+00
Br   -5.5194083490496793E+00    8.9124004721006802E+00   -1.2115109621939164E+01
Br   -4.2578284163146973E+00    3.4404010026052432E+00   -1.0104250238148808E+01
Br   -9.0210607717998581E+00   -8.7152907726980178E-01    3.7175534146880018E+00
Br   -1.5717293796273861E+00   -1.0625469906863172E+01   -4.2189148456678573E+00
Br   -7.0083771853227343E+00    8.1347356095136263E+00    1.6343766150741081E+00
Br   -4.2291451586688424E+00    8.7125789358970174E+00   -1.6714813653013079E+00
Br   -5.1990384246774397E+00    1.1522050699759331E+01    6.6738069135953826E-01
Br   -1.2657424768574659E+00    9.9820870186871531E+00    1.1306919564857654E+00
Br    1.4888698905551117E+00    9.9664775697966608E+00   -1.9915717299064513E+00
Br    2.3640518205147414E+00    1.2858545466235386E+01    8.3050231330355251E-01
Br   -2.1530012058039263E-01    3.8183484430599912E+00    2.5449569179361382E+00
Br    2.0467760522626457E+00    3.6960573406945700E+00   -9.5718033520996759E-01
Br    1.6520617749982176E+00    7.3586088818594542E+00    1.0541448467589232E+00
Br    8.4297304045798327E-01   -8.6159718767416960E-01    1.0034823239987816E+01
Br    3.5123095185654378E+00   -1.0908831635040739E+00    6.3114079287067009E+00
Br    3.1435134729760077E+00    2.1930792863879400E+00    8.5540012020780019E+00
Br    2.0864864912647665E+00   -7.6096190141287687E+00    9.7848347266206641E+00
Br    4.9936510351543504E+00   -7.1399033160548280E+00    6.8437504824639825E+00
Br    4.4643259704257439E+00   -3.6855098638610557E+00    9.2415927440392185E+00
Br   -1.2174559190398204E+01    2.2208798168379906E+00    3.7093302967768729E+00
Br   -9.8945196302539760E+00    1.2939555830430645E+00    2.1923766692697499E-01
Br    5.3409706800867873E+00   -9.5264513151738885E+00    9.8964747074945940E+00
Br   -9.3673649230429366E+00    4.9171489849777279E+00    3.4850949529446766E+00
Br   -7.4933153948315052E+00    2.9510855710682921E-01    9.3769365154521385E+00
Br   -2.3531437519466261E+00   -6.3299591783952840E+00   -9.0716608623671224E-01
Br   -6.2400015770890604E+00    2.8161369105246803E+00    3.1287442147090867E+00
Br   -3.1127596908990114E+00    2.9170767206949817E+00   -3.0792138217392850E-01
Br   -3.3996234142254096E+00    6.0952175420821311E+00    1.7578668833548632E+00
Br   -1.0329082082387386E+00    1.0745546887294575E+01    6.6274559190943982E+00
Br    1.9873824954043307E+00    1.0549686798419483E+01    4.1252452159714270E+00
Br    1.8692978433700969E+00    1.3793412185820022E+01    6.5339613341071523E+00
Br    1.0072233796642219E-01    4.7406795839405742E+00    8.3838462342987405E+00
Br    3.0626264230261482E+00    4.9838081992383305E+00    4.6705666318884544E+00
Br    2.5929970557990552E+00    7.8204601909503282E+00    7.4794554070087349E+00
Br   -4.5265929506981673E+00   -2.6862052763214077E+00    9.4526619757852810E+00
Br    4.1765201981111026E+00   -9.2193016604524924E-01    1.1897885417284506E+01
Br   -1.7912158419205289E+00   -2.1334473128678182E+00    6.6466280644843270E+00
Br   -2.6900266635962744E+00    8.1021820189508620E-01    8.9887804759594552E+00
Br   -1.4144512677255781E+00   -1.2366968041282146E+01    1.2912025070454358E-01
Br    5.5623491758504091E+00   -5.9146611334120172E+00    1.2445424297476400E+01
Br   -1.2325299826265844E+01   -8.5813541146133918E-02   -2.7185047353408778E+00
Br   -1.3694976851333767E+00   -1.1297580778704416E+01    4.6520033662176425E+00
Br   -1.1694598585210823E+01   -4.6985601213601740E+00   -1.5167612823305303E+00
Br    1.2084298280301973E+00    1.0397292530929997E+01    9.6800174641112200E+00
Br   -8.8426709786956827E+00   -5.9366549172280010E+00   -4.5648514039889001E+00
Br   -9.1672734960302584E+00   -2.1162463135740950E+00   -1.8219671209456227E+00
Br    4.2043227380179697E+00    5.8778625175003665E+00    1.1027992146905520E+01
Br   -7.5194180502040258E+00    7.7706403547448657E+00   -3.7807955186972992E+00
Br   -4.9655106490754974E+00    6.8234857791606567E+00   -7.2619426205646755E+00
Br   -4.7268299929966489E+00    1.0433670975962258E+01   -5.6886980892336831E+00
Br   -6.7040753924858576E+00    1.2944653975011327E+00   -2.2106412946080392E+00
Br   -1.0015371630337507E+01   -1.0228598910900088E+01    5.5534318795612103E+00
Br   -4.1466380134781939E+00    1.2902293141885535E+00   -6.1259557381509566E+00
Br   -5.9375362756441872E+00   -5.3448763902136234E+00   -8.2151986160875623E+00
Br   -3.5064780491094720E+00   -5.4466782186842657E+00   -1.1162705893969042E+01
Br   -2.9386611210761320E+00   -2.0197587743514211E+00   -8.3465561771252990E+00
Br   -2.3453394536254173E+00    4.4927841237988222E+00    1.1600744071386174E+01
Br   -3.6047793071861722E+00   -8.5089627210555783E+00    1.0603125509522714E+01
Br   -8.7702207927952069E-01   -7.8904774461974680E+00    7.5440915289646115E+00
Br   -9.0544565193106119E-01   -4.7749306369362650E+00    1.0762453731128039E+01
Br   -7.5468725072703897E+00   -9.1976913252658310E+00    2.0833303105172942E+00
Br   -7.7996311636562687E+00   -6.6433713891692818E+00    4.9532990940861836E+00
Br   -8.5815475853155245E+00    9.2601796475479041E+00    1.0782130885557521E+01
Br    1.1028324249551369E+01    1.0506309364181670E+01    8.9599563195825160E-01
Br   -6.2362208404444273E+00   -7.4246904027380696E+00    1.4255462487834391E+01
Br    1.0669896619321039E+01    8.7633126710429252E+00   -4.8868879261268923E+00
Br    1.1572457093541825E+01    4.2836342968991001E+00    1.1049454350275596E+00
Br   -7.9295667993647854E+00    2.7187889518326389E+00    1.2096043117207888E+01
Br   -1.1422740658332845E+01   -6.7785365325978919E+00   -8.1008289007433198E+00
Br    1.2503733702356220E+01   -9.8469644542121904E-01    7.5152596011134127E+00
Br   -4.1332291645658898E+00   -8.7893917796746770E+00    5.8772851454658177E+00
Br    5.7193886942871179E+00   -3.3691725061739679E+00   -8.8218062531349393E+00
Br    8.7822439770576377E+00   -3.4988065724181561E+00   -1.1820310184534831E+01
Br    1.3920650694165781E+01   -5.6554115183160407E+00    8.6160626091252670E+00
Br    7.9345539244030476E+00    3.1818928119261974E-01   -8.9003273148789628E+00
Br   -6.4456565792228577E+00   -1.1238002534585581E+01    1.1682227343048906E+01
Br   -1.5801502693610121E+00   -8.2315663856830366E+00    1.8840185948254489E+00
Br   -1.7480725372547072E+00   -5.3352526047573576E+00    4.3044183745795683E+00
Br    6.7528460179362160E+00   -9.2310141760714437E+00   -8.0791859933777079E+00
Br   -4.8075313958238421E+00   -1.1126636517637113E+01   -7.2859324277902529E+00
Br    9.8867791890736871E+00   -8.0609336679263297E+00   -1.1228848704522296E+01
Br    9.3999688886964989E+00   -5.7970966233586934E+00   -7.8289176047337898E+00
Br   -3.9921983944748669E-02   -1.1124481310772898E+01    1.0500984500124565E+01