 # Version information for this restart file 
 # current date 2021-06-17 12:44:10.127
 # current working dir /user/ub2042/exercises/2_fitting/MM_MD_workdir/md_settings.004
 # Program compiled at                              Thu Apr 22 21:44:59 EDT 2021
 # Program compiled on                cpn-k07-07-02.compute.cbls.ccr.buffalo.edu
 # Program compiled for                                                    local
 # Source code revision number                                       git:36754bb
 &GLOBAL
   PRINT_LEVEL  LOW
   PROJECT_NAME cp2k
   RUN_TYPE  MD
 &END GLOBAL
 &MOTION
   &MD
     ENSEMBLE  NVT
     STEPS  10000
     TIMESTEP     2.4999999999999996E+00
     STEP_START_VAL  9970
     TIME_START_VAL     2.4924999999995514E+04
     ECONS_START_VAL    -1.4028929475949734E+01
     TEMPERATURE     3.0000000000000000E+02
     &BAROSTAT
       PRESSURE     1.0100000000000000E+00
       TIMECON     9.9999999999999982E+03
     &END BAROSTAT
     &THERMOSTAT
       TYPE  CSVR
       &CSVR
         TIMECON     9.9999999999999982E+03
         &THERMOSTAT_ENERGY
              -2.7347070112293081E-01
         &END THERMOSTAT_ENERGY
         &RNG_INIT
Wiener process for Thermostat # 1        1 F T F   2.7653048661578805E-01        4127636088.0        4103140563.0        2040976024.0         115846524.0         859054296.0        2160992230.0             12345.0             12345.0             12345.0             12345.0             12345.0             12345.0             12345.0             12345.0             12345.0             12345.0             12345.0             12345.0
         &END RNG_INIT
       &END CSVR
     &END THERMOSTAT
     &AVERAGES  T
       &RESTART_AVERAGES
         ITIMES_START  1
         AVECPU     1.7439857659064702E-02
         AVEHUGONIOT     0.0000000000000000E+00
         AVETEMP_BARO     0.0000000000000000E+00
         AVEPOT    -1.4391044641005404E+01
         AVEKIN     5.0396667194271505E-01
         AVETEMP     2.5564642311249779E+02
         AVEKIN_QM     0.0000000000000000E+00
         AVETEMP_QM     0.0000000000000000E+00
         AVEVOL     6.7483345830912264E+06
         AVECELL_A     1.8897261328855686E+02
         AVECELL_B     1.8897261328855686E+02
         AVECELL_C     1.8897261328855686E+02
         AVEALPHA     9.0000000000000000E+01
         AVEBETA     9.0000000000000000E+01
         AVEGAMMA     9.0000000000000000E+01
         AVE_ECONS    -5.0992091118106444E+00
         AVE_PRESS     0.0000000000000000E+00
         AVE_PXX     0.0000000000000000E+00
       &END RESTART_AVERAGES
     &END AVERAGES
     &PRINT
       &ENERGY  SILENT
         &EACH
           MD  10
         &END EACH
       &END ENERGY
     &END PRINT
   &END MD
   &PRINT
     &TRAJECTORY  SILENT
       &EACH
         MD  10
       &END EACH
     &END TRAJECTORY
     &CELL  SILENT
       &EACH
         MD  10
       &END EACH
     &END CELL
     &VELOCITIES  SILENT
       &EACH
         MD  10
       &END EACH
     &END VELOCITIES
     &FORCES  SILENT
       &EACH
         MD  10
       &END EACH
     &END FORCES
     &RESTART  SILENT
       &EACH
         MD  10
       &END EACH
     &END RESTART
   &END PRINT
 &END MOTION
 &FORCE_EVAL
   METHOD  FIST
   &MM
     &FORCEFIELD
       VDW_SCALE14     1.0000000000000000E+00
       EI_SCALE14     1.0000000000000000E+00
       SHIFT_CUTOFF  T
       DO_NONBONDED  T
       IGNORE_MISSING_CRITICAL_PARAMS  T
       &SPLINE
         R0_NB     2.5000000000000000E-01
       &END SPLINE
       &NONBONDED
         &LENNARD-JONES
           ATOMS Br Br
           EPSILON     1.2630795322675199E+02
           SIGMA     3.6900000000000004E+00
         &END LENNARD-JONES
         &LENNARD-JONES
           ATOMS Cs Pb
           EPSILON     8.6920055954630968E+01
           SIGMA     3.6699999999999999E+00
         &END LENNARD-JONES
         &LENNARD-JONES
           ATOMS Cs Cs
           EPSILON     2.2644852172126850E+01
           SIGMA     4.3300000000000001E+00
         &END LENNARD-JONES
         &LENNARD-JONES
           ATOMS Pb Pb
           EPSILON     3.3363415533600227E+02
           SIGMA     5.9000000000000004E+00
         &END LENNARD-JONES
         &LENNARD-JONES
           ATOMS Br Cs
           EPSILON     5.3481070753900497E+01
           SIGMA     3.6300000000000003E+00
         &END LENNARD-JONES
         &LENNARD-JONES
           ATOMS Br Pb
           EPSILON     2.0528187276773045E+02
           SIGMA     2.9800000000000000E+00
         &END LENNARD-JONES
       &END NONBONDED
       &CHARGE
         ATOM Cs
         CHARGE     4.1739999999999999E-01
       &END CHARGE
       &CHARGE
         ATOM Pb
         CHARGE     8.3479999999999999E-01
       &END CHARGE
       &CHARGE
         ATOM Br
         CHARGE    -4.1739999999999999E-01
       &END CHARGE
     &END FORCEFIELD
     &POISSON
       PERIODIC  XYZ
       &EWALD
         EWALD_TYPE  SPME
         GMAX  62 62 62
         O_SPLINE  4
       &END EWALD
     &END POISSON
     &PRINT
       &FF_INFO  LOW
         SPLINE_INFO  F
         SPLINE_DATA  F
       &END FF_INFO
     &END PRINT
   &END MM
   &SUBSYS
     &CELL
       A     1.0000000000000001E+02    0.0000000000000000E+00    0.0000000000000000E+00
       B     0.0000000000000000E+00    1.0000000000000001E+02    0.0000000000000000E+00
       C     0.0000000000000000E+00    0.0000000000000000E+00    1.0000000000000001E+02
       PERIODIC  XYZ
       MULTIPLE_UNIT_CELL  1 1 1
     &END CELL
     &COORD
Cs   -5.1746380077240006E-01   -1.2267519861614173E+00   -6.0418358506679182E+00
Cs    1.3013929146422007E+00   -6.4019651502112769E+00   -4.8501327810542056E+00
Cs    1.3572081024917724E+00   -1.2335596714195539E+01   -3.7515924300328787E+00
Cs   -4.8410296882677493E+00   -8.8312169004754022E+00   -4.1953523099183414E+00
Br   -6.7307283787632395E+00   -1.4871688628851350E+01   -5.7748129986623011E+00
Br    1.1448110061441108E+01   -2.9644678257520831E+00   -8.7134843533819364E+00
Br   -3.8070837474685435E+00    3.6932838765052817E-01   -1.1726637266176354E+01
Cs   -1.5464244688526805E+00    4.2348414851194827E+00   -6.4728867402232693E+00
Cs   -1.2143427420834645E-01    2.0411344904637826E-01    4.2565976304116238E-01
Cs    1.7066074483207274E+00   -6.3031984354986665E+00    1.1914606883542116E+00
Br   -4.4576111652850914E+00   -3.6859163011209897E+00    3.9538964363563314E+00
Cs   -9.0830234234037803E+00   -5.0413896808051399E+00    1.2895631200281649E+01
Cs    1.4349984490784060E+01   -8.6638443362822333E+00    1.0212912075454375E+00
Cs   -6.6758186279919789E+00    5.3177470295911187E+00   -1.0914206031498206E+00
Cs   -1.6908830632924423E+00    1.1601985647097381E+01   -1.9272259236460629E+00
Cs   -4.6875660548114895E-01    4.9052894951232071E+00   -6.7286063126437101E-01
Cs    4.5327096990184834E-01    1.6591319728712690E+00    6.2582665465303613E+00
Cs    9.7542391737719303E-01   -4.6194873592127381E+00    6.8327756805688544E+00
Cs    2.6605392749124714E+00   -1.0564980842690778E+01    8.9996450187616954E+00
Cs   -6.5279651217157877E+00    7.2598556495847184E+00    1.0428769414232962E+01
Cs   -7.9435476920826149E+00   -3.4434292637980772E+00   -1.0921963448363694E+01
Cs   -4.4069809775710080E+00   -1.4114136478092684E+01   -2.9831514921245539E+00
Cs   -5.1861836205258314E+00    1.0832038152837294E-01    6.5375493918121510E+00
Br   -2.7494877648025575E+00   -3.6458717754000776E+00    7.5375150490956089E-01
Cs   -1.0502700175654369E+00    7.0980893818680677E+00    4.6791813036223378E+00
Br    1.2168638490706696E+01   -8.2920189724805162E+00   -9.5099845101845037E+00
Cs    2.5304754329824215E+00   -3.5147447241174743E+00    1.2112587593598390E+01
Br   -2.3518844463629041E+00    1.6258264226016911E-01    3.3586718124587911E+00
Br   -7.0672328443892392E+00   -2.1757197360202869E+00    1.2866706606383129E+01
Cs    9.2435008264440022E+00    1.2512542415014604E+01   -9.5272629409804228E+00
Cs   -9.8643991259454307E+00   -6.6980092929538468E+00    7.7121892793250790E+00
Cs   -4.0843088127169693E+00   -5.4501330888405208E+00    7.7010295938463180E+00
Cs   -9.0265009752882470E+00    9.3624367596040958E+00   -8.0255958871528748E+00
Br   -9.9349251652995623E+00   -7.8378984916985894E+00    1.1168710077470783E+01
Br   -6.9484473115999892E+00   -9.1881064506014596E+00    8.4065071196474470E+00
Cs   -1.1146062402733399E+01   -8.1463822643900965E+00   -3.2775306302261438E+00
Cs   -7.3280584076482294E+00    3.8031973826754903E+00   -6.9277439571050152E+00
Br   -6.6704799285690397E+00   -5.8108275050274392E+00    9.7381531587390278E+00
Cs    1.1641364025949455E+01    9.4436758246950383E+00    8.7464870448893990E+00
Br   -1.2695023692327949E+01    8.1383442198571796E+00    6.9761145688575583E+00
Br   -5.7190123269896782E+00   -4.6427390686298207E+00   -1.5757607770713904E+00
Cs    9.2259075287292736E-01    2.2490082229879027E+00    1.1428939232850775E+01
Cs    1.0640410299210011E+01    6.4411648817048128E+00   -2.3525313508488086E+00
Cs   -1.1613580570658325E+01   -9.8321095292668126E+00   -8.4566836007545216E+00
Cs    1.1685414079889464E+01    3.3646312614034088E+00    5.5033309853533492E+00
Cs   -1.4584669289048987E+01    7.7604713743455864E+00   -7.1025526857015109E+00
Cs    1.4941466424275253E+01   -8.4942969232471377E+00    6.3088532674558966E+00
Cs    5.6002170502973421E+00   -7.1674017143286042E+00   -1.0237785602066495E+01
Cs    9.2432168468147609E+00   -8.6268166479012649E+00    7.2457770435624074E+00
Cs   -3.3107025030061754E+00   -1.2175096143513406E+01    2.9140175457668969E+00
Cs    8.3069114081423443E+00   -1.2805880553302664E+01   -1.0473220134591232E+01
Cs    9.0443214901114111E+00    7.9715906267902978E+00   -8.0248355112761107E+00
Cs    1.0192955740168657E+01    1.5587614745601336E+01    5.4120730891713924E+00
Cs    9.2778489359027372E+00    5.8017159826680222E+00   -1.3203798387832720E+01
Cs   -5.7220846671853609E-01   -8.6299437932735383E+00   -1.0280448926659021E+01
Cs   -1.1263750672171152E+01   -2.7906035923043087E+00   -5.5267653336961216E+00
Cs    7.9221821560067589E+00   -2.2828667130458560E+00    1.1187813715221413E+01
Cs    1.2843529607861777E+01   -2.2144637742940945E+00    6.1402101753218705E+00
Cs   -3.7740320016018245E+00   -8.6047666021154523E+00    1.5121764785453401E+01
Cs   -9.5807474761934885E-01   -2.0831494513465785E+00   -1.0577679560989559E+01
Cs   -8.9611782737170276E-01    1.2030398324758286E+01    3.7337766748390111E+00
Cs   -1.7037180776467260E+00    3.5982715072005953E+00   -1.2494622850572487E+01
Cs    5.2281471628115268E+00   -7.2169513632466664E-01   -6.7611563786218172E+00
Cs    6.3119036844706518E+00   -6.5516683506589368E+00   -5.4261334632536409E+00
Cs   -3.2659241213908725E+00   -1.0840376079401905E+01    8.4985834306297363E+00
Cs   -1.0809288299549248E+01   -1.1083912900197936E+00    7.4606031905375234E+00
Cs    4.3064827032874611E+00   -9.8826505261514652E-01   -1.1739675974725227E+01
Cs    2.7245214885617917E+00    1.0595058829181875E+01   -1.3109174711335605E+01
Cs   -1.7157451241988725E-01    8.1203824118752763E+00    1.0847143508282260E+01
Cs   -6.8330461981352446E+00    1.0794856434971908E+01    4.2495805962880349E+00
Cs    2.5740016129254011E+00    1.0510170008254230E+01   -8.6250014106768838E+00
Cs    3.6828349370081721E+00    5.1993418598997598E+00   -6.6239593208617977E+00
Cs    5.2593076272727899E+00    9.5166773878049138E-01   -1.0094033322460654E+00
Cs    6.9656008407003851E+00   -4.6475585933238044E+00    4.1441734329812485E-01
Cs    8.5025124597393127E+00   -9.0213082289773787E+00    1.7272209760555790E+00
Cs    4.1126610138494977E+00    4.1159540002054342E+00   -1.1954003490172909E+01
Cs   -6.1009957512355362E+00    4.9475030034734768E+00    5.1095298246184031E+00
Cs   -5.5942210812740800E+00   -8.3130571270287579E+00   -9.5693836586646697E+00
Cs    5.1410745314995125E+00    6.5433753481190671E+00   -1.5219274163719581E+00
Cs    6.7729820054985934E+00    2.3454660376656986E+00    4.6110065563181095E+00
Cs    7.2524896051995746E+00   -3.1772156922475028E+00    6.5080378463330284E+00
Cs   -7.9148580354530820E+00    1.0378388497572374E+01   -1.1306707729266599E+00
Cs    1.2045415067101914E+01    1.9055382566101431E+00   -9.6949863548205861E-01
Cs   -5.7999084008470483E+00   -1.2410880005155547E+00    3.2300151116261044E-01
Cs   -1.2354909390234035E+01    5.4892993298030817E+00    4.7115765057441594E+00
Cs   -4.7187476566618898E+00    1.5085123573916353E+00    1.1227570332038407E+01
Cs    4.8869044556202095E+00    1.3311271002955570E+01    2.9034006157284962E+00
Cs    5.8162504780244024E+00    7.9566629090851793E+00    4.4443301790506382E+00
Cs    6.1204490535490459E+00    3.1543891411644935E+00    1.0088082181284708E+01
Cs    3.7281143437196866E+00    1.1858261424680750E+01   -2.2887101976647055E+00
Cs    1.0754092560124722E+01    1.2240009671478496E+00   -6.4161341643630037E+00
Cs    1.2079712931164236E+01   -5.1838794403210482E+00   -6.3668199129408487E+00
Cs    8.4879739512735153E+00   -7.5677393727694477E+00    1.3155465866459402E+01
Cs    7.9590336219681390E+00    1.2988778567155782E+01   -3.2661741624847132E+00
Cs   -1.0607023976220923E+01    2.0951561418893189E-01    1.1900209994415039E+01
Cs   -6.8961138026065845E+00    2.6054823446781601E+00   -1.1936879400527936E+01
Cs   -1.2329223207668754E+01    9.4456211592267163E+00   -1.6327509729921101E+00
Cs   -3.2978400302858146E+00   -3.8741212203992781E+00    1.2546316712262993E+01
Cs    2.1288679970246096E+00   -8.2609876071342843E+00    1.4549921998338709E+01
Cs    6.6840156601164464E+00    9.1700430343693835E+00    9.8026931087475067E+00
Cs    1.2913475427512653E+01   -2.9813063732635330E+00    6.5225407554195780E-01
Cs   -1.0808428702385756E+01   -2.3677471809013046E+00    1.3759964704800676E+00
Cs   -8.6245987713754833E+00    8.0959599916424789E+00   -1.3442148907210544E+01
Cs   -1.1707357546380255E+01    4.0836256520546090E+00   -5.1960783257257503E-01
Cs   -9.9850959971939197E+00   -1.4281396421367534E+01   -2.7581891742852496E+00
Cs   -1.0220112326753656E+01   -7.4674700456126315E+00    2.7793376875362932E+00
Cs   -4.9810561764997736E+00   -6.5749479707400624E+00    1.9489043207259262E+00
Cs   -9.2384057648398148E+00   -1.1327053501068288E+01    8.8739310297658331E+00
Cs    1.1878483827764558E+01   -1.5965170256259265E+00    1.2268873003951867E+01
Cs    1.1687295062682450E+01    9.0896361310490583E+00    2.8721533192454398E+00
Cs   -1.2397960882969441E+01    2.3932583065305684E+00   -6.3935783013236360E+00
Cs   -5.8800932719735339E+00   -1.8853172805692855E+00   -5.0756943590289980E+00
Cs   -9.1437650027309019E+00   -1.3531582804664092E+01    2.9345871497604454E+00
Cs    9.3660252446669645E+00   -6.8407495794124245E+00   -1.2223358946708155E+01
Cs   -4.5197419343881666E+00   -1.4335435191679485E+01   -8.5013817211316880E+00
Cs   -2.7029176961405184E+00    8.4925183102150648E+00   -1.3326292837283232E+01
Cs    8.3866745136933052E-01   -1.3466945300866579E+01   -8.3351952051019396E+00
Cs   -2.8209175013828163E+00    1.0490923463526316E+01   -7.8597162903057125E+00
Cs   -7.4562167056224284E+00    1.2474960074493538E+01    9.0285155142203504E+00
Cs    2.3152620172165959E+00   -1.2248481858293852E+01    2.9012986358999795E+00
Cs   -1.2452797015139769E+01   -3.7041858590336756E+00   -9.9072411793604314E+00
Cs   -1.3364318068592736E+01    9.9700647814770420E+00    4.2336244194688382E+00
Cs    7.0715906081582034E+00   -1.1019595531902278E+01   -4.7656746708366260E+00
Cs    1.0996715200025193E+01   -9.9717666351675760E-01   -1.1881204339119664E+01
Cs   -1.7163471657072675E+00    1.2979267485792560E+01    8.5549222378726402E+00
Pb    3.3445176286787679E+00   -3.0461683703552627E+00   -2.4839169297136108E+00
Pb    4.4470733682802832E+00   -8.4417244240830964E+00   -1.4149750201401698E+00
Pb   -7.8114579467607568E+00   -4.1164712718201608E+00    4.5295142259684242E+00
Pb   -1.5305724623916628E+00   -1.0041185714234491E+01   -9.3370501629111924E-01
Pb    7.7684941864027057E-01    8.7287873812050467E+00   -4.5792892185049690E+00
Pb    1.7150983145484715E+00    2.7256636230562763E+00   -3.6788371171281606E+00
Pb    3.8691546096701526E+00   -2.1143146475659020E+00    3.2543671238458542E+00
Pb    5.3606319770363617E+00   -7.6529868782917898E+00    4.4899754493120181E+00
Pb   -3.9890528834685837E+00    8.5214496223317973E+00    1.0666427949169406E+00
Pb    1.8355979449041553E+00    9.7371729686011861E+00    1.0279153186737120E+00
Pb    3.1222960492353997E+00    3.5746857963381347E+00    2.3042133800647484E+00
Pb    4.2177160561330957E+00   -7.1532902795274733E-01    9.0405242959251417E+00
Pb    5.3667224172131709E+00   -6.4477294024686129E+00    1.0417842376734606E+01
Pb   -3.0503781277209678E+00    2.8923909217231363E+00    2.4939447190728723E+00
Pb    2.1370589705720118E+00    1.0814858985157327E+01    6.9867591016975492E+00
Pb    3.3731139859803934E+00    5.1995915250597537E+00    8.0112382470788077E+00
Pb   -1.4456517800931401E+00   -1.6685693705283611E+00    9.7042477694715092E+00
Pb   -6.4656066593464381E+00   -9.8145634721212485E+00    5.3787228215768925E+00
Pb   -9.8550692454694531E+00    5.7839920653505306E-01   -2.8393424063777490E+00
Pb   -3.5137302121615304E+00   -4.6860992877482106E+00   -8.0408575236339299E+00
Pb   -5.8769574365740629E-01   -8.4689727447148879E+00    4.8861191778248445E+00
Pb   -5.0392299705763941E+00    7.2765197448357188E+00   -4.6283751807528031E+00
Pb   -8.2278761140585310E-01   -7.7202781522084845E+00    1.0954891608818302E+01
Pb   -8.6148794677354399E+00   -5.0599774361448269E+00   -1.3500977338138667E+00
Pb   -7.0744741354915472E+00   -1.0672507544794056E+01   -7.8439090976091175E-01
Pb   -4.0642980165316978E+00    1.6710971537214867E+00   -3.0207355140004850E+00
Pb   -6.9111979544982898E+00   -8.3039948685626825E+00    1.1500345394834698E+01
Pb   -9.2486748827658580E+00   -6.3011700675163018E+00   -7.4072621515133257E+00
Pb    8.4949086524417332E+00   -3.5023034310931935E+00   -9.0276224285018944E+00
Pb    9.6991105040072405E+00   -9.2994352061159269E+00   -8.3286688262209800E+00
Pb   -2.4626009142230934E+00   -1.0812057839455868E+01   -6.9302993847378467E+00
Pb   -1.1241850846118176E+01    5.6310176976309210E+00   -1.0340869883709901E+01
Pb    2.4450445184967471E+00   -3.8915072149435588E+00   -8.4376307232703560E+00
Pb    3.4477522629309276E+00   -9.6838581730285860E+00   -7.5550685645361675E+00
Pb   -3.8639658065418279E+00    9.3831155731993099E-01   -8.8569354771368136E+00
Pb    5.6080628056228676E-01    7.3399206906823729E+00   -1.0180275167704051E+01
Pb    1.7222282450080415E+00    1.7589300213195829E+00   -9.4768525224737985E+00
Pb    9.2387480227054830E+00   -1.6725281611531662E+00   -3.2504879394075239E+00
Pb    1.0343325721138100E+01   -7.6176448214036219E+00   -2.5081479513717593E+00
Pb   -7.2045522660867505E+00   -2.7516638925763894E+00    1.0196264510672220E+01
Pb    6.2049346179897649E+00    8.5081991299915032E+00   -1.1207840942698967E+01
Pb   -9.4819036185485892E+00   -4.4531853845851666E-01   -8.5254480972743831E+00
Pb   -3.9468935462352679E+00    9.7791940603237641E+00    6.7789163598822713E+00
Pb    6.3538308994699264E+00    1.0089626179172186E+01   -5.4753226626937845E+00
Pb    7.8333101624186927E+00    3.9349425745571689E+00   -4.6665821582576523E+00
Pb    9.5316555831977450E+00   -5.7283638923905689E-01    2.5233019340741638E+00
Pb    1.1140300483230513E+01   -6.4067295514259204E+00    3.7988895277583947E+00
Pb    7.7715753171971587E+00    2.5325206340654733E+00   -1.0365803266350058E+01
Pb   -2.8602044522973564E+00    4.1412050797209279E+00    8.3128947986295945E+00
Pb    7.5204923262651420E+00    1.0605601463105629E+01    2.4848647459924419E-01
Pb    8.6791067028730708E+00    5.0880387383157437E+00    1.5169170807130079E+00
Pb    9.8974307995554707E+00    4.3705983168450907E-01    8.2437535493366116E+00
Pb    1.1376680108547413E+01   -5.1763479791977431E+00    9.8317421206012892E+00
Pb    7.8590851589736062E+00    1.1620762873009465E+01    6.2292798507415394E+00
Pb    9.1891605823878120E+00    5.9195335859880807E+00    7.1471088829925593E+00
Pb   -8.9314812909750909E+00    2.8078447625464986E+00    8.9540023873489716E+00
Pb   -2.0598667451776653E+00   -2.6193543668798664E+00    3.7796977325595100E+00
Pb   -9.9070223324921134E+00    8.0532019174346861E+00    1.5434965399795553E+00
Pb   -1.0510465927994508E+01    6.3402456907543581E+00   -4.1601562552807305E+00
Pb   -8.0964132662558406E+00   -1.2163659688520450E+01   -6.4491214211425385E+00
Pb   -5.2218017193277539E+00    6.7065289224317262E+00   -1.0507409360763074E+01
Pb   -8.8876282254620005E+00    1.8870564248820991E+00    3.2801152647740532E+00
Pb   -9.8868977717260922E+00    8.5768467426290389E+00    7.4215741096106136E+00
Pb   -2.6547147812346821E+00   -3.9972011691051859E+00   -2.2251517067348989E+00
Br    2.8157105660894416E-01   -3.3649997663576334E+00   -2.7082505644161352E+00
Br    2.9220103215326394E+00   -3.4196874122996670E+00   -5.4056163267285342E+00
Br    2.5148917183604773E+00    7.8385119165886419E-02   -2.6964081519315806E+00
Br    1.3195409436151275E+00   -8.7407898715284489E+00   -1.0571598887455640E+00
Br    3.7975028847593189E+00   -9.0469278469930128E+00   -4.4970285467438558E+00
Br    4.2710133233509886E+00   -5.5742154778821122E+00   -2.6981878557969727E+00
Br   -3.5557518799769876E+00   -4.2089262934663001E+00   -5.3377225446803740E+00
Br   -7.9755924688705058E+00   -3.2968548364111028E+00    7.2509163505660572E+00
Br   -3.2250840647380441E+00   -1.0738584698912996E+00   -3.2575658534315339E+00
Br    3.7731600191122552E+00   -1.1202009870717866E+01   -1.0544255751915810E+00
Br    1.2601161489132199E+01    5.6024570462275027E-02    2.0913029540165793E+00
Br   -4.3871324013650748E+00   -1.0756202549111057E+01   -6.4343617618897875E-01
Br   -1.0630317446815976E+01   -4.3314615503082043E+00    4.5611676215002070E+00
Br   -8.2257809539990614E+00   -4.9346739885325617E+00    1.7381581726177080E+00
Br    1.3966066044067755E+01   -6.1108252502728755E+00    3.7553738318303092E+00
Br   -2.1818837314076354E+00    8.1839635730335107E+00   -4.7299112753105392E+00
Br    6.1341501932030140E-01    7.4676897064273629E+00   -7.2027537349895709E+00
Br    4.4761639138742332E-01    1.1082281175718583E+01   -5.9990169936432007E+00
Br   -1.1467426122750024E+00    2.0247540704448173E+00   -3.2345632700063063E+00
Br    1.5391511467808814E+00    2.2624709154786431E+00   -6.4797102769291577E+00
Br    1.3260122598859703E+00    5.5512148616185852E+00   -3.9141151240453667E+00
Br    9.8386595722331527E-01   -2.2517679359162290E+00    3.5005905976937886E+00
Br    2.8068867415442003E+00   -2.9295728785930004E+00    4.1097576293822935E-01
Br    3.2314943334554518E+00    9.0529275662084996E-01    2.5395260568154758E+00
Br    2.4553102987708177E+00   -8.1620723508894191E+00    4.1687932437174151E+00
Br    5.2237546726033477E+00   -7.5356680491946211E+00    1.3496730689259264E+00
Br    4.9210062413054292E+00   -4.6857692660029562E+00    3.8880025201333650E+00
Br   -8.0898239996699370E+00    5.9614341661466463E+00   -9.8423907526377565E+00
Br   -5.4942947309793180E+00    6.1797018785311995E+00   -1.3564428666519573E+01
Br    6.2458497899914649E+00   -1.0655832249497189E+01    4.6028296702410296E+00
Br   -5.9846809781009016E+00    9.3075624671965098E+00   -1.0869637994294411E+01
Br   -4.3856484008539089E+00    3.8692330433852464E+00   -9.7661577283707022E+00
Br   -7.5814467358394149E+00   -1.3425565124291057E+00    3.6564790229419040E+00
Br   -1.7133938756386344E+00   -1.0429035102713685E+01   -3.8375444580858722E+00
Br   -6.9930770929354455E+00    7.7233420352308348E+00    1.3941100612283561E+00
Br   -5.0590157760836334E+00    8.1162438653314108E+00   -1.9316583235483207E+00
Br   -4.4652497353066822E+00    1.1332701263329218E+01    2.8501641937124761E-01
Br   -1.2706464098204484E+00    9.1591807755965498E+00    1.2512913375095527E+00
Br    1.7005570005523203E+00    9.2989501429937693E+00   -1.7089358004007809E+00
Br    1.1747992240610707E+00    1.2306479736430219E+01    1.6326910043436907E-01
Br   -1.6504155198227302E-01    3.4894057979007083E+00    2.9381181323677663E+00
Br    2.4549922410412193E+00    2.9315323134240048E+00   -4.7901885370112701E-01
Br    2.5763746674587167E+00    6.7291319948577639E+00    1.4156687634680574E+00
Br    1.2215162139344813E+00   -9.3117466309532748E-01    1.0006920245778826E+01
Br    3.7153286244848047E+00   -1.7923480074356479E+00    6.1003854580404484E+00
Br    3.3080577106047917E+00    1.9013791032641789E+00    8.9894227792622488E+00
Br    2.6896849963901368E+00   -7.0277263064697859E+00    1.1545355220244963E+01
Br    5.6933506814098713E+00   -7.7364318884291849E+00    7.3346175507744640E+00
Br    4.7184025602754875E+00   -3.5159229625026853E+00    9.7084953394020754E+00
Br   -1.1684999816684876E+01    1.1837428506374863E+00    4.1594201903101178E+00
Br   -9.5672648386058778E+00    1.1248073765194442E+00    4.1551569349676504E-01
Br    6.0669306161660934E+00   -9.0868498812445448E+00    1.1094009562849386E+01
Br   -9.4324975045922415E+00    4.5267414872058698E+00    2.4367804374093525E+00
Br   -7.5232311096149642E+00   -1.3566138095035901E-02    9.5432573753955250E+00
Br   -2.3319457154992169E+00   -6.7663808849541036E+00   -2.3476149805279629E+00
Br   -6.0764786815252698E+00    1.9023708305164122E+00    2.6494004444245465E+00
Br   -3.3821467368333633E+00    1.5491722188371080E+00   -2.5095236948328115E-01
Br   -3.3239039971308393E+00    5.4698701752512182E+00    1.2209549100819024E+00
Br   -1.0426340055524443E+00    1.0359236675338250E+01    6.5835078980406294E+00
Br    2.4509101785815366E+00    1.0853955372293585E+01    3.6769022882894045E+00
Br    1.5054042362632838E+00    1.3519492796337087E+01    6.7069610643627060E+00
Br    5.0805138595217658E-01    4.4273970972284165E+00    8.3912536404416649E+00
Br    3.3348320465132519E+00    4.1611742938880774E+00    5.1892507197264468E+00
Br    2.1185885754250990E+00    7.7370068498811042E+00    7.6686695073954319E+00
Br   -4.1642230393870339E+00   -2.1717569853282601E+00    9.5788729402295942E+00
Br    5.1919223809173625E+00    4.8850291379778817E-02    1.1836126736300118E+01
Br   -1.6733574800768931E+00   -2.6366855541764473E+00    6.7303993131213264E+00
Br   -2.2356238083658364E+00    1.4527030545159032E+00    8.6083423458896426E+00
Br   -6.0511868447393780E-01   -1.2875885020694962E+01   -8.6873859589417057E-01
Br    5.9183743578873074E+00   -5.6469548120851742E+00    1.3241723672494507E+01
Br   -1.2517439273980292E+01    6.1185706526403916E-01   -3.6029019685988519E+00
Br   -9.4244444723344434E-01   -1.1260872274331469E+01    5.7317432053110986E+00
Br   -1.1594781867176444E+01   -5.2986405266418570E+00   -1.0651222112970449E+00
Br    8.2788930931691773E-01    1.0938692798152429E+01    9.7979753316092033E+00
Br   -9.2465063704338633E+00   -5.5060448388842920E+00   -4.3031811494659973E+00
Br   -9.5718781648590685E+00   -2.3166539261412122E+00   -1.9163667341345643E+00
Br    3.6198971557116333E+00    5.5967918402497743E+00    1.0729718141443159E+01
Br   -7.6455902966637064E+00    6.1737551422468488E+00   -4.3104472964490776E+00
Br   -5.2800391860655349E+00    6.5387756803295414E+00   -7.5692698083556884E+00
Br   -5.7217896818217451E+00    1.0124189328377261E+01   -5.5032034876213638E+00
Br   -7.0886852350199883E+00    9.8419283171797356E-01   -3.0210535835635079E+00
Br   -9.1367081679419293E+00   -1.1380379943753001E+01    5.6476321535607603E+00
Br   -4.3136848157502605E+00    1.7831512553362594E+00   -6.0742793024601136E+00
Br   -6.3678577943028145E+00   -5.8211225432687215E+00   -7.4580084629298602E+00
Br   -3.8843440226817747E+00   -5.3546461865916184E+00   -1.0656741458647156E+01
Br   -2.9260670204158421E+00   -1.7997020910045984E+00   -8.0059725337553616E+00
Br   -2.6484619400887168E+00    5.1719458889555217E+00    1.1006490938364109E+01
Br   -3.8799056783364714E+00   -7.8176830977767144E+00    1.1052151720834232E+01
Br   -2.5608737278829091E-01   -8.0354826954690992E+00    7.6574854931612837E+00
Br   -2.9055817053933408E-01   -4.6862077972978673E+00    9.8053423172890142E+00
Br   -6.8330986963008611E+00   -9.9526643642274912E+00    2.7366570451675853E+00
Br   -7.2010258357886894E+00   -7.0269369532779917E+00    5.3340498509300467E+00
Br   -9.2423313236227145E+00    9.9378127098829250E+00    9.7581852736067756E+00
Br    1.0370809818256232E+01    1.0740407906049713E+01   -2.0125437301325579E-02
Br   -5.7880662415743158E+00   -6.0338225838660273E+00    1.3750897508378189E+01
Br    8.9087439681567773E+00    1.1220081716133853E+01   -6.7142871642627187E+00
Br    1.1555943458786881E+01    5.6906941618107973E+00    5.8481756624910786E-01
Br   -8.1313033063650710E+00    2.6757331681089238E+00    1.2458364753235417E+01
Br   -1.2143226389801818E+01   -6.7349768860098180E+00   -6.7936832986839777E+00
Br    1.2734883828390602E+01    9.8543382593803219E-01    7.5214866380223118E+00
Br   -3.6747763644635056E+00   -8.9933988816466535E+00    5.8196500806797706E+00
Br    5.3977319286689065E+00   -3.5945860257955951E+00   -8.8759331151214287E+00
Br    9.1607015388610780E+00   -3.5514230404340390E+00   -1.1779115761887679E+01
Br    1.4002811234085659E+01   -5.3722308519183102E+00    9.4854388520287536E+00
Br    7.8130007049432990E+00   -4.0905939829410798E-01   -1.0172301571785168E+01
Br   -6.4335462130116836E+00   -1.0672692008214495E+01    1.2903951440826376E+01
Br   -1.7104328550390375E+00   -8.9872783324783558E+00    2.1448891211333074E+00
Br   -8.9341903726426453E-01   -5.5525116859895176E+00    4.2771413316922269E+00
Br    6.3864333177218642E+00   -9.2595078016723349E+00   -7.7537551682449575E+00
Br   -5.1383330418875675E+00   -1.1356104672192290E+01   -7.1207660120475751E+00
Br    7.5075905878410243E+00   -9.7834274750918446E+00   -1.1918740303198765E+01
Br    8.6930708873819995E+00   -6.7144464585127208E+00   -9.0894916028612194E+00
Br    1.9283405029834478E-03   -1.0299150390503096E+01    1.0862260783763430E+01