&CONTROL
    calculation   = "scf"
    prefix        = "ZnTHPP_dimer"
    outdir        = "temp"
    pseudo_dir    = '/u/fzheng/0.qe_calculations/pseudos/SSSP_efficiency_pseudos'
    etot_conv_thr = 1e-5
    forc_conv_thr = 1e-4
/

&SYSTEM
    degauss     =  1.00000e-02
    ecutrho     =  400.0
    ecutwfc     =  40.0
    ibrav       = 0
    nat         = 162
    ntyp        = 5
    occupations = "fixed"
    smearing    = "gaussian"
    nbnd        = 344
    nspin       = 1
/

&ELECTRONS
    conv_thr         =  1.00000e-10
/

&IONS
/

&CELL
/

K_POINTS {gamma}

ATOMIC_SPECIES
C      12.01070  C.pbe-n-kjpaw_psl.1.0.0.UPF
N      14.00674  N.pbe-n-radius_5.UPF
H       1.00794  H.pbe-rrkjus_psl.1.0.0.UPF
Zn     65.39000  Zn_pbe_v1.uspp.F.UPF
O      15.999    O.pbe-n-kjpaw_psl.0.1.UPF

ATOMIC_POSITIONS {angstrom}
C       14.552712154  10.561739696  16.552986263
C       15.902245117  10.761905088  16.602762338
C       16.118410840  12.189806564  16.568390808
C       17.382539763  12.807366543  16.614908753
C       17.595152146  14.194975200  16.640740874
C       18.898088794  14.813490906  16.709962077
C       18.699652921  16.162785111  16.733556363
C       17.270973200  16.379345687  16.684770881
C       16.654785161  17.642158394  16.730690823
C       15.265016457  17.867648959  16.739738212
C       13.077839761  17.545336367  16.655340133
C       11.597042577  15.536175943  16.572615027
C       11.813901338  16.926861082  16.576652960
C       11.926545629  13.347832438  16.525109876
C       10.497943654  13.560845597  16.564360334
C       10.293995270  14.911478088  16.593211793
C       13.934300595  11.865961186  16.498216841
C       12.545246704  12.083948020  16.472115947
C       14.640969672  19.169146482  16.832144641
C       13.290841779  18.970204149  16.770026279
C       17.552031174  18.838787075  16.750296142
C       17.987357011  19.400958898  15.543325289
C       17.978246189  19.427970388  17.949945501
C       18.807327699  20.529515895  15.529664566
C       18.799333549  20.555792346  17.950530038
C       19.214218284  21.112556082  16.734252203
C       18.594063957  11.929843957  16.682812679
C       19.156922006  11.590170470  17.922541450
C       19.203685594  11.436667217  15.521122974
C       20.268893282  10.752205593  18.007208010
C       20.319271906  10.601846292  15.592976600
C       20.842652413  10.239538270  16.837245917
C       10.623495272  17.826582094  16.434173176
C        9.906912394  18.303180371  17.541532260
C       10.221103530  18.242275009  15.155646314
C        8.838781809  19.185755984  17.380890255
C        9.152050164  19.120802910  14.981467710
C        8.466380485  19.608596629  16.099788064
C       11.658203306  10.880373136  16.374373714
C       11.107436938  10.286860893  17.519198968
C       11.343083137  10.326089625  15.124499415
C       10.235321679   9.202430606  17.425187192
C       10.471474907   9.241925500  15.017018343
C        9.895920465   8.693559347  16.166672766
C       12.168254123  12.262543147  11.726685224
C       13.227500998  11.403776496  11.778479538
C       14.423169101  12.207964671  11.871338504
C       15.730102661  11.689154968  11.924658440
C       16.900150974  12.465741289  11.973664795
C       18.238053570  11.918600673  11.958383105
C       19.099813228  12.975937298  11.997831975
C       18.293921584  14.175476317  12.029912775
C       18.818552152  15.480397869  12.033944274
C       18.047159501  16.656461558  11.958679945
C       16.334522038  18.055144170  11.879709484
C       13.851683313  17.803749235  11.792965278
C       15.026494349  18.576424319  11.857273303
C       12.455997564  16.087861094  11.718078689
C       11.657838814  17.289289736  11.615666348
C       12.519543918  18.347565193  11.674067271
C       12.707467270  13.602772823  11.782986844
C       11.937672917  14.779393587  11.720537891
C       18.595188293  17.991925467  11.880454799
C       17.537872659  18.858282184  11.830641737
C       20.308405379  15.616647364  12.128739317
C       21.104603112  15.717975277  10.977483877
C       20.945153132  15.641048709  13.378462041
C       22.488348769  15.875231188  11.063823345
C       22.328381308  15.797923705  13.477635157
C       23.103195755  15.929311007  12.319703603
C       15.888161148  10.199768237  11.892088186
C       15.917252032   9.447734041  13.074522964
C       15.994241604   9.520894107  10.668320013
C       16.025158813   8.055811058  13.040000949
C       16.101303695   8.131185300  10.621557997
C       16.109606561   7.391774178  11.810380836
C       14.887981594  20.065185766  11.958869675
C       14.866003505  20.671405081  13.224035135
C       14.802340276  20.893085254  10.831037802
C       14.776086610  22.056513168  13.358873912
C       14.712716577  22.280092583  10.950857417
C       14.703342193  22.867823887  12.222040279
C       10.448396992  14.639993383  11.676210090
C        9.712123092  14.629158408  12.868569433
C        9.749458727  14.547493366  10.464932418
C        8.320911948  14.534600934  12.850760958
C        8.358287637  14.453070419  10.431014082
C        7.639448571  14.451914320  11.633400900
N       14.906020066  12.841208503  16.509266150
N       16.621300143  15.167511639  16.622583532
N       14.292486790  16.896334915  16.649678662
N       12.575227328  14.564665932  16.544385809
N       14.080678888  13.542344002  11.875305170
N       16.959195076  13.840172757  12.016535997
N       16.669982036  16.721120130  11.944372390
N       13.787223675  16.427682057  11.814466262
Zn      14.597595595  14.871162874  16.537942147
Zn      15.365044161  15.137333994  11.958459557
H       19.454685224  16.940892995  16.787471724
H       19.842242371  14.277728016  16.737599132
H       16.687101089  10.013650212  16.672050521
H       14.014760273   9.617842292  16.554426826
H        9.752711370  12.768497826  16.589883574
H        9.349878125  15.450036784  16.647621173
H       12.502193611  19.716994281  16.814663488
H       15.173817050  20.107641734  16.963213790
H       17.685941232  18.948214758  14.598891905
H       17.666419986  18.985317537  18.897669958
H       19.113902619  20.966725901  14.574853293
H       19.118913290  21.027104194  18.881011615
H       18.711434594  11.990225576  18.836721271
H       18.812480304  11.716492376  14.541890098
H       20.696041672  10.483141496  18.971705526
H       20.789680603  10.230207446  14.677134912
H       10.187302603  17.972151567  18.544890916
H       10.756791121  17.869350121  14.280760984
H        8.289917672  19.565311179  18.241724012
H        8.861829157  19.439758609  13.975733310
H       11.361418751  10.691111013  18.502383661
H       11.776955350  10.758532687  14.220319211
H        9.804067002   8.745932130  18.315755750
H       10.233096797   8.818928984  14.035063180
H        8.804831723   7.468982785  15.168746851
H       22.171311099   9.092466372  16.064711244
H       20.235578508  22.485521237  15.869336677
H        7.299112187  20.703664807  15.047778512
H       20.185963724  12.955024804  12.000263152
H       18.479921039  10.860043713  11.906656920
H       13.205642813  10.318728986  11.752471433
H       11.115674508  12.009340774  11.640892430
H       10.579200589  17.314543600  11.492054763
H       12.282165670  19.405929161  11.624353223
H       17.560748660  19.940669897  11.733859488
H       19.656979700  18.224313042  11.844644136
H       20.625604592  15.669793856   9.997868566
H       20.347544996  15.537502087  14.286133759
H       23.105882174  15.950055571  10.169304900
H       22.814988544  15.809461157  14.457120595
H       15.847203284   9.953098205  14.038103214
H       15.992217368  10.096084425   9.740056961
H       16.034512379   7.483368792  13.971910531
H       16.172784727   7.605458063   9.669975656
H       14.917853128  20.048539186  14.116788424
H       14.805221448  20.439585813   9.839260029
H       14.778611469  22.508742970  14.355871412
H       14.655396467  22.919797979  10.070249188
H       10.231966099  14.706264491  13.822590158
H       10.310361482  14.554163112   9.530181153
H        7.763691793  14.561001254  13.792966900
H        7.815854319  14.403581821   9.486527027
H        5.923157694  14.355079958  12.469697175
H       16.199156498   5.655565653  12.617803157
H       24.735299196  16.139329228  13.303716631
H       14.582831169  24.488342501  13.236601970
O        8.992242302   7.658936336  16.109819060
O       21.908910205   9.382378851  16.960292588
O       20.000829116  22.235968053  16.782269930
O        7.435474096  20.507222217  15.995133498
O        6.270056770  14.396765125  11.561286367
O       16.195829669   6.027193981  11.714834770
O       24.462818142  16.107656470  12.366159981
O       14.635186286  24.235704235  12.296122699

CELL_PARAMETERS {angstrom}
 30.000000   0.000000   0.000000
  0.000000  30.000000   0.000000
  0.000000   0.000000  30.000000

