&CONTROL
    calculation   = "relax"
    prefix        = "ZnTHPP_dimer"
    pseudo_dir    = '/u/fzheng/0.qe_calculations/pseudos/SSSP_efficiency_pseudos'
    etot_conv_thr = 1e-5
    forc_conv_thr = 1e-4
/

&SYSTEM
    degauss     =  1.00000e-02
    ecutrho     =  350.0
    ecutwfc     =  35.0
    ibrav       = 0
    nat         = 162
    ntyp        = 5
    occupations = "smearing"
    smearing    = "gaussian"
/

&ELECTRONS
    conv_thr         =  1.00000e-08
/

&IONS
/

&CELL
/

K_POINTS {gamma}

ATOMIC_SPECIES
C      12.01070  C.pbe-n-kjpaw_psl.1.0.0.UPF
N      14.00674  N.pbe-n-radius_5.UPF
H       1.00794  H.pbe-rrkjus_psl.1.0.0.UPF
Zn     65.39000  Zn_pbe_v1.uspp.F.UPF
O      15.999    O.pbe-n-kjpaw_psl.0.1.UPF

ATOMIC_POSITIONS {angstrom}
C   14.558100   10.567800   16.146000
 C   15.915300   10.741800   16.202400
 C   16.177500   12.195601   16.178099
 C   17.390100   12.799200   16.231199
 C   17.614500   14.203500   16.215000
 C   18.915899   14.814000   16.278900
 C   18.730501   16.193699   16.210501
 C   17.304901   16.424099   16.129499
 C   16.701601   17.692499   16.077000
 C   15.354899   17.926800   16.012800
 C   13.130100   17.563801   15.888900
 C   11.657400   15.598201   15.820500
 C   11.866199   16.953899   15.820500
 C   11.964300   13.350599   15.844501
 C   10.508700   13.607400   15.720600
 C   10.326600   14.958899   15.733801
 C   13.939799   11.900400   16.055399
 C   12.549000   12.117900   15.928801
 C   14.700900   19.234200   15.961200
 C   13.344300   19.020300   15.877501
 C   17.671499   18.888000   16.101301
 C   18.164999   19.410301   14.906100
 C   18.056999   19.449301   17.319302
 C   19.043699   20.493900   14.927400
 C   18.935099   20.533499   17.340599
 C   19.429199   21.055199   16.145399
 C   18.665100   11.938499   16.310701
 C   19.179600   11.568300   17.553900
 C   19.304399   11.528399   15.141300
 C   20.334000   10.788600   17.626801
 C   20.458799   10.749000   15.214199
 C   20.973600   10.378500   16.456200
 C   10.631100   17.869200   15.725700
 C    9.989100   18.296101   16.887600
 C   10.155900   18.270599   14.477099
 C    8.869500   19.125000   16.802099
 C    9.036901   19.100401   14.391900
 C    8.394000   19.527599   15.553501
 C   11.655000   10.864500   15.884101
 C   11.144100   10.329300   17.066401
 C   11.356500   10.264500   14.660700
 C   10.335299    9.193501   17.025900
 C   10.546200    9.129601   14.618700
 C   10.035900    8.593801   15.801299
 C   12.081000   12.258300   12.346499
 C   13.126200   11.373900   12.309300
 C   14.375401   12.161100   12.355200
 C   15.639600   11.671800   12.352201
 C   16.826700   12.452700   12.405900
 C   18.156000   11.902200   12.407400
 C   19.048500   12.972300   12.439200
 C   18.255600   14.181300   12.482700
 C   18.783600   15.481800   12.555600
 C   18.047100   16.633801   12.609900
 C   16.276501   18.034201   12.634800
 C   13.831800   17.800200   12.557700
 C   14.973000   18.558300   12.626101
 C   12.381300   16.061701   12.418500
 C   11.587200   17.314499   12.422999
 C   12.461400   18.355501   12.534300
 C   12.646200   13.616700   12.386700
 C   11.866800   14.795700   12.381300
 C   18.569700   17.997599   12.689700
 C   17.495399   18.857101   12.697200
 C   20.320499   15.571199   12.579300
 C   21.031500   15.678300   11.384400
 C   21.002100   15.545701   13.796700
 C   22.424398   15.759900   11.405701
 C   22.395000   15.628201   13.817700
 C   23.106300   15.734400   12.622800
 C   15.865799   10.149900   12.279901
 C   15.947700    9.401100   13.454700
 C   15.987600    9.520500   11.041500
 C   16.152300    8.022600   13.389900
 C   16.192499    8.142300   10.976700
 C   16.274399    7.393200   12.150600
 C   14.813700   20.089500   12.683400
 C   14.702400   20.732700   13.915500
 C   14.781600   20.831099   11.502300
 C   14.557500   22.119900   13.968000
 C   14.637600   22.218300   11.555100
 C   14.526000   22.862701   12.786901
 C   10.338600   14.613600   12.327300
 C    9.606000   14.512200   13.509900
 C    9.686701   14.549700   11.095500
 C    8.221800   14.346000   13.461300
 C    8.302200   14.385600   11.045700
 C    7.569900   14.283300   12.228601
 N   14.908500   12.866699   16.087801
 N   16.646700   15.190800   16.125900
 N   14.337900   16.921501   15.972000
 N   12.639300   14.596500   15.888299
 N   14.013300   13.552200   12.404401
 N   16.901400   13.835400   12.453000
 N   16.618500   16.708200   12.584701
 N   13.756200   16.399799   12.487801
Zn   14.635799   14.893800   16.032000
Zn   15.333899   15.121201   12.468300
 H   19.497299   16.939800   16.216200
 H   19.852501   14.303400   16.362900
 H   16.650900    9.966599   16.254299
 H   14.040300    9.631499   16.164301
 H    9.741000   12.867300   15.636000
 H    9.386400   15.467099   15.689699
 H   12.585900   19.772699   15.815701
 H   15.189900   20.185801   15.984299
 H   17.861401   18.967501   13.946100
 H   17.667601   19.038300   18.261600
 H   19.433100   20.904900   13.985101
 H   19.238100   20.975700   18.301201
 H   18.675301   11.891700   18.476400
 H   18.898500   11.820600   14.161500
 H   20.740499   10.497300   18.605701
 H   20.962200   10.425900   14.291400
 H   10.363800   17.979000   17.871599
 H   10.662000   17.934599   13.560900
 H    8.363100   19.461000   17.718300
 H    8.661900   19.417500   13.407600
 H   11.380799   10.801800   18.031200
 H   11.759100   10.686300   13.727700
 H    9.932700    8.771400   17.957998
 H   10.310700    8.657400   13.654200
 H    8.286901    7.694700   15.677699
 H   21.915300    8.650800   16.558800
 H   19.830301   22.984200   16.143000
 H    7.524900   21.294600   15.498599
 H   20.116499   12.910800   12.432600
 H   18.412201   10.863299   12.387600
 H   13.050900   10.307700   12.256201
 H   11.040900   12.006900   12.346499
 H   10.522200   17.388599   12.352201
 H   12.201300   19.391399   12.594300
 H   17.538300   19.925699   12.741000
 H   19.601999   18.276001   12.734100
 H   20.493900   15.698100   10.425301
 H   20.441999   15.462300   14.738700
 H   22.984501   15.843301   10.463400
 H   22.931400   15.608400   14.778000
 H   15.851399    9.897301   14.431200
 H   15.923401   10.111500   10.115999
 H   16.217699    7.431900   14.314500
 H   16.288500    7.647000    9.999900
 H   14.727300   20.147699   14.846100
 H   14.869801   20.323801   10.530900
 H   14.469300   22.626900   14.939400
 H   14.612400   22.803301   10.624201
 H   10.120501   14.560800   14.481000
 H   10.264199   14.630100   10.162500
 H    7.644300   14.265600   14.393399
 H    7.789200   14.336100   10.074599
 H    5.691000   14.971499   12.185700
 H   15.640501    5.495700   12.075900
 H   24.834600   16.739700   12.715199
 H   15.240301   24.728699   12.909901
 O    9.205800    7.430100   15.760499
 O   22.157400    9.579599   16.530899
 O   20.330101   22.164900   16.167299
 O    7.247100   20.376900   15.465599
 O    6.150900   14.113800   12.179399
 O   16.484400    5.979900   12.084000
 O   24.533100   15.817200   12.644400
 O   14.377800   24.283800   12.840300

CELL_PARAMETERS {angstrom}
 30.000000   0.000000   0.000000
  0.000000  30.000000   0.000000
  0.000000   0.000000  30.000000

