#
Geometry = GenFormat {
60 C
C H N O
  1      1      -4.5302135848     0.2714528820    -1.6791834969
  2      2      -5.0147282019     0.1779514776    -2.6438360132
  3      1      -5.3091393095     0.4386866425    -0.5283614904
  4      1      -3.1467142535     0.2251147462    -1.5625226763
  5      3      -6.7653693556     0.4848987371    -0.6487772949
  6      1      -4.7269062038     0.5675546453     0.7319079231
  7      1      -2.5489230395     0.3340450242    -0.2982588280
  8      2      -2.5140841870     0.0957181202    -2.4349098571
  9      4      -7.2561129546     0.3765828231    -1.7764032442
 10      4      -7.4266179717     0.6294981052     0.3841534245
 11      2      -5.3578057097     0.7089154761     1.6027108103
 12      1      -3.3375756737     0.5185246440     0.8592767887
 13      4      -1.2028281186     0.2712396021    -0.2430716258
 14      1      -2.6396005175     0.6862876852     2.1242561723
 15      1      -0.4256423831     0.2778001507     1.0209998722
 16      2      -3.2268464628     0.9074464346     3.0127619119
 17      1      -1.3024614841     0.6016339930     2.1973217475
 18      3       0.6389058321     1.2475897806     0.8409371054
 19      1       0.3275639953    -1.1039404439     1.1050059494
 20      2      -0.7841428449     0.7639562838     3.1362793296
 21      1       0.2365506460     2.6165581697     0.5170854676
 22      1       1.7246752868     0.6092152965     0.2058933688
 23      1      -0.5669682206    -2.2574638430     0.6260886018
 24      1       1.5621606809    -0.7945977326     0.2599183936
 25      1       0.7735437558    -1.3821740464     2.5627421345
 26      2      -0.7444695793     2.8019244657     0.9605784655
 27      2       0.1654446763     2.7760923420    -0.5666929467
 28      2       0.9371529768     3.3397704351     0.9357224643
 29      1       2.8468255989     1.1908576618    -0.4140529597
 30      2      -1.5303384259    -2.2293029878     1.1504633607
 31      2      -0.1014539627    -3.2206947872     0.8487039277
 32      2      -0.7579047166    -2.2114921582    -0.4481481449
 33      1       2.4769858039    -1.6454716366    -0.3615346958
 34      2      -0.0921534421    -1.5648803234     3.2101727037
 35      2       1.3542026767    -0.5516520552     2.9782016107
 36      2       1.3996696279    -2.2783945202     2.5834873314
 37      1       3.2106544699     2.6360142385    -0.3877953329
 38      1       3.7387515379     0.3112877050    -1.0600589910
 39      1       3.5611920718    -1.0655203089    -1.0506773795
 40      1       2.3738536442    -3.1382409972    -0.3578713466
 41      1       3.4005324304     3.3649903889    -1.5705583943
 42      1       3.4754110238     3.3048871599     0.8170148275
 43      2       4.6108194541     0.7328650171    -1.5530350235
 44      2       4.2791800450    -1.7092183565    -1.5509405271
 45      1       1.8754057734    -3.8281265580    -1.4709194306
 46      1       2.8316371891    -3.9113502768     0.7176405449
 47      1       3.8186096923     4.6954098709    -1.4960195698
 48      2       3.2141153209     2.9050560669    -2.5374806685
 49      2       3.3704472382     2.7890608241     1.7680359138
 50      1       3.8932473822     4.6361365438     0.7837476741
 51      2       1.5170213260    -3.2839527417    -2.3406389080
 52      1       1.8372720102    -5.2238324610    -1.4491291031
 53      1       2.7517849281    -5.3040138932     0.6403042331
 54      2       3.2583738643    -3.4388756619     1.5981189813
 55      3       4.0640997169     5.3372901159    -0.3458494697
 56      2       3.9617339019     5.2753957157    -2.4061976107
 57      2       4.1067094517     5.1657956889     1.7107704369
 58      2       1.4474814323    -5.7744313333    -2.3035920379
 59      3       2.2605518514    -5.9650661879    -0.4161025797
 60      2       3.1036520836    -5.9189562875     1.4670216990
}

Hamiltonian = DFTB {
  SCC = Yes
  Dispersion = LennardJones {
  Parameters = UFFParameters {}
  }
  SlaterKosterFiles = Type2FileNames {
    Prefix = "/home/ub2052/ctwksp21_project/sk/3ob-3-1/"
    Separator = "-"
    Suffix = ".skf"
    LowerCaseTypeName = No
  }
  MaxAngularMomentum {
    H = "s"
    C = "p"
    N = "p"
    O = "p"
  }
  Filling = Fermi {
    Temperature [Kelvin] = 0.0
  }
}

ExcitedState {
  Casida {
  Symmetry = Singlet
  NrOfExcitations = 10
  StateOfInterest = 0
  WriteTransitions = Yes
  WriteTranditionDipole = Yes
  }
}

Analysis {}

Options {
WritedetailedOut = Yes
}
