&CONTROL
  calculation   = 'scf',
  pseudo_dir    = '/util/academic/espresso/6.2.1/pseudopotentials/upf_files/',
  outdir        = './',
  prefix        = 'x0',
  disk_io       = 'low',
/

&SYSTEM
  ibrav       = 0,
  nat         = 25,
  ntyp        = 4,
  nspin       = 1,
  nbnd        = 100
  ecutwfc     = 30,
  ecutrho     = 300,
  occupations = 'smearing',
  smearing    = 'gaussian',
  degauss     = 0.01,
  nosym       = true,
/

&ELECTRONS
  electron_maxstep = 300,
  conv_thr         = 1.D-4,
  mixing_beta      = 0.30,
/

ATOMIC_SPECIES
C  12.010     C.pbe-n-rrkjus_psl.0.1.UPF 
H  1.007      H.pbe-rrkjus_psl.0.1.UPF 
Ir 192.217    Ir.pbe-n-rrkjus_psl.0.2.3.UPF
N  14.006     N.pbe-n-rrkjus_psl.0.1.UPF

K_POINTS gamma

CELL_PARAMETERS  angstrom
        7.0652699470        0.0000000000         0.0000000000
        0.0000000000        7.0652699470         0.0000000000
        0.0000000000        0.0000000000         7.0652699470 

ATOMIC_POSITIONS (angstrom)
Ir      -0.006574212   0.025748910   0.000856878
N        0.923320472  -1.542554477  -1.160839368
N       -1.755192427  -0.038228341  -1.132602470
N        1.012108990   1.530506768  -1.138130059
C       -0.506350841   1.582670975   1.050368402
C        1.520927020  -0.308838400   1.116447200
C        1.958408921  -1.962310334  -0.544632872
C        2.282933769  -1.361400222   0.711062646
C       -1.053108577  -1.152562411   1.093747205
C        0.593606497   2.652937775  -0.625944576
C       -0.057796593   2.820048716   0.622633117
C       -2.584529137  -0.915195146  -0.711738010
C       -2.230035684  -1.626945372   0.498183439
H        1.714254912   0.187109778   2.073178564
H        3.067902092  -1.809648652   1.330151262
H        2.345992896  -2.870763985  -0.995151516
H        0.681998798   3.624938593  -1.214395935
H       -0.134229830   3.722757233   1.225816804
H       -1.018232935   1.509028646   2.012728707
H       -2.528468568  -2.677335190   0.439887592
H       -0.739352625  -1.686469186   1.981372687
H       -3.525613137  -1.069268830  -1.212518778
H        0.679536639  -2.021578197  -1.990008621
H        1.273373136   1.542539933  -2.104548593
H       -2.163496769   0.572162724  -1.794697206


