&CONTROL
  calculation   = 'scf',
  pseudo_dir    = '/util/academic/espresso/6.2.1/pseudopotentials/upf_files/',
  outdir        = './',
  prefix        = 'x0',
  disk_io       = 'low',
/

&SYSTEM
  ibrav       = 0,
  nat         = 25,
  ntyp        = 4,
  nspin       = 1,
  nbnd        = 100
  ecutwfc     = 30,
  ecutrho     = 300,
  occupations = 'smearing',
  smearing    = 'gaussian',
  degauss     = 0.01,
  nosym       = true,
/

&ELECTRONS
  electron_maxstep = 300,
  conv_thr         = 1.D-4,
  mixing_beta      = 0.30,
/

ATOMIC_SPECIES
C  12.010     C.pbe-n-rrkjus_psl.0.1.UPF 
H  1.007      H.pbe-rrkjus_psl.0.1.UPF 
Ir 192.217    Ir.pbe-n-rrkjus_psl.0.2.3.UPF
N  14.006     N.pbe-n-rrkjus_psl.0.1.UPF

K_POINTS gamma

CELL_PARAMETERS  angstrom
        7.0652699470        0.0000000000         0.0000000000
        0.0000000000        7.0652699470         0.0000000000
        0.0000000000        0.0000000000         7.0652699470 

ATOMIC_POSITIONS (angstrom)
Ir      -0.010566212   0.031681717   0.009067639
N        0.921957991  -1.443669389  -1.215866146
N       -1.727129080  -0.023950400  -1.205491952
N        0.989358715   1.512935349  -1.107228155
C       -0.516582426   1.589910665   1.077434887
C        1.521946425  -0.359298854   1.155743967
C        1.910608153  -1.965538179  -0.515159428
C        2.255439384  -1.411491522   0.769598770
C       -1.041547299  -1.199235533   1.041731358
C        0.569669731   2.662580238  -0.665430918
C       -0.044546333   2.817656809   0.624461276
C       -2.547783598  -0.932672919  -0.724607067
C       -2.165645298  -1.648589239   0.425773354
H        1.734024921   0.164306989   2.114865389
H        3.035081722  -1.946756551   1.366857054
H        2.464473885  -2.895158620  -0.886735446
H        0.745233991   3.453915167  -1.346053792
H       -0.152092252   3.721938439   1.197252361
H       -0.962518627   1.476304370   2.101134780
H       -2.527615465  -2.715198506   0.446211753
H       -0.617217805  -1.720357781   1.939047122
H       -3.499192569  -1.130218022  -1.194119668
H        0.744972549  -1.946160936  -2.123038792
H        1.384669625   1.538439976  -2.026524517
H       -2.197860697   0.648553020  -1.809568573


