&CONTROL
  calculation   = 'scf',
  pseudo_dir    = '/util/academic/espresso/6.2.1/pseudopotentials/upf_files/',
  outdir        = './',
  prefix        = 'x0',
  disk_io       = 'low',
/

&SYSTEM
  ibrav       = 0,
  nat         = 25,
  ntyp        = 4,
  nspin       = 1,
  nbnd        = 100
  ecutwfc     = 30,
  ecutrho     = 300,
  occupations = 'smearing',
  smearing    = 'gaussian',
  degauss     = 0.01,
  nosym       = true,
/

&ELECTRONS
  electron_maxstep = 300,
  conv_thr         = 1.D-4,
  mixing_beta      = 0.30,
/

ATOMIC_SPECIES
C  12.010     C.pbe-n-rrkjus_psl.0.1.UPF 
H  1.007      H.pbe-rrkjus_psl.0.1.UPF 
Ir 192.217    Ir.pbe-n-rrkjus_psl.0.2.3.UPF
N  14.006     N.pbe-n-rrkjus_psl.0.1.UPF

K_POINTS gamma

CELL_PARAMETERS  angstrom
        7.0652699470        0.0000000000         0.0000000000
        0.0000000000        7.0652699470         0.0000000000
        0.0000000000        0.0000000000         7.0652699470 

ATOMIC_POSITIONS (angstrom)
Ir      -0.009054153   0.028435910   0.003407676
N        0.924807772  -1.523878203  -1.176532528
N       -1.745221543  -0.035171220  -1.149010440
N        1.012037937   1.521418892  -1.129485070
C       -0.516597506   1.581846190   1.059784004
C        1.524686781  -0.322950440   1.127453277
C        1.945749595  -1.959950674  -0.540605535
C        2.276848361  -1.366555409   0.726710033
C       -1.052172226  -1.155698081   1.091446934
C        0.583994662   2.648810439  -0.631609039
C       -0.047644085   2.826846072   0.613183724
C       -2.558766641  -0.944626270  -0.713794104
C       -2.196541686  -1.638844673   0.463347428
H        1.672925814   0.186493464   2.059331722
H        3.026436161  -1.833659665   1.307310546
H        2.300016744  -2.850303736  -0.988117329
H        0.701303488   3.626976544  -1.234280627
H       -0.146911235   3.718876872   1.230981009
H       -0.996167348   1.509369576   2.037361791
H       -2.531213092  -2.696758144   0.471182402
H       -0.706949397  -1.701646919   1.948008173
H       -3.533984730  -1.086254529  -1.174761282
H        0.653845223  -1.962775997  -2.005391336
H        1.315932260   1.535561192  -2.103965395
H       -2.209989265   0.598782059  -1.787026375


