Geometry = GenFormat {
 <<< "geom.gen"
}

Driver =  {}

Hamiltonian = DFTB {
  SCC = Yes
  Dispersion = LennardJones {
  Parameters = UFFParameters {}
  }
  SlaterKosterFiles = Type2FileNames {
  Prefix = "/projects/academic/cyberwksp21/Software/inputs/3ob-3-1/"
  Separator = "-"
  Suffix = ".skf"
  }
  MaxAngularMomentum {
    H = "s"
    C = "p"
    O = "p"
    N = "p"
  }
  Filling = Fermi {
    Temperature [Kelvin] = 0.0
  }
}
ExcitedState{
  Casida{
  Symmetry = Singlet
  NrOfExcitations = 10
  StateOfInterest = 0
  WriteTransitions = Yes
  WriteTransitionDipole = Yes
  }
}
Analysis{
}
Options {
WritedetailedOut = Yes
}

ParserOptions {
ParserVersion = 4
}

