 $CONTRL SCFTYP=RHF RUNTYP=OPTIMIZE MPLEVL=2 MAXIT=100 MULT=1 ISPHER=1 
    COORD=UNIQUE UNITS=BOHR $END
 $SYSTEM TIMLIM=10000000 MEMORY=30000000 $END
 $BASIS GBASIS=ACCD $END
 $SCF DIRSCF=.TRUE. $END
 $statpt opttol=0.0005 nstep=50 $end
 $DATA 
...benzene...
Dnh 2

C     6.0    -2.63995     0.00000    0.00000
C     6.0     1.31997    -2.28619    0.00000
H     1.0    -4.68841     0.00000    0.00000
H     1.0    -2.34421    -4.06027    0.00000
 $END
