&CONTROL
  calculation   = 'scf',
  pseudo_dir    = '/util/academic/espresso/6.2.1/pseudopotentials/upf_files/',
  outdir        = './',
  prefix        = 'x0',
  disk_io       = 'low',
/

&SYSTEM
  ibrav       = 0,
  nat         = 25,
  ntyp        = 4,
  nspin       = 1,
  nbnd        = 100
  ecutwfc     = 30,
  ecutrho     = 300,
  occupations = 'smearing',
  smearing    = 'gaussian',
  degauss     = 0.01,
  nosym       = true,
/

&ELECTRONS
  electron_maxstep = 300,
  conv_thr         = 1.D-4,
  mixing_beta      = 0.30,
/

ATOMIC_SPECIES
C  12.010     C.pbe-n-rrkjus_psl.0.1.UPF 
H  1.007      H.pbe-rrkjus_psl.0.1.UPF 
Ir 192.217    Ir.pbe-n-rrkjus_psl.0.2.3.UPF
N  14.006     N.pbe-n-rrkjus_psl.0.1.UPF

K_POINTS gamma

CELL_PARAMETERS  angstrom
        7.0652699470        0.0000000000         0.0000000000
        0.0000000000        7.0652699470         0.0000000000
        0.0000000000        0.0000000000         7.0652699470 

ATOMIC_POSITIONS (angstrom)
Ir       0.002221077   0.046217702   0.031450051
N        1.223757699  -1.356221871  -1.126747781
N       -1.664562043   0.050636131  -1.299700230
N        0.726626221   1.566084880  -1.182745178
C       -0.627139633   1.583827698   1.114579073
C        1.468234946  -0.382057434   1.359103603
C        2.016405272  -2.019289881  -0.336792751
C        2.186444275  -1.506079357   1.034910082
C       -1.105811014  -1.392003346   0.851963363
C        0.472890260   2.705272743  -0.727770605
C       -0.156651629   2.770893172   0.605640680
C       -2.438935794  -0.964958949  -1.019241476
C       -2.191232383  -1.767945199   0.097056616
H        1.863268014   0.250181567   2.275582035
H        2.950983594  -1.968687304   1.761518775
H        2.646115985  -2.742447266  -0.806396112
H        0.724702967   3.549342393  -1.446012523
H       -0.151283477   3.750084864   1.122760228
H       -1.177797301   1.496263490   2.068377360
H       -2.826275353  -2.539665061   0.439406183
H       -0.946866805  -1.801921133   1.840480753
H       -3.346781411  -1.123130971  -1.589732859
H        1.157134221  -1.647151171  -2.081678199
H        0.973711021   1.466600988  -2.206907270
H       -1.784462356   0.461901074  -2.243579112


