&CONTROL
  calculation   = 'scf',
  pseudo_dir    = '/util/academic/espresso/6.2.1/pseudopotentials/upf_files/',
  outdir        = './',
  prefix        = 'x0',
  disk_io       = 'low',
/

&SYSTEM
  ibrav       = 0,
  nat         = 25,
  ntyp        = 4,
  nspin       = 1,
  nbnd        = 100
  ecutwfc     = 30,
  ecutrho     = 300,
  occupations = 'smearing',
  smearing    = 'gaussian',
  degauss     = 0.01,
  nosym       = true,
/

&ELECTRONS
  electron_maxstep = 300,
  conv_thr         = 1.D-4,
  mixing_beta      = 0.30,
/

ATOMIC_SPECIES
C  12.010     C.pbe-n-rrkjus_psl.0.1.UPF 
H  1.007      H.pbe-rrkjus_psl.0.1.UPF 
Ir 192.217    Ir.pbe-n-rrkjus_psl.0.2.3.UPF
N  14.006     N.pbe-n-rrkjus_psl.0.1.UPF

K_POINTS gamma

CELL_PARAMETERS  angstrom
        7.0652699470        0.0000000000         0.0000000000
        0.0000000000        7.0652699470         0.0000000000
        0.0000000000        0.0000000000         7.0652699470 

ATOMIC_POSITIONS (angstrom)
Ir       0.003591656   0.043165388   0.025645178
N        1.235210388  -1.335081570  -1.112367261
N       -1.620179851   0.062606367  -1.315808166
N        0.738536982   1.548076386  -1.176617679
C       -0.650922047   1.574377220   1.121720780
C        1.497613152  -0.379150198   1.333736137
C        2.052793728  -1.983236568  -0.301900611
C        2.125838951  -1.546296920   1.045008578
C       -1.086548659  -1.397319453   0.856037831
C        0.454337763   2.751569547  -0.689997780
C       -0.188356244   2.789845139   0.605946432
C       -2.433140711  -0.955931205  -1.033852297
C       -2.181976079  -1.772552711   0.129494480
H        1.736081342   0.004291302   2.371326067
H        2.880759774  -2.038707829   1.660880304
H        2.608573920  -2.895265923  -0.707538698
H        0.496276945   3.576205469  -1.386325060
H       -0.159510899   3.766399810   1.097026172
H       -1.301967647   1.665545394   2.002164417
H       -2.914706887  -2.564558052   0.313220379
H       -0.825151242  -1.777597029   1.851900678
H       -3.343532430  -1.186474487  -1.587163249
H        0.941136094  -1.686967804  -2.002311892
H        0.938004811   1.483482656  -2.230630697
H       -1.765148372   0.537794714  -2.236454473


