&CONTROL
  calculation   = 'scf',
  pseudo_dir    = '/util/academic/espresso/6.2.1/pseudopotentials/upf_files/',
  outdir        = './',
  prefix        = 'x0',
  disk_io       = 'low',
/

&SYSTEM
  ibrav       = 0,
  nat         = 25,
  ntyp        = 4,
  nspin       = 1,
  nbnd        = 100
  ecutwfc     = 30,
  ecutrho     = 300,
  occupations = 'smearing',
  smearing    = 'gaussian',
  degauss     = 0.01,
  nosym       = true,
/

&ELECTRONS
  electron_maxstep = 300,
  conv_thr         = 1.D-4,
  mixing_beta      = 0.30,
/

ATOMIC_SPECIES
C  12.010     C.pbe-n-rrkjus_psl.0.1.UPF 
H  1.007      H.pbe-rrkjus_psl.0.1.UPF 
Ir 192.217    Ir.pbe-n-rrkjus_psl.0.2.3.UPF
N  14.006     N.pbe-n-rrkjus_psl.0.1.UPF

K_POINTS gamma

CELL_PARAMETERS  angstrom
        7.0652699470        0.0000000000         0.0000000000
        0.0000000000        7.0652699470         0.0000000000
        0.0000000000        0.0000000000         7.0652699470 

ATOMIC_POSITIONS (angstrom)
Ir       0.003575462   0.045213339   0.028443299
N        1.237301756  -1.347811867  -1.120606451
N       -1.634052939   0.054213058  -1.286008386
N        0.731920700   1.561744993  -1.180954488
C       -0.644465247   1.574792815   1.122660609
C        1.481429336  -0.399652302   1.325289663
C        2.031547487  -1.999384238  -0.319444913
C        2.147427472  -1.513433001   1.047151922
C       -1.097852368  -1.400239618   0.852780850
C        0.464312918   2.725273844  -0.711045819
C       -0.173162047   2.792559247   0.605519236
C       -2.432077492  -0.955321553  -1.027845007
C       -2.181343980  -1.776374386   0.106018604
H        1.803106744   0.054949985   2.264875256
H        2.869873743  -1.957058447   1.707785447
H        2.627239090  -2.823563857  -0.785408864
H        0.625515698   3.583861207  -1.397366124
H       -0.169567258   3.734706478   1.111154635
H       -1.264199342   1.585048936   2.045397196
H       -2.917436720  -2.549001021   0.375630634
H       -0.837472219  -1.774973260   1.851243448
H       -3.378750594  -1.136547053  -1.587266871
H        0.995030208  -1.672514013  -2.096489104
H        0.915534859   1.477200909  -2.140513918
H       -1.792737302   0.469389801  -2.200098492


