&CONTROL
  calculation   = 'scf',
  pseudo_dir    = '/util/academic/espresso/6.2.1/pseudopotentials/upf_files/',
  outdir        = './',
  prefix        = 'x0',
  disk_io       = 'low',
/

&SYSTEM
  ibrav       = 0,
  nat         = 25,
  ntyp        = 4,
  nspin       = 1,
  nbnd        = 100
  ecutwfc     = 30,
  ecutrho     = 300,
  occupations = 'smearing',
  smearing    = 'gaussian',
  degauss     = 0.01,
  nosym       = true,
/

&ELECTRONS
  electron_maxstep = 300,
  conv_thr         = 1.D-4,
  mixing_beta      = 0.30,
/

ATOMIC_SPECIES
C  12.010     C.pbe-n-rrkjus_psl.0.1.UPF 
H  1.007      H.pbe-rrkjus_psl.0.1.UPF 
Ir 192.217    Ir.pbe-n-rrkjus_psl.0.2.3.UPF
N  14.006     N.pbe-n-rrkjus_psl.0.1.UPF

K_POINTS gamma

CELL_PARAMETERS  angstrom
        7.0652699470        0.0000000000         0.0000000000
        0.0000000000        7.0652699470         0.0000000000
        0.0000000000        0.0000000000         7.0652699470 

ATOMIC_POSITIONS (angstrom)
Ir       0.003232092   0.043536497   0.026678962
N        1.238652674  -1.341559665  -1.117296609
N       -1.626158032   0.060703358  -1.300500767
N        0.736210936   1.553079614  -1.175345929
C       -0.648442743   1.573082655   1.123486946
C        1.491954199  -0.390110375   1.327808903
C        2.042656153  -1.989623192  -0.309885166
C        2.135476923  -1.527387725   1.048139929
C       -1.092052721  -1.399511968   0.852774256
C        0.457329271   2.743359643  -0.700339715
C       -0.176613423   2.798686707   0.603121961
C       -2.431382155  -0.954201632  -1.031702043
C       -2.180277007  -1.774059161   0.118505105
H        1.779244810   0.024720078   2.324881333
H        2.868091094  -1.993718912   1.673598227
H        2.612753650  -2.867138064  -0.734315991
H        0.550187559   3.567554970  -1.320479559
H       -0.157713233   3.742542625   1.094039075
H       -1.287019290   1.630274396   2.022191533
H       -2.936951749  -2.563471819   0.342993273
H       -0.831142228  -1.801377698   1.858215919
H       -3.374589670  -1.169196628  -1.581587632
H        0.953158134  -1.679667305  -2.060331878
H        0.923523379   1.478834400  -2.193171481
H       -1.779911920   0.503696358  -2.230420174


