&CONTROL
  calculation   = 'scf',
  pseudo_dir    = '/util/academic/espresso/6.2.1/pseudopotentials/upf_files/',
  outdir        = './',
  prefix        = 'x0',
  disk_io       = 'low',
/

&SYSTEM
  ibrav       = 0,
  nat         = 25,
  ntyp        = 4,
  nspin       = 1,
  nbnd        = 100
  ecutwfc     = 30,
  ecutrho     = 300,
  occupations = 'smearing',
  smearing    = 'gaussian',
  degauss     = 0.01,
  nosym       = true,
/

&ELECTRONS
  electron_maxstep = 300,
  conv_thr         = 1.D-4,
  mixing_beta      = 0.30,
/

ATOMIC_SPECIES
C  12.010     C.pbe-n-rrkjus_psl.0.1.UPF 
H  1.007      H.pbe-rrkjus_psl.0.1.UPF 
Ir 192.217    Ir.pbe-n-rrkjus_psl.0.2.3.UPF
N  14.006     N.pbe-n-rrkjus_psl.0.1.UPF

K_POINTS gamma

CELL_PARAMETERS  angstrom
        7.0652699470        0.0000000000         0.0000000000
        0.0000000000        7.0652699470         0.0000000000
        0.0000000000        0.0000000000         7.0652699470 

ATOMIC_POSITIONS (angstrom)
Ir       0.003078132   0.045897540   0.030311533
N        1.231961977  -1.353206284  -1.124202354
N       -1.651017120   0.054179131  -1.293655714
N        0.728219143   1.567217775  -1.182135060
C       -0.637442536   1.578747361   1.119708430
C        1.474571495  -0.393151141   1.340930186
C        2.022665856  -2.010641390  -0.329050202
C        2.163723616  -1.506347147   1.041627098
C       -1.102321386  -1.398297409   0.853819704
C        0.469163505   2.710035100  -0.719484172
C       -0.166687947   2.781788921   0.606353254
C       -2.434895466  -0.959433164  -1.023103092
C       -2.182145219  -1.779085100   0.093518628
H        1.849824567   0.165062630   2.291406566
H        2.935350201  -1.975088020   1.747628800
H        2.631451896  -2.772037280  -0.805396011
H        0.688796796   3.589055675  -1.450810030
H       -0.168628863   3.745851627   1.126466876
H       -1.227804182   1.537517461   2.062095868
H       -2.869689836  -2.532158881   0.407125975
H       -0.891544815  -1.776669787   1.831902647
H       -3.353325780  -1.093507302  -1.601210006
H        1.068139003  -1.659128007  -2.092045504
H        0.933756032   1.472131241  -2.153841267
H       -1.792551253   0.452700740  -2.198240837


