&CONTROL
    calculation   = "relax"
    prefix        = "ZnTHPP_relax"
    pseudo_dir    = '/u/fzheng/0.qe_calculations/pseudos/SSSP_efficiency_pseudos'
    etot_conv_thr = 1e-5
    forc_conv_thr = 1e-4
/

&SYSTEM
    degauss     =  1.00000e-02
    ecutrho     =  350.0
    ecutwfc     =  35.0
    ibrav       = 0
    nat         = 81
    ntyp        = 5
    occupations = "smearing"
    smearing    = "gaussian"
/

&ELECTRONS
    conv_thr         =  1.00000e-08
/

&IONS
/

&CELL
/

K_POINTS {gamma}

ATOMIC_SPECIES
C      12.01070  C.pbe-n-kjpaw_psl.1.0.0.UPF
N      14.00674  N.pbe-n-radius_5.UPF
H       1.00794  H.pbe-rrkjus_psl.1.0.0.UPF
Zn     65.39000  Zn_pbe_v1.uspp.F.UPF
O      15.999    O.pbe-n-kjpaw_psl.0.1.UPF

ATOMIC_POSITIONS {angstrom}
 C   14.558100   10.567800   16.146000
 C   15.915300   10.741800   16.202400
 C   16.177500   12.195601   16.178099
 C   17.390100   12.799200   16.231199
 C   17.614500   14.203500   16.215000
 C   18.915899   14.814000   16.278900
 C   18.730501   16.193699   16.210501
 C   17.304901   16.424099   16.129499
 C   16.701601   17.692499   16.077000
 C   15.354899   17.926800   16.012800
 C   13.130100   17.563801   15.888900
 C   11.657400   15.598201   15.820500
 C   11.866199   16.953899   15.820500
 C   11.964300   13.350599   15.844501
 C   10.508700   13.607400   15.720600
 C   10.326600   14.958899   15.733801
 C   13.939799   11.900400   16.055399
 C   12.549000   12.117900   15.928801
 C   14.700900   19.234200   15.961200
 C   13.344300   19.020300   15.877501
 C   17.671499   18.888000   16.101301
 C   18.164999   19.410301   14.906100
 C   18.056999   19.449301   17.319302
 C   19.043699   20.493900   14.927400
 C   18.935099   20.533499   17.340599
 C   19.429199   21.055199   16.145399
 C   18.665100   11.938499   16.310701
 C   19.179600   11.568300   17.553900
 C   19.304399   11.528399   15.141300
 C   20.334000   10.788600   17.626801
 C   20.458799   10.749000   15.214199
 C   20.973600   10.378500   16.456200
 C   10.631100   17.869200   15.725700
 C    9.989100   18.296101   16.887600
 C   10.155900   18.270599   14.477099
 C    8.869500   19.125000   16.802099
 C    9.036901   19.100401   14.391900
 C    8.394000   19.527599   15.553501
 C   11.655000   10.864500   15.884101
 C   11.144100   10.329300   17.066401
 C   11.356500   10.264500   14.660700
 C   10.335299    9.193501   17.025900
 C   10.546200    9.129601   14.618700
 C   10.035900    8.593801   15.801299
 N   14.908500   12.866699   16.087801
 N   16.646700   15.190800   16.125900
 N   14.337900   16.921501   15.972000
 N   12.639300   14.596500   15.888299
Zn   14.635799   14.893800   16.032000
 H   19.497299   16.939800   16.216200
 H   19.852501   14.303400   16.362900
 H   16.650900    9.966599   16.254299
 H   14.040300    9.631499   16.164301
 H    9.741000   12.867300   15.636000
 H    9.386400   15.467099   15.689699
 H   12.585900   19.772699   15.815701
 H   15.189900   20.185801   15.984299
 H   17.861401   18.967501   13.946100
 H   17.667601   19.038300   18.261600
 H   19.433100   20.904900   13.985101
 H   19.238100   20.975700   18.301201
 H   18.675301   11.891700   18.476400
 H   18.898500   11.820600   14.161500
 H   20.740499   10.497300   18.605701
 H   20.962200   10.425900   14.291400
 H   10.363800   17.979000   17.871599
 H   10.662000   17.934599   13.560900
 H    8.363100   19.461000   17.718300
 H    8.661900   19.417500   13.407600
 H   11.380799   10.801800   18.031200
 H   11.759100   10.686300   13.727700
 H    9.932700    8.771400   17.957998
 H   10.310700    8.657400   13.654200
 H    8.286901    7.694700   15.677699
 H   21.915300    8.650800   16.558800
 H   19.830301   22.984200   16.143000
 H    7.524900   21.294600   15.498599
 O    9.205800    7.430100   15.760499
 O   22.157400    9.579599   16.530899
 O   20.330101   22.164900   16.167299
 O    7.247100   20.376900   15.465599

CELL_PARAMETERS {angstrom}
 30.000000   0.000000   0.000000
  0.000000  30.000000   0.000000
  0.000000   0.000000  30.000000

