&CONTROL
  calculation   = 'scf',
  pseudo_dir    = '/util/academic/espresso/6.2.1/pseudopotentials/upf_files/',
  outdir        = './',
  prefix        = 'x0',
  disk_io       = 'low',
/

&SYSTEM
  ibrav       = 0,
  nat         = 25,
  ntyp        = 4,
  nspin       = 1,
  nbnd        = 100
  ecutwfc     = 30,
  ecutrho     = 300,
  occupations = 'smearing',
  smearing    = 'gaussian',
  degauss     = 0.01,
  nosym       = true,
/

&ELECTRONS
  electron_maxstep = 300,
  conv_thr         = 1.D-4,
  mixing_beta      = 0.30,
/

ATOMIC_SPECIES
C  12.010     C.pbe-n-rrkjus_psl.0.1.UPF 
H  1.007      H.pbe-rrkjus_psl.0.1.UPF 
Ir 192.217    Ir.pbe-n-rrkjus_psl.0.2.3.UPF
N  14.006     N.pbe-n-rrkjus_psl.0.1.UPF

K_POINTS gamma

CELL_PARAMETERS  angstrom
        7.0652699470        0.0000000000         0.0000000000
        0.0000000000        7.0652699470         0.0000000000
        0.0000000000        0.0000000000         7.0652699470 

ATOMIC_POSITIONS (angstrom)
Ir       0.002847208   0.046848540   0.031791271
N        1.182531995  -1.346549140  -1.146077631
N       -1.690726042   0.012138706  -1.325096858
N        0.736093044   1.497533774  -1.205494455
C       -0.604811795   1.592704308   1.074635094
C        1.493301988  -0.364589904   1.325536827
C        1.975001518  -1.993822540  -0.336142980
C        2.222184725  -1.522860831   1.016876650
C       -1.118935617  -1.382338319   0.902190791
C        0.464676588   2.707222348  -0.711579811
C       -0.089827586   2.749629439   0.586762396
C       -2.456106812  -0.951333259  -1.017445489
C       -2.244856683  -1.698033181   0.199463437
H        1.735432662   0.364610593   2.141505930
H        2.962694601  -1.972053373   1.747600126
H        2.704031102  -2.838329602  -0.714101110
H        0.807934323   3.587755135  -1.405488839
H       -0.116141398   3.691831875   1.172023130
H       -1.180827695   1.526072244   2.069169423
H       -2.739129331  -2.623791684   0.453279910
H       -0.876141331  -1.921284274   1.878953491
H       -3.396632396  -1.212417313  -1.553861012
H        1.411868208  -1.592159327  -2.116750684
H        1.071432134   1.603833611  -2.182772151
H       -1.811817327   0.472234100  -2.208083960


