&CONTROL
  calculation   = 'scf',
  pseudo_dir    = '/util/academic/espresso/6.2.1/pseudopotentials/upf_files/',
  outdir        = './',
  prefix        = 'x0',
  disk_io       = 'low',
/

&SYSTEM
  ibrav       = 0,
  nat         = 25,
  ntyp        = 4,
  nspin       = 1,
  nbnd        = 100
  ecutwfc     = 30,
  ecutrho     = 300,
  occupations = 'smearing',
  smearing    = 'gaussian',
  degauss     = 0.01,
  nosym       = true,
/

&ELECTRONS
  electron_maxstep = 300,
  conv_thr         = 1.D-4,
  mixing_beta      = 0.30,
/

ATOMIC_SPECIES
C  12.010     C.pbe-n-rrkjus_psl.0.1.UPF 
H  1.007      H.pbe-rrkjus_psl.0.1.UPF 
Ir 192.217    Ir.pbe-n-rrkjus_psl.0.2.3.UPF
N  14.006     N.pbe-n-rrkjus_psl.0.1.UPF

K_POINTS gamma

CELL_PARAMETERS  angstrom
        7.0652699470        0.0000000000         0.0000000000
        0.0000000000        7.0652699470         0.0000000000
        0.0000000000        0.0000000000         7.0652699470 

ATOMIC_POSITIONS (angstrom)
Ir       0.002315448   0.047052043   0.030801806
N        1.201751431  -1.351228389  -1.137797656
N       -1.686624848   0.029822064  -1.318157237
N        0.732694658   1.524744173  -1.200473789
C       -0.605405532   1.595115880   1.097590396
C        1.474723863  -0.360397501   1.369248204
C        1.989599877  -2.008215073  -0.338304628
C        2.238126355  -1.514850080   1.021827131
C       -1.118869148  -1.388567269   0.880883161
C        0.470594896   2.712258027  -0.727498577
C       -0.119162596   2.750800404   0.598142647
C       -2.459325231  -0.973950427  -1.014167124
C       -2.228174453  -1.716404725   0.156150069
H        1.777500544   0.313825021   2.123247088
H        2.888985106  -1.920912667   1.716191885
H        2.714259719  -2.783650102  -0.749744143
H        0.758984097   3.501918798  -1.372067383
H       -0.131684205   3.689269190   1.101676756
H       -1.131665739   1.516441326   2.042479422
H       -2.776433555  -2.634928499   0.489281983
H       -0.957771075  -1.914296026   1.929427364
H       -3.350656807  -1.189448302  -1.611007366
H        1.359727283  -1.639522763  -2.147303275
H        1.012175655   1.572612557  -2.146263821
H       -1.783977578   0.463288092  -2.229718524


