&CONTROL
  calculation   = 'scf',
  pseudo_dir    = '/util/academic/espresso/6.2.1/pseudopotentials/upf_files/',
  outdir        = './',
  prefix        = 'x0',
  disk_io       = 'low',
/

&SYSTEM
  ibrav       = 0,
  nat         = 25,
  ntyp        = 4,
  nspin       = 1,
  nbnd        = 100
  ecutwfc     = 30,
  ecutrho     = 300,
  occupations = 'smearing',
  smearing    = 'gaussian',
  degauss     = 0.01,
  nosym       = true,
/

&ELECTRONS
  electron_maxstep = 300,
  conv_thr         = 1.D-4,
  mixing_beta      = 0.30,
/

ATOMIC_SPECIES
C  12.010     C.pbe-n-rrkjus_psl.0.1.UPF 
H  1.007      H.pbe-rrkjus_psl.0.1.UPF 
Ir 192.217    Ir.pbe-n-rrkjus_psl.0.2.3.UPF
N  14.006     N.pbe-n-rrkjus_psl.0.1.UPF

K_POINTS gamma

CELL_PARAMETERS  angstrom
        7.0652699470        0.0000000000         0.0000000000
        0.0000000000        7.0652699470         0.0000000000
        0.0000000000        0.0000000000         7.0652699470 

ATOMIC_POSITIONS (angstrom)
Ir       0.002166501   0.046150407   0.031527772
N        1.218729534  -1.356901634  -1.127043322
N       -1.670133928   0.048061112  -1.303410470
N        0.726977860   1.562082961  -1.185283010
C       -0.620958550   1.586084843   1.111008255
C        1.465923094  -0.375505870   1.368355009
C        2.011205527  -2.018197058  -0.339509055
C        2.199264859  -1.507749063   1.031518103
C       -1.108262818  -1.391765502   0.855942297
C        0.474146171   2.706906942  -0.731848983
C       -0.150435293   2.766284000   0.604388739
C       -2.441608655  -0.968236669  -1.018247186
C       -2.199974022  -1.755726576   0.106707403
H        1.855773730   0.276220241   2.247705831
H        2.935213204  -1.954756010   1.755790621
H        2.661687287  -2.742489104  -0.804111223
H        0.731332776   3.517932630  -1.423881614
H       -0.144428308   3.742431427   1.116933795
H       -1.149777101   1.479960024   2.069193204
H       -2.812568988  -2.556544869   0.455476344
H       -0.973722301  -1.821554180   1.852644491
H       -3.344264643  -1.138691081  -1.592705577
H        1.202440230  -1.644919017  -2.089121989
H        0.994880668   1.466138094  -2.221221702
H       -1.781936252   0.469253126  -2.262446185


