&CONTROL
  calculation   = 'scf',
  pseudo_dir    = '/util/academic/espresso/6.2.1/pseudopotentials/upf_files/',
  outdir        = './',
  prefix        = 'x0',
  disk_io       = 'low',
/

&SYSTEM
  ibrav       = 0,
  nat         = 25,
  ntyp        = 4,
  nspin       = 1,
  nbnd        = 100
  ecutwfc     = 30,
  ecutrho     = 300,
  occupations = 'smearing',
  smearing    = 'gaussian',
  degauss     = 0.01,
  nosym       = true,
/

&ELECTRONS
  electron_maxstep = 300,
  conv_thr         = 1.D-4,
  mixing_beta      = 0.30,
/

ATOMIC_SPECIES
C  12.010     C.pbe-n-rrkjus_psl.0.1.UPF 
H  1.007      H.pbe-rrkjus_psl.0.1.UPF 
Ir 192.217    Ir.pbe-n-rrkjus_psl.0.2.3.UPF
N  14.006     N.pbe-n-rrkjus_psl.0.1.UPF

K_POINTS gamma

CELL_PARAMETERS  angstrom
        7.0652699470        0.0000000000         0.0000000000
        0.0000000000        7.0652699470         0.0000000000
        0.0000000000        0.0000000000         7.0652699470 

ATOMIC_POSITIONS (angstrom)
Ir       0.002233841   0.047415537   0.030464495
N        1.207935172  -1.352803282  -1.136107794
N       -1.683291955   0.035422494  -1.314602116
N        0.731081393   1.535570270  -1.196973924
C       -0.605096124   1.594015640   1.105523749
C        1.468751386  -0.361644493   1.379294424
C        2.001176658  -2.013892773  -0.336680670
C        2.232090761  -1.514817267   1.024866101
C       -1.116311915  -1.389853645   0.872765071
C        0.472861801   2.712981739  -0.732241992
C       -0.127990770   2.753893323   0.600568403
C       -2.462491832  -0.982323013  -1.013126828
C       -2.221683795  -1.724236184   0.142296524
H        1.797406122   0.304165479   2.141819547
H        2.883019401  -1.917062757   1.715109060
H        2.709533581  -2.774752955  -0.771693579
H        0.731971741   3.480681737  -1.353912248
H       -0.132500610   3.698524618   1.101084586
H       -1.125664869   1.497014697   2.045672937
H       -2.787179275  -2.623043496   0.489119795
H       -0.991023949  -1.893679632   1.910720367
H       -3.340725809  -1.190230376  -1.630123456
H        1.326835881  -1.644755682  -2.139263053
H        1.003832323   1.551141859  -2.162452147
H       -1.780845610   0.469041819  -2.249891064


