&CONTROL
  calculation   = 'scf',
  pseudo_dir    = '/util/academic/espresso/6.2.1/pseudopotentials/upf_files/',
  outdir        = './',
  prefix        = 'x0',
  disk_io       = 'low',
/

&SYSTEM
  ibrav       = 0,
  nat         = 25,
  ntyp        = 4,
  nspin       = 1,
  nbnd        = 100
  ecutwfc     = 30,
  ecutrho     = 300,
  occupations = 'smearing',
  smearing    = 'gaussian',
  degauss     = 0.01,
  nosym       = true,
/

&ELECTRONS
  electron_maxstep = 300,
  conv_thr         = 1.D-4,
  mixing_beta      = 0.30,
/

ATOMIC_SPECIES
C  12.010     C.pbe-n-rrkjus_psl.0.1.UPF 
H  1.007      H.pbe-rrkjus_psl.0.1.UPF 
Ir 192.217    Ir.pbe-n-rrkjus_psl.0.2.3.UPF
N  14.006     N.pbe-n-rrkjus_psl.0.1.UPF

K_POINTS gamma

CELL_PARAMETERS  angstrom
        7.0652699470        0.0000000000         0.0000000000
        0.0000000000        7.0652699470         0.0000000000
        0.0000000000        0.0000000000         7.0652699470 

ATOMIC_POSITIONS (angstrom)
Ir       0.001895188   0.046742807   0.030957765
N        1.219061272  -1.357560908  -1.131959079
N       -1.675385626   0.044107768  -1.306759570
N        0.727683673   1.554721765  -1.188449745
C       -0.613125658   1.589139353   1.112294312
C        1.463905376  -0.370029231   1.378261802
C        2.006378103  -2.017273169  -0.339977641
C        2.211552315  -1.510857322   1.029356982
C       -1.111127403  -1.391827090   0.860885588
C        0.474392074   2.709091363  -0.734044195
C       -0.143888991   2.761344892   0.603637809
C       -2.445293258  -0.972879081  -1.016722898
C       -2.208076766  -1.744567638   0.117755418
H        1.839897772   0.290588311   2.211740438
H        2.913131169  -1.938760085   1.742017680
H        2.679728477  -2.751043404  -0.798132457
H        0.732211607   3.488111787  -1.394810880
H       -0.139270474   3.728511251   1.110620418
H       -1.121668787   1.466196328   2.071279711
H       -2.803571797  -2.580000510   0.470954003
H       -1.000042975  -1.844401920   1.866719677
H       -3.343193617  -1.155754076  -1.600564165
H        1.246248829  -1.645474193  -2.103810650
H        0.997580847   1.495640139  -2.209940301
H       -1.780606974   0.473003280  -2.269907394


