&CONTROL
  calculation = 'md',
  dt = 20.67055,
  nstep = 650,
  pseudo_dir = '/u/fzheng/0.qe_calculations/pseudos/SSSP_efficiency_pseudos',
  outdir = 'temp',
  prefix = 'ZnTHPP',
  disk_io = 'low',
/

&SYSTEM
  ibrav = 0,
  nat   = 81,
  ntyp  = 5,
  nbnd = 150,
  ecutwfc = 45,
  ecutrho = 450,
  tot_charge = 0.0,
  nosym = .true.,
  !input_dft = 'vdw-df2'

/

&ELECTRONS
  electron_maxstep = 300,
  conv_thr = 1.D-5,
  mixing_beta = 0.45,
/

&IONS
  ion_dynamics = 'verlet',
  ion_temperature = 'andersen',
  tempw = 300.00 ,
  nraise = 25,
  pot_extrapolation = 'second_order',
  wfc_extrapolation = 'second_order', 
/


ATOMIC_SPECIES
C      12.01070  C.pbe-n-kjpaw_psl.1.0.0.UPF
N      14.00674  N.pbe-n-radius_5.UPF
H       1.00794  H.pbe-rrkjus_psl.1.0.0.UPF
Zn     65.39000  Zn_pbe_v1.uspp.F.UPF
O      15.999    O.pbe-n-kjpaw_psl.0.1.UPF

K_POINTS gamma                  

CELL_PARAMETERS {angstrom}
 35.000000   0.000000   0.000000
  0.000000  35.000000   0.000000
  0.000000   0.000000  35.000000                                

ATOMIC_POSITIONS {angstrom}
C       14.605785702  10.586297586  16.100929710
C       15.953430042  10.787075732  16.185417034
C       16.172122808  12.216216996  16.186094767
C       17.435081029  12.833045819  16.238959508
C       17.655620953  14.221151778  16.223405167
C       18.961304480  14.843828417  16.268820399
C       18.758492968  16.192866426  16.243961494
C       17.327500632  16.401285564  16.177643983
C       16.708204198  17.663523172  16.122091201
C       15.321486462  17.887371062  16.037126242
C       13.134696707  17.573062602  15.884590946
C       11.652889920  15.561638251  15.815460348
C       11.874270811  16.951855297  15.795476963
C       11.977985658  13.372493073  15.917000578
C       10.553758231  13.587812095  15.809042269
C       10.352775809  14.936134329  15.738485289
C       13.987316010  11.891800942  16.055054488
C       12.600369127  12.110092357  15.976001586
C       14.707732707  19.193995265  15.961411134
C       13.359697772  19.003344716  15.867238918
C       17.604743356  18.862658036  16.102179684
C       18.111381838  19.353366943  14.886953407
C       17.973446261  19.520148510  17.283331833
C       18.928062694  20.480537142  14.843378873
C       18.791630610  20.648960698  17.255678485
C       19.251874588  21.147263497  16.030258161
C       18.634684562  11.941460494  16.286011053
C       19.124658055  11.456405608  17.506326265
C       19.292469180  11.556836883  15.105236425
C       20.217181402  10.591275291  17.558338306
C       20.379897023  10.689309911  15.139276535
C       20.842634996  10.199816137  16.366925447
C       10.678756445  17.848023885  15.669144979
C       10.042287791  18.353511764  16.811599064
C       10.182767423  18.226120532  14.410545449
C        8.973765624  19.245454494  16.707767748
C        9.118232582  19.122322390  14.291996770
C        8.520809335  19.643795407  15.445886687
C       11.713248372  10.905135510  15.901523054
C       11.115174617  10.363695199  17.046145559
C       11.454161743  10.292086790  14.665392853
C       10.264723120   9.257579571  16.967963169
C       10.607529231   9.190792316  14.572505225
C        9.992705894   8.681830757  15.719404088
N       14.959374930  12.867544372  16.105389472
N       16.677488073  15.188385998  16.165311734
N       14.343809582  16.917010328  15.990912433
N       12.624646481  14.588987272  15.921664726
Zn      14.633002336  14.887194028  16.050430706
H       19.514535317  16.974426744  16.267042416
H       19.910668312  14.317129925  16.308845997
H       16.729990493  10.030479291  16.241358580
H       14.075532388   9.639538571  16.068360379
H        9.798725636  12.808648303  15.791157480
H        9.401595535  15.453143405  15.640203396
H       12.593010110  19.770176529  15.789302189
H       15.240677989  20.140504302  15.976209971
H       17.865715852  18.831901229  13.960221260
H       17.623171133  19.131841888  18.240987350
H       19.308245127  20.872533128  13.898738413
H       19.068809273  21.157729846  18.184955409
H       18.645342390  11.781924941  18.430650368
H       18.944696181  11.954025754  14.149207188
H       20.589334505  10.227480220  18.522753661
H       20.894435542  10.372255515  14.230579565
H       10.380244880  18.032497316  17.798101506
H       10.632283693  17.804894297  13.508634286
H        8.485400606  19.631541169  17.608110513
H        8.736623585  19.427658391  13.317172295
H       11.331805188  10.813125915  18.017815913
H       11.912260815  10.699971960  13.762865860
H        9.833746611   8.835158080  17.881441340
H       10.387374183   8.721768946  13.612054644
H        8.491610966   7.610464022  16.277574823
H       22.175869089   9.140158351  17.247471577
H       20.107745929  22.647664790  16.846395618
H        7.144101377  20.770679042  16.163197347
O        9.144150155   7.611394917  15.549133053
O       21.918483968   9.349869908  16.334488810
O       20.008673143  22.285876395  15.941903421
O        7.487563859  20.531529667  15.282971161
