 # Version information for this restart file 
 # current date 2021-06-23 04:55:41.015
 # current working dir /panfs/panfs.cbls.ccr.buffalo.edu/scratch/grp-cyberwksp21/ub2053/cof/opt
 # Program compiled at                              Thu Apr 22 21:44:59 EDT 2021
 # Program compiled on                cpn-k07-07-02.compute.cbls.ccr.buffalo.edu
 # Program compiled for                                                    local
 # Source code revision number                                       git:36754bb
 &GLOBAL
   EXTENDED_FFT_LENGTHS  T
   PRINT_LEVEL  MEDIUM
   PROJECT_NAME COF
   RUN_TYPE  CELL_OPT
 &END GLOBAL
 &MOTION
   &GEO_OPT
     OPTIMIZER  BFGS
     MAX_ITER  550
     MAX_DR     2.0000000000000000E-03
     MAX_FORCE     2.9999999999999997E-04
     RMS_DR     2.0000000000000000E-03
     RMS_FORCE     2.9999999999999997E-04
     &BFGS
     &END BFGS
   &END GEO_OPT
   &CELL_OPT
     OPTIMIZER  BFGS
     MAX_ITER  550
     MAX_DR     2.0000000000000000E-03
     MAX_FORCE     2.9999999999999997E-04
     RMS_DR     2.0000000000000000E-03
     RMS_FORCE     2.9999999999999997E-04
     STEP_START_VAL  4
     TYPE  DIRECT_CELL_OPT
     EXTERNAL_PRESSURE     1.0000000000000000E+02    0.0000000000000000E+00    0.0000000000000000E+00    0.0000000000000000E+00 \
         1.0000000000000000E+02    0.0000000000000000E+00    0.0000000000000000E+00    0.0000000000000000E+00    1.0000000000000000E+02
     KEEP_SYMMETRY  F
     PRESSURE_TOLERANCE     1.0000000000000000E+02
   &END CELL_OPT
   &PRINT
     &TRAJECTORY  SILENT
       &EACH
         GEO_OPT  1
       &END EACH
     &END TRAJECTORY
     &FORCES  ON
     &END FORCES
     &RESTART  SILENT
       BACKUP_COPIES  1
       &EACH
         GEO_OPT  1
       &END EACH
     &END RESTART
   &END PRINT
 &END MOTION
 &FORCE_EVAL
   METHOD  QS
   STRESS_TENSOR  ANALYTICAL
   &DFT
     BASIS_SET_FILE_NAME BASIS_MOLOPT
     POTENTIAL_FILE_NAME POTENTIAL
     MULTIPLICITY  1
     &SCF
       MAX_SCF  50
       EPS_SCF     9.9999999999999995E-07
       SCF_GUESS  ATOMIC
       ADDED_MOS  50
       &DIAGONALIZATION  T
         ALGORITHM  DAVIDSON
       &END DIAGONALIZATION
       &SMEAR  T
         METHOD  FERMI_DIRAC
       &END SMEAR
       &MIXING  T
         METHOD  BROYDEN_MIXING
         ALPHA     2.9999999999999999E-01
         NBUFFER  8
       &END MIXING
     &END SCF
     &QS
       EPS_DEFAULT     1.0000000000000000E-14
       METHOD  GPW
     &END QS
     &MGRID
       NGRIDS  6
       CUTOFF     1.0000000000000000E+03
       REL_CUTOFF     6.0000000000000000E+01
     &END MGRID
     &XC
       DENSITY_CUTOFF     1.0000000000000000E-10
       GRADIENT_CUTOFF     1.0000000000000000E-10
       TAU_CUTOFF     1.0000000000000000E-10
       &XC_GRID
         XC_DERIV  SPLINE2_SMOOTH
       &END XC_GRID
       &XC_FUNCTIONAL  NO_SHORTCUT
         &PBE  T
         &END PBE
       &END XC_FUNCTIONAL
       &VDW_POTENTIAL
         POTENTIAL_TYPE  PAIR_POTENTIAL
         &PAIR_POTENTIAL
           TYPE  DFTD3
           PARAMETER_FILE_NAME dftd3.dat
           REFERENCE_FUNCTIONAL PBE
         &END PAIR_POTENTIAL
       &END VDW_POTENTIAL
     &END XC
     &POISSON
       POISSON_SOLVER  ANALYTIC
       PERIODIC  NONE
     &END POISSON
     &PRINT
       &MO_CUBES  SILENT
         WRITE_CUBE  F
         NLUMO  3
         NHOMO  3
       &END MO_CUBES
       &PDOS  SILENT
         COMPONENTS  T
         APPEND  T
         NLUMO  -1
       &END PDOS
       &MULLIKEN  OFF
       &END MULLIKEN
       &HIRSHFELD  OFF
       &END HIRSHFELD
     &END PRINT
   &END DFT
   &SUBSYS
     &CELL
       A     2.2143443392285068E+01    0.0000000000000000E+00    0.0000000000000000E+00
       B    -1.2304829081431448E+01    1.9115804794661500E+01    0.0000000000000000E+00
       C    -3.6219186053685309E-01    2.6438562160649254E-01    3.8344916064096594E+01
       PERIODIC  XY
       MULTIPLE_UNIT_CELL  1 1 1
     &END CELL
     &COORD
B    3.6551346849872304E+00    8.4170974471532958E+00    2.2027453326113463E+01
B    3.7649487430262147E+00    8.3114152985929106E+00    7.1513741283908967E+00
B    1.5060485450021837E+01    1.9576755166828357E+00    1.2540038146745172E+01
B    1.4990707913607302E+01    2.0213787450451166E+00    1.6667077786185132E+01
C    2.7885243180105506E+00    6.6251200011907754E+00    2.0723901434701915E+01
C    1.5742443324384194E+00    6.4557005645482466E+00    1.9981166215140323E+01
C    6.3714651281636998E+00    6.4326870170494796E+00    2.0912036538952393E+01
C    4.9658817625280962E+00    6.6681241536835056E+00    2.1045461236442318E+01
C   -2.9467603185058105E-01    7.7666718366799081E+00    1.9310392664622139E+01
C    8.3131653683973084E-01    7.5550595571116652E+00    2.0017391988934499E+01
C    7.0833137150068488E+00    5.3477701542712781E+00    2.0772887499674074E+01
C    1.5736732407415579E+00    8.5450179170732437E+00    2.0866697981085554E+01
C    1.2250127029483888E+00    5.4152869742598195E+00    1.9206933445199869E+01
C    3.7334383651261951E+00    8.1958243819509633E+00    4.4462281515723978E+00
C    3.5539714949184731E+00    8.3448368884375697E+00    2.3539962225766718E+01
C    3.6981791172129017E+00    8.2327561304080277E+00    5.6480932117060050E+00
C    3.5125453892788618E+00    8.3623829303420205E+00    2.4777129444278714E+01
C    5.0593070077371385E+00    6.5780501783647853E+00    8.1587108571044524E+00
C    9.2160360815306031E-01    7.4577400252380786E+00    9.1512449153580402E+00
C    1.6587548957591716E+00    6.3449977045204715E+00    9.1719531623527804E+00
C    1.3266885061800933E+00    5.2871572646242440E+00    9.9551853624399467E+00
C   -1.9388145745443841E-01    7.6609109258172579E+00    9.8373647289045696E+00
C   -5.7440927677504217E-01    6.6162026205739917E+00    1.0646408871997139E+01
C    1.4654843807996443E-01    5.4836519697185189E+00    1.0699897755150023E+01
C    2.8711971126368385E+00    6.5358204729573739E+00    8.4364414371229657E+00
C    1.7078926360362972E+00    8.3954329884965873E+00    8.3584815837129653E+00
C    7.1470695393738835E+00    5.2196615710205343E+00    8.4338450621619447E+00
C    6.4406065697867829E+00    6.3303512038332874E+00    8.3411883389128025E+00
C   -2.5602796339430811E+00    5.4237377328860106E+00    1.1665573920279716E+01
C   -1.0636550252412599E+01    1.9041576695512212E+01    1.2491117924394505E+01
C    4.0996632424335964E+00    1.2081313971380360E-01    1.1152646720241687E+01
C    3.3043735016173312E+00    1.1281318869974333E+00    1.1584910958061279E+01
C   -1.9283853360430174E+00    4.2552415260908658E+00    1.1639793947651674E+01
C   -1.1288424092348194E+01    1.8733783080046269E+01    1.3697198666910012E+01
C    4.0063761706714178E+00    2.2747600410054769E+00    1.2230109152217295E+01
C   -1.0087955027247087E+01    1.6822501243010500E+01    1.3000409324866890E+01
C   -6.5569637663620863E+00    1.7891001726099041E+01    1.1714663361707601E+01
C    1.8834793658598026E+00    2.0585852890878726E+00    1.3275172241615271E+01
C    3.0754900940908323E+00    2.7360252804770648E+00    1.3263272970542969E+01
C   -7.6985422985248393E+00    1.7166863173952994E+01    1.1688770335562678E+01
C   -8.7581915409763198E+00    1.7940371582774716E+01    1.1404790626342797E+01
C   -9.9940195254959061E+00    1.7800288623595275E+01    1.2057743802626687E+01
C   -7.8570998969528159E+00    1.6091719271947181E+01    1.2640051434537515E+01
C    2.0642398569957088E+00    1.0492315774769663E+00    1.2265341645050754E+01
C    6.1127340323897146E+00    1.0364856707761640E+00    1.1988758778033825E+01
C   -6.8337964259186110E+00    1.9179757167337947E+01    1.1410270700743888E+01
C    5.2986389625722463E+00    2.1736760012523928E+00    1.2380556635795880E+01
C   -5.5553693814676892E+00    1.7690727411179285E+01    1.2635106355635671E+01
C   -9.1077423592952247E+00    1.5910940635528439E+01    1.3300997712881980E+01
C    4.0500919951411820E+00    2.6265737697106744E+00    1.6664212538681912E+01
C   -5.1893189665273773E+00    1.7033506776560351E+01    1.4822921843892503E+01
C    3.3111312195324354E+00    6.2200700846209376E+00    1.5338767398726334E+01
C    3.0259859306790875E+00    2.7901814062307846E+00    1.5713614213699694E+01
C   -1.0678486280030002E+01    1.6996359525426790E+01    1.5313322439250269E+01
C   -1.0788705586982759E+01    1.7955339116907407E+01    1.6380214244412503E+01
C    1.8630024717458495E+00    2.0719332835208721E+00    1.5767040443189162E+01
C    1.3283572247955751E+00    1.7772002956264057E+00    1.4503892939452154E+01
C   -5.7405510090979934E+00    1.6596408186335516E+01    1.3620524657375332E+01
C    4.5733615566378969E+00    6.0892030323081867E+00    1.4611684661731443E+01
C   -9.6398422685387217E+00    1.6145157922478237E+01    1.5666566514679904E+01
C   -1.1211786140592245E+01    1.9190035868818207E+01    1.6001615957107351E+01
C   -1.0950854352794204E+01    1.7281193207994093E+01    1.4086688893278913E+01
C    5.6358544379978328E+00    6.4382614418552597E+00    1.5180525235172967E+01
C    9.4485349420879472E-01    5.0711837800267046E-01    1.4686809920408717E+01
C    1.7888678949188437E+00    1.1533696531851176E+00    1.6714669238239441E+01
C   -8.9366944276667937E+00    1.5671093900686461E+01    1.4656178570126309E+01
C   -6.8864064199341932E+00    1.5874126555964853E+01    1.3615321499089188E+01
C   -7.4080248054770497E+00    1.5573805316536969E+01    1.4860691480507324E+01
C   -6.9754448957451798E+00    1.5963635333084115E+01    1.6030489387529297E+01
C   -5.7321214101309614E+00    1.6736360706119626E+01    1.6043266754078481E+01
C    3.6497632865017859E+00    3.0628234635936038E+00    1.4486507634463585E+01
C   -7.8709328226960329E+00    1.8622781761566412E+01    1.8122770328046254E+01
C    2.8145004178364892E+00    8.9249215640182722E-01    1.7609446550713457E+01
C   -5.8394498588717418E+00    1.7635349962361197E+01    1.7119070697433184E+01
C   -7.7565012890359153E+00    1.6467131965482992E+01    1.7121432491195961E+01
C   -6.5326971543020007E-01    6.6952491721911409E+00    1.8503460774797713E+01
C   -2.6923641421770621E+00    5.4602963609881963E+00    1.7542679176010022E+01
C   -1.9841078118877282E+00    4.3468803457008152E+00    1.7541658408464187E+01
C   -9.2470674800034356E+00    1.8708903682510705E+01    1.7936248484040668E+01
C    5.5175822735068700E-02    5.5670636917392198E+00    1.8480535459334938E+01
C    3.9456801909182935E+00    1.6151922318927843E+00    1.7606877335092584E+01
C    5.0210625828980531E+00    7.3094699717946099E-01    1.7948103279995923E+01
C   -7.1702749319887618E+00    1.7590597719411132E+01    1.7734473326701821E+01
C   -9.8019481088887499E+00    1.7662631856176070E+01    1.7302400183854974E+01
C   -9.1206211060003533E+00    1.6515062158587146E+01    1.6897221960200270E+01
C    2.1932795589009921E+00    1.2862299394013929E+01    2.0989875780475685E+01
C    2.5593341621729899E+00    1.0394799635684620E+01    2.1238236729487660E+01
C    2.9250329742898127E+00    1.1751392153225126E+01    2.1094402585790117E+01
C    2.6542680328892487E+00    1.0300779208814657E+01    7.9304744085893057E+00
C    3.0123914664689182E+00    1.1642704632196299E+01    8.1125000942814562E+00
C    2.2798554989078115E+00    1.2778449317915603E+01    8.2037299946122282E+00
C    2.4429699949120640E+00    7.5880657100998894E+00    1.2151191068047776E+01
C    1.8049970247502967E+00    9.7340760552707248E+00    1.1965703252623079E+01
C    4.7311391725789891E+00    7.9394744550404708E+00    1.1450083663162713E+01
C    1.5225159585474028E+00    1.0863337571298526E+01    1.2664818736179701E+01
C    1.4888820748547178E+00    8.4683914960161175E+00    1.2552065351299388E+01
C    2.8844046841526829E+00    6.6320599179642468E+00    1.3100871237570320E+01
C    5.1058553178470669E+00    6.9541906637527449E+00    1.2428554820854956E+01
C    3.3795556702146099E+00    8.2742360712110834E+00    1.1408998862155961E+01
C    3.0290905144592810E+00    9.5576661530097162E+00    1.1324265437606272E+01
C    4.2249101712715129E+00    6.3541406070025408E+00    1.3204388442417855E+01
C    8.7534175077565812E-01    8.4301204626169497E+00    1.3824073997120381E+01
C    9.8567652919483695E-01    1.0698552970899881E+01    1.4030302984278972E+01
C    1.5526274269633531E+00    1.1652697253118443E+01    1.4807617477578322E+01
C    5.5749186199985701E+00    6.9682902069603854E+00    1.6538675268643225E+01
C    1.2885973720806903E+00    7.4821458373130927E+00    1.4762433474730850E+01
C    7.0109763113935397E-01    9.5854508267503267E+00    1.4546607271044342E+01
C    2.3523093494913740E+00    6.5648538341850076E+00    1.4406107136461358E+01
C    9.1800338638350942E-01    9.3516553262662896E+00    1.5904502550229797E+01
C    1.3313681667416148E+00    8.0036152454833207E+00    1.6061816129761496E+01
C    3.2762044854156516E+00    6.7943047323416206E+00    1.6636519549639399E+01
C    2.9006538728435287E+00    8.5833762791133807E+00    1.7783341100061438E+01
C    1.8162346098303566E+00    1.1515738793412552E+01    1.6161549188016146E+01
C    2.4373165677750324E+00    9.8765902537746779E+00    1.7651081464198722E+01
C    1.4494581429567805E+00    1.0250135759643507E+01    1.6739156528242564E+01
C    4.4823478447250160E+00    7.0421863007558931E+00    1.7173420627147049E+01
C    2.2491930554403168E+00    7.6042911805298230E+00    1.6982989583039114E+01
C    4.2551799249907445E+00    8.3033760416842224E+00    1.7932258126152927E+01
C    3.4074090912952748E+00    1.0954849084549886E+01    1.7690375207302203E+01
C    8.2584434354997693E+00    7.6464658774877163E+00    2.0830893625928137E+01
C    9.0232064589521546E+00    6.5573401983613628E+00    2.0799975537385880E+01
C    6.9929104326650648E+00    7.5950583127093214E+00    2.0984191406945079E+01
C    1.0541165931784459E+01    4.1033520509423047E+00    2.0112070989624527E+01
C    5.9721313690620743E+00    8.5975901525817608E+00    2.1342518234105821E+01
C    1.1013932085241207E+01    2.9513251602933726E+00    1.9389333704653549E+01
C    8.4512565858232733E+00    5.3188908491292288E+00    2.0839974105582289E+01
C    1.1233402557256149E+01    5.2725349429158870E+00    1.9959937193726020E+01
C    6.0787808333084898E+00    8.4934219796498773E+00    7.8977414798421677E+00
C    8.3943513992054157E+00    7.5834712539488160E+00    8.3156556973979061E+00
C    7.0764245681708813E+00    7.5348761452421966E+00    8.2102148603469214E+00
C    9.1220885666039795E+00    6.4578380787465948E+00    8.3774342499121879E+00
C    8.5713979298206233E+00    5.2091665879869149E+00    8.3196769924883114E+00
C    1.1222295548336938E+01    2.8945709195657314E+00    9.7096955971744965E+00
C    1.2270364719000467E+01    3.0287061528232426E+00    1.0472238315190863E+01
C    1.1243118578434396E+01    5.1488152295847494E+00    9.3207041310314978E+00
C    1.2315122940002512E+01    5.2856353277087678E+00    1.0080998620345373E+01
C    1.0668307283170602E+01    3.9508953924158932E+00    9.0678360698289833E+00
C    1.7472865705511698E+01    2.1094448334682450E+00    1.1849345442001596E+01
C    1.4085722364550156E+01    3.9214958778587552E+00    1.1447027758436525E+01
C    1.8299912807658171E+01    3.0593343057748732E+00    1.1747321978708706E+01
C    1.6226002303449455E+01    3.9510922597869294E+00    1.1879648209575810E+01
C    1.3016942476844077E+01    2.0199201038089902E+00    1.1065344477010896E+01
C    1.7593176261900524E+01    4.3186128124886851E+00    1.1746886695698649E+01
C    1.9697969065537627E+01    3.0690602755173368E+00    1.1658304849169085E+01
C    1.8191913948321801E+01    5.4393968448005072E+00    1.1616184525237500E+01
C    1.6457817000463891E+01    1.6598293268768624E-01    1.1473869483099804E+01
C    7.1040091556883809E+00    7.9380949761309061E-01    1.2996387131903044E+01
C    1.4205783698565783E+01    1.6780198378791894E-01    1.1079882590349465E+01
C    6.9471478595943150E+00    1.7712173794914736E+00    1.4012126389434451E+01
C    5.8703070841183411E+00    2.5529940551485204E+00    1.3645174747213678E+01
C    1.2833434785660048E+01    4.2040827459091901E+00    1.0622587899679926E+01
C   -4.8384375963680109E+00    1.8649264343840048E+01    1.3303833815900054E+01
C    1.4831080807485113E+01    1.9254103977017476E+00    1.5255748314138161E+01
C    1.4915060206676143E+01    1.9272917114684671E+00    1.3959770880854331E+01
C    6.4347688838249377E+00    1.8518111065522262E+00    1.6327515581470355E+01
C   -4.6801834060414071E+00    1.8292289079076070E+01    1.4650371459643083E+01
C   -4.6919145010205456E+00    1.9209006352267643E+01    1.5673687451053123E+01
C    7.1406366896675255E+00    1.4358679198255242E+00    1.5279826374019274E+01
C    5.2673949618222826E+00    2.6880681487373916E+00    1.6033007127067521E+01
C    5.0821718037658172E+00    2.9712719031432684E+00    1.4662096652411828E+01
C    1.3984320162022794E+01    3.9658165875249165E+00    1.7722904357826941E+01
C    1.8136180988267544E+01    5.5586755337163796E+00    1.7524524450047828E+01
C    1.7369550485200001E+01    2.1369501799459143E+00    1.7324287891349016E+01
C    1.2906527037301892E+01    2.0795212674761161E+00    1.8091584559744923E+01
C    1.2223701170883050E+01    5.3530447712777036E+00    1.9129157856101138E+01
C    1.6218917665134374E+01    4.0341512300372555E+00    1.7313938032985543E+01
C    1.2245296602726206E+01    3.1006973975329357E+00    1.8729964335158865E+01
C    1.9642423870359732E+01    3.1533398845445131E+00    1.7535898352646555E+01
C    1.2698463328550503E+01    4.3270432891302191E+00    1.8503933539393891E+01
C    1.8306810846685980E+01    3.0777909820761202E+00    1.7442218836548427E+01
C    1.7605143757674536E+01    4.3129850284212310E+00    1.7420633334018451E+01
C    1.6320636791141911E+01    2.8668110626512761E-01    1.7785522966434904E+01
C    1.4131538133367872E+01    2.3235797036739758E-01    1.8143270272969016E+01
C    6.1824767977339308E+00    8.6352241983195999E-01    1.7315089976949380E+01
C   -5.4003955037895528E+00    1.8851578440936489E+01    1.6909928804388201E+01
C    3.9494177044031122E+00    1.6530521034457667E+01    2.0096038446995646E+01
C    2.7977597004961492E+00    1.4035149827843101E+01    2.0998816619066503E+01
C    4.1938920151440930E+00    1.4045668144533947E+01    2.1001037510241591E+01
C    4.7851616053366302E+00    1.0438289508404726E+01    2.1428911129465725E+01
C    4.3080740660331154E+00    1.1797124476306852E+01    2.1194581451098180E+01
C    2.6029738630183319E+00    1.6428562778169159E+01    2.0238401722277434E+01
C    4.9219200373273884E+00    1.2868111683960974E+01    2.1036875194985928E+01
C    1.8821832191685288E+00    1.7377805680873905E+01    1.9562514476146422E+01
C    4.5669933984318929E+00    1.7332360759264869E+01    1.9221725259668588E+01
C    4.8764438664599563E+00    1.0353210827012884E+01    7.7816287059587026E+00
C    5.0321905425037512E+00    1.2786912654079240E+01    8.1902306459656167E+00
C    4.4049373953203741E+00    1.1675996795990809E+01    8.0631670882102231E+00
C    2.8972872987479010E+00    1.3928544769430514E+01    8.2234693945306425E+00
C    4.2593391228354340E+00    1.3911345931467558E+01    8.2063919268405350E+00
C    1.9419323645615245E+00    1.7257763760260026E+01    9.7312496589617226E+00
C    2.7245187446931918E+00    1.6340682377999951E+01    8.9780720509222824E+00
C    4.0861774059308056E+00    1.6392014680513697E+01    9.2006451029794043E+00
C    4.6500679346805267E+00    1.7286189645421462E+01    1.0016989585914027E+01
C    2.4473440934015578E+00    1.8124912209480406E+01    1.0509121982417016E+01
C    3.8013177763320654E+00    1.8118555844321914E+01    1.0628592775061010E+01
C    5.8840029850808486E+00    1.1131897029986364E+01    1.2217451471274254E+01
C    5.7076727804442529E+00    8.8554697385152501E+00    1.1432278470334397E+01
C    5.2733095898994025E+00    1.0185850817506569E+01    1.1375255427846858E+01
C    6.7488415493639460E+00    8.5265332408927001E+00    1.2454659695719103E+01
C    6.3620419550585900E+00    7.3665999937193067E+00    1.3041788906737734E+01
C    4.9165537764080867E+00    1.2107897803602739E+01    1.2551076555749258E+01
C    7.2868126912243394E+00    9.5621768675225258E+00    1.3260424361563851E+01
C    6.8470195696147007E+00    1.0834292772158749E+01    1.3124507171387636E+01
C    3.9685490685485969E+00    1.0559893617522933E+01    1.1252789633635855E+01
C    2.5069486403872778E+00    1.1825996845471437E+01    1.2744340662609744E+01
C    3.6559481181098330E+00    1.1652733600667654E+01    1.1993483782721265E+01
C    3.7069129577046014E+00    1.2648154003253019E+01    1.4595363133510620E+01
C    4.8975143871720013E+00    1.2591291939801160E+01    1.3862981922573084E+01
C    6.8567410791964614E+00    1.1437193593258053E+01    1.4482758622869319E+01
C    2.5273615354883345E+00    1.2355478722954214E+01    1.4065466812622713E+01
C    7.1598041994607486E+00    8.0078165851648944E+00    1.5177911638838529E+01
C    7.1645733441892157E+00    1.0310933383278366E+01    1.5363916839869059E+01
C    6.6889440076586979E+00    7.9932614813275018E+00    1.6539046804751145E+01
C    5.9113704699982534E+00    1.2295649026591429E+01    1.4798170157056736E+01
C    7.5066618737352968E+00    9.2355925957381491E+00    1.4658941712229108E+01
C    3.9253728837893291E+00    1.2554822561278032E+01    1.6017827034877918E+01
C    6.5844113477997670E+00    7.0880227168695678E+00    1.4392018174583868E+01
C    5.6518076798237100E+00    1.1188532787030489E+01    1.7069445986049303E+01
C    3.7697831619627507E+00    1.8256362917332240E+01    1.8637481015731833E+01
C    3.0345652995286478E+00    1.1920710533853741E+01    1.6725482789814418E+01
C    2.4222697954941559E+00    1.8270800028018257E+01    1.8803530611429316E+01
C    5.3443048081073723E+00    1.2327655355445374E+01    1.6164910893363412E+01
C    6.7387332143484544E+00    1.0358574914709042E+01    1.6728097051018722E+01
C    4.7612929168168074E+00    1.0507227017011447E+01    1.7842466657960369E+01
C    5.1795386216104209E+00    9.2713115220740132E+00    1.7966771991063823E+01
C    6.3880329078813149E+00    9.1297115006986900E+00    1.7326333640345286E+01
H    6.5914883750014805E+00    4.3801155426063261E+00    2.0685288146091512E+01
H   -8.0283412893422379E-01    8.6446904307188603E+00    1.9290633729887233E+01
H    1.8155129059606867E+00    4.5503410106417244E+00    1.9159865793909006E+01
H   -7.1814921800652265E-01    8.5443013434403898E+00    9.8630531573643250E+00
H    1.9023375628796704E+00    4.4381944095044874E+00    1.0003232955382016E+01
H    6.6845926112854954E+00    4.3016553565452380E+00    8.5201797470774761E+00
H    1.1584161422432209E+00    1.2841093009804382E+01    2.0964369112893465E+01
H    1.2500562175498342E+00    1.2740753889377872E+01    8.2441613893212438E+00
H    8.8048440194519060E+00    8.5771309597457410E+00    2.0907780801093093E+01
H    1.0577099742332138E+01    2.0816898830067130E+00    1.9609973754039252E+01
H    8.9040092272625007E+00    8.4978287688504501E+00    8.3127958678294522E+00
H    1.0705123416224781E+01    1.9980274302661551E+00    9.5682975795815750E+00
H    1.2868298754308231E+01    6.1839565320611998E+00    1.0161585829396616E+01
H    2.0225549681055487E+01    2.2058698894873050E+00    1.1631315412872619E+01
H    1.7632900772898566E+01    6.3064768765513977E+00    1.1589066657231866E+01
H    1.7551148261606713E+01    6.4165132280467461E+00    1.7583963880738501E+01
H    2.0151257944300923E+01    2.3025659257332149E+00    1.7567802456625810E+01
H    1.2765103987282142E+01    6.2715397182614279E+00    1.9027902048410812E+01
H    5.9984183244199221E+00    1.2939624212614298E+01    2.1023777389250686E+01
H    7.9296006492878723E-01    1.7324644575630806E+01    1.9725281416504117E+01
H    5.6020981275438251E+00    1.7388476426480469E+01    1.9116386452988614E+01
H    6.0986380353505787E+00    1.2849482976783579E+01    8.2373100316590797E+00
H    5.7050132311062995E+00    1.7307013142103028E+01    1.0130401078935497E+01
H    8.7257106751938895E-01    1.7238457251999112E+01    9.5104106737781287E+00
N    3.9302140179675646E+00    5.9451371798367241E+00    2.0675730279248025E+01
N    2.6032488922978252E+00    7.7857503591067978E+00    2.1237340349496598E+01
N    4.9014232950131440E+00    7.8799272308419575E+00    2.1496467057653607E+01
N    5.0222891621940038E+00    7.8005906496892976E+00    7.7437172774845022E+00
N    2.6949192841018750E+00    7.7081395847765446E+00    7.9302956706454353E+00
N    4.0468695552152800E+00    5.8754581046553724E+00    8.4640465660439510E+00
N    1.4071023953299862E+00    9.8485714593914544E+00    2.0923632407330199E+01
N    3.6965218224757410E+00    9.8055850249480212E+00    2.1528552152501341E+01
N    3.7854090466852912E+00    9.7231425771504600E+00    7.6123592531787203E+00
N    1.5105474303197688E+00    9.7189802056555852E+00    8.3005470404086470E+00
N    1.6347637059066777E+01    2.6798548638403763E+00    1.2030480283940864E+01
N    1.3923224550722628E+01    2.6009282512137255E+00    1.1735778886828324E+01
N    1.5214607802925553E+01    6.6462712813714397E-01    1.1747360218392945E+01
N    1.5105032516689466E+01    4.6131302494027882E+00    1.1580831661732951E+01
N    1.7480311904447365E+01    8.3134965478520839E-01    1.1588664046077094E+01
N    1.3038565712653487E+01    6.5956756167604169E-01    1.0851343777507955E+01
N    1.3837263579000439E+01    2.7359546202038501E+00    1.7446371212286163E+01
N    1.5043917373457178E+01    7.1296576607647866E-01    1.7438638431431251E+01
N    1.6192099194867083E+01    2.7409583386924878E+00    1.7183885991949065E+01
N    1.2949994247379673E+01    6.8377982471760124E-01    1.8386982221788319E+01
N    1.7408244531409739E+01    8.9989432190485419E-01    1.7634238118291623E+01
N    1.4984754472861111E+01    4.6246760955894182E+00    1.7599562079671642E+01
N    5.9272651144933395E+00    9.8837247881621231E+00    2.1343624633243515E+01
N    6.0431900047699658E+00    9.7906064454337276E+00    7.8436352888437497E+00
S   -1.8710493683511003E+00    6.9839467953255703E+00    1.1720400177656479E+01
S   -2.2394857363419840E-01    4.2097629173749604E+00    1.1753392100834597E+01
S   -1.9670529360395441E+00    7.0693124391097788E+00    1.7428639149079583E+01
S   -2.9502979432609822E-01    4.2890366234268651E+00    1.7423778558889342E+01
S    9.2020457517471073E+00    3.8915690583189333E+00    2.1097407389452162E+01
S    1.0732912595435153E+01    6.4916868668753436E+00    2.0739119907253698E+01
S    9.3272106763444711E+00    3.9144057764666615E+00    8.0471566396357161E+00
S    1.0845663647088831E+01    6.4370601353065515E+00    8.4650894521713873E+00
S    1.8944146823165675E+00    1.5339328180569412E+01    2.1314528509450348E+01
S    5.0641782445638439E+00    1.5642907805634964E+01    2.1010228406973532E+01
S    2.0235104356623257E+00    1.5185612598447936E+01    7.9738080273863297E+00
S    5.1558950515194342E+00    1.5494837035254843E+01    8.3040112437990743E+00
H    3.7660227246969300E+00    8.2075565180388672E+00    3.3379947958230529E+00
H    3.5101055704783284E+00    8.3812442287523581E+00    2.5847407924757494E+01
     &END COORD
     &KIND H
       BASIS_SET DZVP-MOLOPT-GTH
       POTENTIAL GTH-PBE-q1
       &POTENTIAL
 1
  0.2000000000000000E+00 2 -0.4178900440000000E+01  0.7244633100000000E+00
 0
         # Potential name:  GTH-PBE-Q1  for symbol:  H
         # Potential read from the potential filename: POTENTIAL
       &END POTENTIAL
     &END KIND
     &KIND C
       BASIS_SET DZVP-MOLOPT-GTH
       POTENTIAL GTH-PBE-q4
       &POTENTIAL
 2 2
  0.3384712400000000E+00 2 -0.8803673979999999E+01  0.1339210850000000E+01
 2
  0.3025757500000000E+00 1  0.9622486650000001E+01
  0.2915069400000000E+00 0
         # Potential name:  GTH-PBE-Q4  for symbol:  C
         # Potential read from the potential filename: POTENTIAL
       &END POTENTIAL
     &END KIND
     &KIND N
       BASIS_SET DZVP-MOLOPT-GTH
       POTENTIAL GTH-PBE-q5
       &POTENTIAL
 2 3
  0.2837905100000000E+00 2 -0.1241522559000000E+02  0.1868095920000000E+01
 2
  0.2554050000000000E+00 1  0.1363026257000000E+02
  0.2454945300000000E+00 0
         # Potential name:  GTH-PBE-Q5  for symbol:  N
         # Potential read from the potential filename: POTENTIAL
       &END POTENTIAL
     &END KIND
     &KIND B
       BASIS_SET DZVP-MOLOPT-SR-GTH
       POTENTIAL GTH-PBE-q3
       &POTENTIAL
 2 1
  0.4189914500000000E+00 2 -0.5859461710000000E+01  0.9037564300000001E+00
 2
  0.3713204600000000E+00 1  0.6297280180000000E+01
  0.3645630800000000E+00 0
         # Potential name:  GTH-PBE-Q3  for symbol:  B
         # Potential read from the potential filename: POTENTIAL
       &END POTENTIAL
     &END KIND
     &KIND S
       BASIS_SET DZVP-MOLOPT-GTH
       POTENTIAL GTH-PBE-q6
       &POTENTIAL
 2 4
  0.4200000000000000E+00 1 -0.5986260380000000E+01
 2
  0.3648203500000000E+00 2  0.1314354448000000E+02 -0.4241830450000000E+01
  0.5476179570000000E+01
  0.4094804800000000E+00 1  0.3700890570000000E+01
         # Potential name:  GTH-PBE-Q6  for symbol:  S
         # Potential read from the potential filename: POTENTIAL
       &END POTENTIAL
     &END KIND
     &TOPOLOGY
       COORD_FILE_NAME cof.xyz
       COORD_FILE_FORMAT  XYZ
       NUMBER_OF_ATOMS  288
       MULTIPLE_UNIT_CELL  1 1 1
     &END TOPOLOGY
   &END SUBSYS
 &END FORCE_EVAL
