 # Version information for this restart file 
 # current date 2021-06-23 07:47:49.184
 # current working dir /panfs/panfs.cbls.ccr.buffalo.edu/scratch/grp-cyberwksp21/ub2053/cof/opt
 # Program compiled at                              Thu Apr 22 21:44:59 EDT 2021
 # Program compiled on                cpn-k07-07-02.compute.cbls.ccr.buffalo.edu
 # Program compiled for                                                    local
 # Source code revision number                                       git:36754bb
 &GLOBAL
   EXTENDED_FFT_LENGTHS  T
   PRINT_LEVEL  MEDIUM
   PROJECT_NAME COF
   RUN_TYPE  CELL_OPT
 &END GLOBAL
 &MOTION
   &GEO_OPT
     OPTIMIZER  BFGS
     MAX_ITER  550
     MAX_DR     2.0000000000000000E-03
     MAX_FORCE     2.9999999999999997E-04
     RMS_DR     2.0000000000000000E-03
     RMS_FORCE     2.9999999999999997E-04
     &BFGS
     &END BFGS
   &END GEO_OPT
   &CELL_OPT
     OPTIMIZER  BFGS
     MAX_ITER  550
     MAX_DR     2.0000000000000000E-03
     MAX_FORCE     2.9999999999999997E-04
     RMS_DR     2.0000000000000000E-03
     RMS_FORCE     2.9999999999999997E-04
     STEP_START_VAL  6
     TYPE  DIRECT_CELL_OPT
     EXTERNAL_PRESSURE     1.0000000000000000E+02    0.0000000000000000E+00    0.0000000000000000E+00    0.0000000000000000E+00 \
         1.0000000000000000E+02    0.0000000000000000E+00    0.0000000000000000E+00    0.0000000000000000E+00    1.0000000000000000E+02
     KEEP_SYMMETRY  F
     PRESSURE_TOLERANCE     1.0000000000000000E+02
   &END CELL_OPT
   &PRINT
     &TRAJECTORY  SILENT
       &EACH
         GEO_OPT  1
       &END EACH
     &END TRAJECTORY
     &FORCES  ON
     &END FORCES
     &RESTART  SILENT
       BACKUP_COPIES  1
       &EACH
         GEO_OPT  1
       &END EACH
     &END RESTART
   &END PRINT
 &END MOTION
 &FORCE_EVAL
   METHOD  QS
   STRESS_TENSOR  ANALYTICAL
   &DFT
     BASIS_SET_FILE_NAME BASIS_MOLOPT
     POTENTIAL_FILE_NAME POTENTIAL
     MULTIPLICITY  1
     &SCF
       MAX_SCF  50
       EPS_SCF     9.9999999999999995E-07
       SCF_GUESS  ATOMIC
       ADDED_MOS  50
       &DIAGONALIZATION  T
         ALGORITHM  DAVIDSON
       &END DIAGONALIZATION
       &SMEAR  T
         METHOD  FERMI_DIRAC
       &END SMEAR
       &MIXING  T
         METHOD  BROYDEN_MIXING
         ALPHA     2.9999999999999999E-01
         NBUFFER  8
       &END MIXING
     &END SCF
     &QS
       EPS_DEFAULT     1.0000000000000000E-14
       METHOD  GPW
     &END QS
     &MGRID
       NGRIDS  6
       CUTOFF     1.0000000000000000E+03
       REL_CUTOFF     6.0000000000000000E+01
     &END MGRID
     &XC
       DENSITY_CUTOFF     1.0000000000000000E-10
       GRADIENT_CUTOFF     1.0000000000000000E-10
       TAU_CUTOFF     1.0000000000000000E-10
       &XC_GRID
         XC_DERIV  SPLINE2_SMOOTH
       &END XC_GRID
       &XC_FUNCTIONAL  NO_SHORTCUT
         &PBE  T
         &END PBE
       &END XC_FUNCTIONAL
       &VDW_POTENTIAL
         POTENTIAL_TYPE  PAIR_POTENTIAL
         &PAIR_POTENTIAL
           TYPE  DFTD3
           PARAMETER_FILE_NAME dftd3.dat
           REFERENCE_FUNCTIONAL PBE
         &END PAIR_POTENTIAL
       &END VDW_POTENTIAL
     &END XC
     &POISSON
       POISSON_SOLVER  ANALYTIC
       PERIODIC  NONE
     &END POISSON
     &PRINT
       &MO_CUBES  SILENT
         WRITE_CUBE  F
         NLUMO  3
         NHOMO  3
       &END MO_CUBES
       &PDOS  SILENT
         COMPONENTS  T
         APPEND  T
         NLUMO  -1
       &END PDOS
       &MULLIKEN  OFF
       &END MULLIKEN
       &HIRSHFELD  OFF
       &END HIRSHFELD
     &END PRINT
   &END DFT
   &SUBSYS
     &CELL
       A     2.1707143050563992E+01    0.0000000000000000E+00    0.0000000000000000E+00
       B    -1.2295273719646181E+01    1.8615804794661500E+01    0.0000000000000000E+00
       C    -3.6192545429909251E-01    2.6465802085352375E-01    3.8095366573424158E+01
       PERIODIC  XY
       MULTIPLE_UNIT_CELL  1 1 1
     &END CELL
     &COORD
B    3.4727136458819143E+00    8.1950684631498518E+00    2.1876268736215131E+01
B    3.5866124589895043E+00    8.0800308851957023E+00    7.1154099833220954E+00
B    1.4742559027710453E+01    1.9207488725397468E+00    1.2483377451017597E+01
B    1.4671239591223740E+01    1.9816885581480470E+00    1.6528068051661069E+01
C    2.6511252163786971E+00    6.4292500567848085E+00    2.0587271743733666E+01
C    1.4444039112057914E+00    6.2949118810308535E+00    1.9869627682990963E+01
C    6.1754942166128792E+00    6.2665438689794355E+00    2.0772394029467662E+01
C    4.7864793171756750E+00    6.4937462888961601E+00    2.0896682543307442E+01
C   -3.9968861531346023E-01    7.5680206613483580E+00    1.9187046723862718E+01
C    7.1420091883894521E-01    7.3390871330456369E+00    1.9874549802409778E+01
C    6.8835301065273935E+00    5.2309674111131699E+00    2.0637306811840745E+01
C    1.4345227123103619E+00    8.3461208908743423E+00    2.0736707779841698E+01
C    1.1381287897300834E+00    5.2661766009446884E+00    1.9076138144089072E+01
C    3.5547616895260545E+00    7.9714487196708603E+00    4.4300051295120699E+00
C    3.3790210482400993E+00    8.1339673317357590E+00    2.3371421748304240E+01
C    3.5205166132448258E+00    8.0194331567531929E+00    5.6171219325940021E+00
C    3.3381243347898284E+00    8.1441047380039748E+00    2.4615114759108064E+01
C    4.8753863074045931E+00    6.4187047487200726E+00    8.1113038371969974E+00
C    7.9762954556175114E-01    7.2451011367600078E+00    9.0959846985513728E+00
C    1.5294420053369371E+00    6.1820805693526557E+00    9.1065900965168201E+00
C    1.2492661425422911E+00    5.1432943823201276E+00    9.9039073800278974E+00
C   -3.0221167391999715E-01    7.4627428629653210E+00    9.7635606196393265E+00
C   -6.5254259752858268E-01    6.4378719774566751E+00    1.0576686230607510E+01
C    5.9990864658584803E-02    5.3318505168964121E+00    1.0626647894285151E+01
C    2.7303364304632693E+00    6.3550284172317726E+00    8.4007201866053212E+00
C    1.5786569016047483E+00    8.1749278381296264E+00    8.3002361534030573E+00
C    6.9371329726475643E+00    5.0889066178519045E+00    8.3825539231852133E+00
C    6.2311216980069135E+00    6.1561362460230153E+00    8.2866240333278434E+00
C   -2.5525149934946905E+00    5.2954136601618131E+00    1.1600925215935236E+01
C   -1.0631073436694841E+01    1.8577221317778761E+01    1.2427615747117294E+01
C    4.0350254453160490E+00    1.3239449213537136E-01    1.1065500699997804E+01
C    3.2172147968200946E+00    1.0751445034612670E+00    1.1503820207391632E+01
C   -1.9630975967328921E+00    4.1484026661938165E+00    1.1549570691078612E+01
C   -1.1294714998480320E+01    1.8303097962821390E+01    1.3610000509835361E+01
C    3.9127327912646237E+00    2.2415229267465455E+00    1.2142149906346900E+01
C   -1.0079985234948337E+01    1.6384592610190658E+01    1.2926317066413633E+01
C   -6.6482453210422854E+00    1.7439193520877375E+01    1.1644143695560379E+01
C    1.7804205732231435E+00    2.0400258811982313E+00    1.3193063139220714E+01
C    2.9533055215628234E+00    2.6636117228425622E+00    1.3183234106844823E+01
C   -7.7637019526431015E+00    1.6748018260761636E+01    1.1602987139991512E+01
C   -8.8037779722198088E+00    1.7472227393156512E+01    1.1334033860568962E+01
C   -1.0024138114506796E+01    1.7318231234889719E+01    1.1996434746083628E+01
C   -7.9099279963846438E+00    1.5649129471054733E+01    1.2554142746401569E+01
C    1.9934452320325977E+00    1.0280786200741867E+00    1.2187326978542455E+01
C    6.0025122267927262E+00    1.0095736816991334E+00    1.1911389722039228E+01
C   -6.9149481819979286E+00    1.8692454771031368E+01    1.1345653122387271E+01
C    5.1682607615370797E+00    2.1216389922119943E+00    1.2293365660151778E+01
C   -5.6650529223651036E+00    1.7266229468576796E+01    1.2557697451273452E+01
C   -9.1337045418467309E+00    1.5449018368345639E+01    1.3215818300032881E+01
C    3.9241897700195096E+00    2.5821030116973005E+00    1.6566267079569275E+01
C   -5.2944977988485435E+00    1.6589351632112411E+01    1.4724406576453706E+01
C    3.1811924988512028E+00    6.0675431667551400E+00    1.5229671595162982E+01
C    2.9274253198534086E+00    2.7014743425973342E+00    1.5615215350497211E+01
C   -1.0668296045429665E+01    1.6557603769604931E+01    1.5205617257871610E+01
C   -1.0769426521801604E+01    1.7500796452829757E+01    1.6278460510127740E+01
C    1.7689124658123521E+00    2.0004382918724577E+00    1.5673845954605532E+01
C    1.2453989565379522E+00    1.7642266241084417E+00    1.4412377823766803E+01
C   -5.8442030446141304E+00    1.6162331924049628E+01    1.3538440208658100E+01
C    4.4501238162702474E+00    5.9516581041897343E+00    1.4512853000594617E+01
C   -9.6450661134224411E+00    1.5728478900113238E+01    1.5563061258095313E+01
C   -1.1246551599722334E+01    1.8695724234069775E+01    1.5870291878067913E+01
C   -1.0941851407329686E+01    1.6811161018035509E+01    1.4016114539403453E+01
C    5.4479651546891983E+00    6.2766191378696883E+00    1.5075103169890253E+01
C    9.5112085342551567E-01    5.3409632146421093E-01    1.4588353626304620E+01
C    1.7433240131848122E+00    1.1496891645900642E+00    1.6613185012935752E+01
C   -9.0000673758404819E+00    1.5275407564465842E+01    1.4556065011785508E+01
C   -6.9621606254424693E+00    1.5451065810730515E+01    1.3526503855251317E+01
C   -7.4266402896623660E+00    1.5168272707493470E+01    1.4763843850701207E+01
C   -7.0497657954566950E+00    1.5529403710858544E+01    1.5920290996710062E+01
C   -5.8220191933374759E+00    1.6298823040933325E+01    1.5943096866128480E+01
C    3.5360059298364250E+00    2.9577378009217346E+00    1.4405463833085340E+01
C   -7.9650479441887718E+00    1.8139673228550890E+01    1.8013652864433091E+01
C    2.7773413387219139E+00    8.8604608984626143E-01    1.7492577044669709E+01
C   -5.9295826715795528E+00    1.7161088513706758E+01    1.7028523557186212E+01
C   -7.8084140067618408E+00    1.6027762256955082E+01    1.7024856809191039E+01
C   -7.2677389471375564E-01    6.5002968704294810E+00    1.8377169896578685E+01
C   -2.6924469007967970E+00    5.3010241289228572E+00    1.7429852257779071E+01
C   -1.9940835259612677E+00    4.2319227862812889E+00    1.7430204601186883E+01
C   -9.3135284450004363E+00    1.8235848891837406E+01    1.7821997612145118E+01
C   -3.0117220336483265E-02    5.4164664521367234E+00    1.8358974433674238E+01
C    3.8468770361777525E+00    1.5861571098383354E+00    1.7482064441417638E+01
C    4.9214875217992278E+00    7.0497277936461655E-01    1.7843467200944414E+01
C   -7.2797216853589610E+00    1.7156592104450695E+01    1.7627510719332587E+01
C   -9.8199671367941068E+00    1.7199227371893112E+01    1.7176672656245774E+01
C   -9.1574906495748767E+00    1.6061509718771397E+01    1.6790375394313752E+01
C    1.9828963820875856E+00    1.2536583186499309E+01    2.0858803479325605E+01
C    2.3724563396451552E+00    1.0124624253296814E+01    2.1133981168869763E+01
C    2.7169563940086454E+00    1.1459939869945707E+01    2.0971567903075417E+01
C    2.4809275068538277E+00    1.0028798721037761E+01    7.8820544995966122E+00
C    2.8017051784813001E+00    1.1343223047140160E+01    8.0657248893398332E+00
C    2.0733366284270529E+00    1.2454360839834582E+01    8.1476225464869803E+00
C    2.2869681378687594E+00    7.4015858723563221E+00    1.2068075317946697E+01
C    1.6506047733520499E+00    9.4817719693043649E+00    1.1874591978447077E+01
C    4.5381320715327300E+00    7.7479026368701769E+00    1.1336727395352694E+01
C    1.3391237270644254E+00    1.0594104169542028E+01    1.2565394728985748E+01
C    1.3627232430729861E+00    8.2327128871861728E+00    1.2471558968698501E+01
C    2.7556161689290470E+00    6.4461686921826944E+00    1.3016827965312636E+01
C    4.9031511782411981E+00    6.7872778774550708E+00    1.2339972241907578E+01
C    3.1915205992334941E+00    8.0695937299071723E+00    1.1347192902336174E+01
C    2.8619030633072513E+00    9.3122818127863312E+00    1.1273727842685313E+01
C    4.0644029262730710E+00    6.2069350825848195E+00    1.3116147219003761E+01
C    7.3967801724992932E-01    8.1979393638701623E+00    1.3729310483067787E+01
C    8.3983924765817597E-01    1.0380119786519620E+01    1.3959292567856712E+01
C    1.3710254806731577E+00    1.1318925839144121E+01    1.4695229308985718E+01
C    5.3569170585820656E+00    6.7796600244438467E+00    1.6431733115920007E+01
C    1.1660463944180013E+00    7.2894045202874800E+00    1.4671136256226029E+01
C    5.9054622989224870E-01    9.3264940568828507E+00    1.4453672611819705E+01
C    2.2607802447275187E+00    6.3856913620673650E+00    1.4308102122636194E+01
C    7.8549925012433319E-01    9.1029185967624766E+00    1.5784403335307307E+01
C    1.2091640970576685E+00    7.7789589628228191E+00    1.5965732360711488E+01
C    3.1328144493727139E+00    6.6360097772092406E+00    1.6539495315247578E+01
C    2.7490631409948145E+00    8.3259904548174113E+00    1.7654813011075149E+01
C    1.6477861959887379E+00    1.1229717810296977E+01    1.6040403383812013E+01
C    2.2474343431014119E+00    9.6001381417227716E+00    1.7527953178963163E+01
C    1.2782136998363021E+00    9.9696409148423495E+00    1.6633592179596604E+01
C    4.3059558801338014E+00    6.8179945581549681E+00    1.7051892275406182E+01
C    2.0938975595107281E+00    7.3749988558133177E+00    1.6860381100673568E+01
C    4.0789708449056414E+00    8.0800081147995346E+00    1.7825633305274597E+01
C    3.1993130814070123E+00    1.0693579661891043E+01    1.7550624798746526E+01
C    7.9759805026487305E+00    7.4358616761741896E+00    2.0662413950646958E+01
C    8.7703042170613834E+00    6.3976446390887372E+00    2.0658236367312899E+01
C    6.7669333029638086E+00    7.3883029764403512E+00    2.0822176951970963E+01
C    1.0252904395859893E+01    4.0069630153764280E+00    1.9978473961751508E+01
C    5.7469845262761172E+00    8.3826387834814415E+00    2.1198348717923828E+01
C    1.0724426242940838E+01    2.8724286163731998E+00    1.9218443919662526E+01
C    8.2460989548547214E+00    5.1748642177380981E+00    2.0707626898576585E+01
C    1.0940961226992666E+01    5.1454587147314790E+00    1.9831952758427537E+01
C    5.8602004806725132E+00    8.2733181766146888E+00    7.8369930186365879E+00
C    8.1234454775246245E+00    7.3826629563907824E+00    8.2655839697391560E+00
C    6.8401184861269186E+00    7.3456833017734642E+00    8.1453160358353873E+00
C    8.8626022505690987E+00    6.2896207873510264E+00    8.3267003305295955E+00
C    8.3615162343829255E+00    5.0600406912657618E+00    8.2726319955564520E+00
C    1.0981583735585478E+01    2.8286252003785424E+00    9.6579263135921778E+00
C    1.1989525746703544E+01    2.9711938213439071E+00    1.0411386397297475E+01
C    1.0932994166278265E+01    4.9996887563666466E+00    9.2866789602542443E+00
C    1.1968135734338809E+01    5.1491094946107703E+00    1.0035293906770491E+01
C    1.0394077091638767E+01    3.8223978833354844E+00    9.0091221532937258E+00
C    1.7139167496153608E+01    2.0806888843501641E+00    1.1771607779905175E+01
C    1.3768167405970605E+01    3.8289297922628491E+00    1.1383670294488224E+01
C    1.7888496205487357E+01    2.9703254388003835E+00    1.1663919030509534E+01
C    1.5865140805694903E+01    3.8579624206562930E+00    1.1811634063297545E+01
C    1.2722477592928662E+01    1.9748599572373395E+00    1.0982142757329761E+01
C    1.7215895435747655E+01    4.2289615888657970E+00    1.1668054291832897E+01
C    1.9297613501379747E+01    2.9856086607447399E+00    1.1589703353683980E+01
C    1.7776254433451538E+01    5.3111656051630209E+00    1.1540552298935252E+01
C    1.6153631040488769E+01    1.6095251706409747E-01    1.1418853590498706E+01
C    6.9666159053468357E+00    7.8224336628989644E-01    1.2934229509485032E+01
C    1.3919900845699408E+01    1.7486260946221771E-01    1.1003838714394414E+01
C    6.7969267864346223E+00    1.7438042760508232E+00    1.3938009467680773E+01
C    5.7254385254443427E+00    2.4808118928750127E+00    1.3562039729427740E+01
C    1.2512955969149449E+01    4.1025698650744173E+00    1.0556697718470785E+01
C   -4.9493111153929554E+00    1.8165672951830047E+01    1.3232045776140616E+01
C    1.4507866596892784E+01    1.9055903956374987E+00    1.5187626456502441E+01
C    1.4602606362916520E+01    1.9282553271256411E+00    1.3839273781548357E+01
C    6.3168337293465955E+00    1.7934202998982023E+00    1.6208813089733567E+01
C   -4.8365164481888447E+00    1.7834020510635771E+01    1.4560174305669010E+01
C   -4.7985849918401966E+00    1.8719757910004006E+01    1.5584027119235785E+01
C    6.9625914117857146E+00    1.4082736353104128E+00    1.5181631828287285E+01
C    5.1119740987386608E+00    2.6080749130823362E+00    1.5930780330283202E+01
C    4.9544934757860721E+00    2.8534168849102763E+00    1.4568712574411935E+01
C    1.3664378082304790E+01    3.8605921407066082E+00    1.7586786984606068E+01
C    1.7729991401301067E+01    5.4416575292293032E+00    1.7397294903912837E+01
C    1.7025320466314891E+01    2.0893051218548773E+00    1.7196999969143111E+01
C    1.2595429116864830E+01    2.0249624693652741E+00    1.7970986631168280E+01
C    1.1881471977015101E+01    5.2132038568127657E+00    1.8989509025985075E+01
C    1.5889512933602058E+01    3.9404122913111630E+00    1.7183721796512991E+01
C    1.2002818098229529E+01    3.0366418928200232E+00    1.8625629003433193E+01
C    1.9249405188636274E+01    3.0620577609581749E+00    1.7414694571624850E+01
C    1.2352848664271059E+01    4.2462941485893912E+00    1.8364246341905488E+01
C    1.7920884009882592E+01    2.9645307631763127E+00    1.7331277523513524E+01
C    1.7266257880354274E+01    4.1878083070878063E+00    1.7292758375559352E+01
C    1.5983213676901219E+01    2.9685402930297805E-01    1.7660592293096101E+01
C    1.3848498672934928E+01    2.3020515710124209E-01    1.8025956278116507E+01
C    6.0423276281278984E+00    8.2454362486420496E-01    1.7226873795601556E+01
C   -5.5399572858103179E+00    1.8349569068630881E+01    1.6806637984008894E+01
C    3.6464351551156482E+00    1.6117318520865187E+01    1.9965971284724933E+01
C    2.5471228519698008E+00    1.3692076689229140E+01    2.0854214507898735E+01
C    3.9343281061198527E+00    1.3689323019797492E+01    2.0876480034863686E+01
C    4.5635988894528658E+00    1.0174159859811198E+01    2.1327178727510258E+01
C    4.0707177315492515E+00    1.1507639519164226E+01    2.1060425809168287E+01
C    2.3397731894681391E+00    1.5988054385458900E+01    2.0106861179213233E+01
C    4.6632245077215426E+00    1.2527338495066573E+01    2.0907041701233972E+01
C    1.6466121781112248E+00    1.6943293363574462E+01    1.9428002167544538E+01
C    4.2695946278553709E+00    1.6864610549382100E+01    1.9091944712972051E+01
C    4.6565569698044875E+00    1.0087856966706219E+01    7.6973228443540149E+00
C    4.7752517018462992E+00    1.2452799290723346E+01    8.1350628353856322E+00
C    4.1762463531207823E+00    1.1381185100758852E+01    8.0168480538996061E+00
C    2.6550718146709533E+00    1.3576674235010065E+01    8.1780109645724117E+00
C    3.9907411210123893E+00    1.3540939075340740E+01    8.1361147725721903E+00
C    1.6990169629095979E+00    1.6809396474141248E+01    9.7105080610606542E+00
C    2.4709651651534976E+00    1.5904358188969804E+01    8.9214639006763097E+00
C    3.8060729907556681E+00    1.5968911149401833E+01    9.1616731185472311E+00
C    4.3444354021115679E+00    1.6835080211594295E+01    9.9530670910996246E+00
C    2.1585364368656821E+00    1.7638743579173408E+01    1.0474593387479853E+01
C    3.4908681524718741E+00    1.7624458950143058E+01    1.0572752127782490E+01
C    5.6331660865048461E+00    1.0839684489384151E+01    1.2129684097948623E+01
C    5.4962333943574047E+00    8.5897394423149489E+00    1.1340822304829674E+01
C    5.0395603149780319E+00    9.9236803914976530E+00    1.1260598970445072E+01
C    6.5218691839603284E+00    8.3063082337940859E+00    1.2362105897846993E+01
C    6.1549483011317090E+00    7.1936098810579496E+00    1.2952939989328545E+01
C    4.6938676941014492E+00    1.1810606437616384E+01    1.2427539254546760E+01
C    7.0520625546748308E+00    9.3411551365966332E+00    1.3172125809368692E+01
C    6.5855062784138925E+00    1.0559370657755355E+01    1.3021358802332951E+01
C    3.7810165060282821E+00    1.0306272809251432E+01    1.1153548240521170E+01
C    2.3063788592517138E+00    1.1517185119939302E+01    1.2674631905595504E+01
C    3.4396669104304141E+00    1.1346935536449163E+01    1.1869422647657956E+01
C    3.4887557356118828E+00    1.2275045888224147E+01    1.4501127544640918E+01
C    4.6600578088817528E+00    1.2274757818036560E+01    1.3756954504421945E+01
C    6.5885252548716418E+00    1.1181658252914657E+01    1.4383246391297424E+01
C    2.3350717077066729E+00    1.2021806564529395E+01    1.3994749913138905E+01
C    6.9090618038604577E+00    7.7955495117375211E+00    1.5057671767598492E+01
C    6.8663039121224223E+00    1.0013911106109806E+01    1.5236790256662523E+01
C    6.5044992971398656E+00    7.8013409097293378E+00    1.6427750346947086E+01
C    5.6618979646529910E+00    1.2002297484940366E+01    1.4694987681779944E+01
C    7.2536277109327223E+00    9.0028134130397603E+00    1.4557092804373655E+01
C    3.6947295679850254E+00    1.2234034994499646E+01    1.5916590556400701E+01
C    6.3667696609691538E+00    6.9096619702488740E+00    1.4316741111009581E+01
C    5.3846729041756447E+00    1.0865451830507562E+01    1.6964638740057861E+01
C    3.4759617058790528E+00    1.7787250140761980E+01    1.8513093030287731E+01
C    2.8350723359520806E+00    1.1624349333589763E+01    1.6604442114635130E+01
C    2.1478824929113403E+00    1.7813330639965862E+01    1.8690385657627395E+01
C    5.1098106398973338E+00    1.2058518899783511E+01    1.6067327568418463E+01
C    6.5040409816048053E+00    1.0108269870947625E+01    1.6632238188527186E+01
C    4.5481149012710080E+00    1.0194539831407662E+01    1.7738845138614760E+01
C    4.9725150191846756E+00    9.0244755353891115E+00    1.7867702365705945E+01
C    6.1525284893455190E+00    8.8993033072598475E+00    1.7233777518847582E+01
H    6.4088163952716153E+00    4.2643100981721478E+00    2.0550331785949282E+01
H   -8.8547517369711126E-01    8.4321724686379440E+00    1.9164602963639286E+01
H    1.7283442711840091E+00    4.4342423475037407E+00    1.9034030841227779E+01
H   -8.0700291872844021E-01    8.3320654872686344E+00    9.7946472887227376E+00
H    1.8112102353566133E+00    4.3213558057217396E+00    9.9346037034941475E+00
H    6.5001259324372036E+00    4.1886786682936972E+00    8.4699869907244718E+00
H    9.7804182062077250E-01    1.2508859403819134E+01    2.0831901131459617E+01
H    1.0714693904556680E+00    1.2408154345476435E+01    8.1896700125914510E+00
H    8.5318422818473305E+00    8.3530957021208039E+00    2.0771032344234026E+01
H    1.0333979831903379E+01    2.0311955797383594E+00    1.9488598250878365E+01
H    8.6333887726945875E+00    8.2754148038530726E+00    8.2607740818789228E+00
H    1.0467197793682679E+01    1.9505480376549988E+00    9.4980248725580463E+00
H    1.2530084821397374E+01    6.0298559031900263E+00    1.0098691653944032E+01
H    1.9805167740422345E+01    2.1593474838037112E+00    1.1554940711918313E+01
H    1.7206864427128497E+01    6.1489508120230800E+00    1.1510501871591032E+01
H    1.7136308660196448E+01    6.2654829848639499E+00    1.7466629343054880E+01
H    1.9737902101127492E+01    2.2537675101246650E+00    1.7450410574098694E+01
H    1.2426810821751223E+01    6.1188139191383506E+00    1.8901486660324501E+01
H    5.7207903505784907E+00    1.2615492796654447E+01    2.0883089056222659E+01
H    5.6325448912473597E-01    1.6873787360713653E+01    1.9599456583737737E+01
H    5.2816187971895108E+00    1.6936670037240184E+01    1.8993108227001454E+01
H    5.8250540426310753E+00    1.2530263614857629E+01    8.1877347834914822E+00
H    5.3907835028866611E+00    1.6857116345698767E+01    1.0068352665666744E+01
H    6.4194978387083390E-01    1.6789804325228022E+01    9.4456042084500460E+00
N    3.7773274877455525E+00    5.7700085075974199E+00    2.0509136114858695E+01
N    2.4532530298309219E+00    7.5573610524850503E+00    2.1088845727571613E+01
N    4.7026142803767623E+00    7.6771999150200170E+00    2.1353155240279523E+01
N    4.8446332256907798E+00    7.5954996392525178E+00    7.7069826301780644E+00
N    2.5384267365245226E+00    7.4930591269648339E+00    7.8903336857658450E+00
N    3.9047517395484217E+00    5.7109263264682086E+00    8.4508940070544778E+00
N    1.2399255435410534E+00    9.6157093910005393E+00    2.0791716931348553E+01
N    3.5180149400129190E+00    9.5538985892275754E+00    2.1377213882295202E+01
N    3.6029588324526443E+00    9.4771292335130841E+00    7.5628525896132821E+00
N    1.3442262509423040E+00    9.4831441649249317E+00    8.2650513436595912E+00
N    1.6014369741948180E+01    2.6263831515683393E+00    1.1931033751543460E+01
N    1.3585216729623014E+01    2.5174905195453210E+00    1.1658336502669565E+01
N    1.4904432910904376E+01    6.3204328629241935E-01    1.1661059841812074E+01
N    1.4781233293335140E+01    4.5013519625960781E+00    1.1503448693615278E+01
N    1.7118590985043241E+01    8.1558070628334156E-01    1.1508627503577237E+01
N    1.2753806615523979E+01    6.0399110348940643E-01    1.0778898474898753E+01
N    1.3501441746034715E+01    2.6756740063419073E+00    1.7330675618882399E+01
N    1.4688576948818364E+01    6.7995538597576599E-01    1.7309849526885401E+01
N    1.5833674259543194E+01    2.6782745274451596E+00    1.7096740192806188E+01
N    1.2659330003466849E+01    6.0831809397795156E-01    1.8274344750065346E+01
N    1.7055680573478266E+01    8.7708004595647782E-01    1.7510370311300171E+01
N    1.4605103423632952E+01    4.4969765542669728E+00    1.7473844557612548E+01
N    5.6896396872031163E+00    9.6382683211969375E+00    2.1222605673502908E+01
N    5.8044033678166711E+00    9.5396839627037622E+00    7.7808991628028039E+00
S   -1.9148435647293320E+00    6.8412153558878099E+00    1.1664668485876803E+01
S   -2.7561184647321196E-01    4.0834817853407346E+00    1.1680960684266758E+01
S   -2.0252780512629101E+00    6.9197009411980508E+00    1.7304021541013988E+01
S   -3.4367250960298640E-01    4.1604326377959158E+00    1.7310385159685080E+01
S    8.9331329228473315E+00    3.7869865441428128E+00    2.0947459912024666E+01
S    1.0458720556773441E+01    6.2770648494803822E+00    2.0557666399976263E+01
S    9.0683796412729283E+00    3.8590382993755954E+00    7.9920745700834850E+00
S    1.0578580331672056E+01    6.2408916004304755E+00    8.4703811402643083E+00
S    1.6560209005280035E+00    1.4909265610600542E+01    2.1182757516312748E+01
S    4.7959536736583770E+00    1.5303561656632400E+01    2.0891440594019649E+01
S    1.7972340385264856E+00    1.4740754230489866E+01    7.9302599036806480E+00
S    4.8848520892195619E+00    1.5141411051317396E+01    8.2651423731567188E+00
H    3.5905263038063477E+00    7.9959023038832466E+00    3.3150629178682567E+00
H    3.3376519319454543E+00    8.1671784171924529E+00    2.5675870035626993E+01
     &END COORD
     &KIND H
       BASIS_SET DZVP-MOLOPT-GTH
       POTENTIAL GTH-PBE-q1
       &POTENTIAL
 1
  0.2000000000000000E+00 2 -0.4178900440000000E+01  0.7244633100000000E+00
 0
         # Potential name:  GTH-PBE-Q1  for symbol:  H
         # Potential read from the potential filename: POTENTIAL
       &END POTENTIAL
     &END KIND
     &KIND C
       BASIS_SET DZVP-MOLOPT-GTH
       POTENTIAL GTH-PBE-q4
       &POTENTIAL
 2 2
  0.3384712400000000E+00 2 -0.8803673979999999E+01  0.1339210850000000E+01
 2
  0.3025757500000000E+00 1  0.9622486650000001E+01
  0.2915069400000000E+00 0
         # Potential name:  GTH-PBE-Q4  for symbol:  C
         # Potential read from the potential filename: POTENTIAL
       &END POTENTIAL
     &END KIND
     &KIND N
       BASIS_SET DZVP-MOLOPT-GTH
       POTENTIAL GTH-PBE-q5
       &POTENTIAL
 2 3
  0.2837905100000000E+00 2 -0.1241522559000000E+02  0.1868095920000000E+01
 2
  0.2554050000000000E+00 1  0.1363026257000000E+02
  0.2454945300000000E+00 0
         # Potential name:  GTH-PBE-Q5  for symbol:  N
         # Potential read from the potential filename: POTENTIAL
       &END POTENTIAL
     &END KIND
     &KIND B
       BASIS_SET DZVP-MOLOPT-SR-GTH
       POTENTIAL GTH-PBE-q3
       &POTENTIAL
 2 1
  0.4189914500000000E+00 2 -0.5859461710000000E+01  0.9037564300000001E+00
 2
  0.3713204600000000E+00 1  0.6297280180000000E+01
  0.3645630800000000E+00 0
         # Potential name:  GTH-PBE-Q3  for symbol:  B
         # Potential read from the potential filename: POTENTIAL
       &END POTENTIAL
     &END KIND
     &KIND S
       BASIS_SET DZVP-MOLOPT-GTH
       POTENTIAL GTH-PBE-q6
       &POTENTIAL
 2 4
  0.4200000000000000E+00 1 -0.5986260380000000E+01
 2
  0.3648203500000000E+00 2  0.1314354448000000E+02 -0.4241830450000000E+01
  0.5476179570000000E+01
  0.4094804800000000E+00 1  0.3700890570000000E+01
         # Potential name:  GTH-PBE-Q6  for symbol:  S
         # Potential read from the potential filename: POTENTIAL
       &END POTENTIAL
     &END KIND
     &TOPOLOGY
       COORD_FILE_NAME cof.xyz
       COORD_FILE_FORMAT  XYZ
       NUMBER_OF_ATOMS  288
       MULTIPLE_UNIT_CELL  1 1 1
     &END TOPOLOGY
   &END SUBSYS
 &END FORCE_EVAL
