 # Version information for this restart file 
 # current date 2021-06-23 00:40:56.123
 # current working dir /panfs/panfs.cbls.ccr.buffalo.edu/scratch/grp-cyberwksp21/ub2053/cof/opt
 # Program compiled at                              Thu Apr 22 21:44:59 EDT 2021
 # Program compiled on                cpn-k07-07-02.compute.cbls.ccr.buffalo.edu
 # Program compiled for                                                    local
 # Source code revision number                                       git:36754bb
 &GLOBAL
   EXTENDED_FFT_LENGTHS  T
   PRINT_LEVEL  MEDIUM
   PROJECT_NAME COF
   RUN_TYPE  CELL_OPT
 &END GLOBAL
 &MOTION
   &GEO_OPT
     OPTIMIZER  BFGS
     MAX_ITER  550
     MAX_DR     2.0000000000000000E-03
     MAX_FORCE     2.9999999999999997E-04
     RMS_DR     2.0000000000000000E-03
     RMS_FORCE     2.9999999999999997E-04
     &BFGS
     &END BFGS
   &END GEO_OPT
   &CELL_OPT
     OPTIMIZER  BFGS
     MAX_ITER  550
     MAX_DR     2.0000000000000000E-03
     MAX_FORCE     2.9999999999999997E-04
     RMS_DR     2.0000000000000000E-03
     RMS_FORCE     2.9999999999999997E-04
     STEP_START_VAL  1
     TYPE  DIRECT_CELL_OPT
     EXTERNAL_PRESSURE     1.0000000000000000E+02    0.0000000000000000E+00    0.0000000000000000E+00    0.0000000000000000E+00 \
         1.0000000000000000E+02    0.0000000000000000E+00    0.0000000000000000E+00    0.0000000000000000E+00    1.0000000000000000E+02
     KEEP_SYMMETRY  F
     PRESSURE_TOLERANCE     1.0000000000000000E+02
   &END CELL_OPT
   &PRINT
     &TRAJECTORY  SILENT
       &EACH
         GEO_OPT  1
       &END EACH
     &END TRAJECTORY
     &FORCES  ON
     &END FORCES
     &RESTART  SILENT
       BACKUP_COPIES  1
       &EACH
         GEO_OPT  1
       &END EACH
     &END RESTART
   &END PRINT
 &END MOTION
 &FORCE_EVAL
   METHOD  QS
   STRESS_TENSOR  ANALYTICAL
   &DFT
     BASIS_SET_FILE_NAME BASIS_MOLOPT
     POTENTIAL_FILE_NAME POTENTIAL
     MULTIPLICITY  1
     &SCF
       MAX_SCF  50
       EPS_SCF     9.9999999999999995E-07
       SCF_GUESS  ATOMIC
       ADDED_MOS  50
       &DIAGONALIZATION  T
         ALGORITHM  DAVIDSON
       &END DIAGONALIZATION
       &SMEAR  T
         METHOD  FERMI_DIRAC
       &END SMEAR
       &MIXING  T
         METHOD  BROYDEN_MIXING
         ALPHA     2.9999999999999999E-01
         NBUFFER  8
       &END MIXING
     &END SCF
     &QS
       EPS_DEFAULT     1.0000000000000000E-14
       METHOD  GPW
     &END QS
     &MGRID
       NGRIDS  6
       CUTOFF     1.0000000000000000E+03
       REL_CUTOFF     6.0000000000000000E+01
     &END MGRID
     &XC
       DENSITY_CUTOFF     1.0000000000000000E-10
       GRADIENT_CUTOFF     1.0000000000000000E-10
       TAU_CUTOFF     1.0000000000000000E-10
       &XC_GRID
         XC_DERIV  SPLINE2_SMOOTH
       &END XC_GRID
       &XC_FUNCTIONAL  NO_SHORTCUT
         &PBE  T
         &END PBE
       &END XC_FUNCTIONAL
       &VDW_POTENTIAL
         POTENTIAL_TYPE  PAIR_POTENTIAL
         &PAIR_POTENTIAL
           TYPE  DFTD3
           PARAMETER_FILE_NAME dftd3.dat
           REFERENCE_FUNCTIONAL PBE
         &END PAIR_POTENTIAL
       &END VDW_POTENTIAL
     &END XC
     &POISSON
       POISSON_SOLVER  ANALYTIC
       PERIODIC  NONE
     &END POISSON
     &PRINT
       &MO_CUBES  SILENT
         WRITE_CUBE  F
         NLUMO  3
         NHOMO  3
       &END MO_CUBES
       &PDOS  SILENT
         COMPONENTS  T
         APPEND  T
         NLUMO  -1
       &END PDOS
       &MULLIKEN  OFF
       &END MULLIKEN
       &HIRSHFELD  OFF
       &END HIRSHFELD
     &END PRINT
   &END DFT
   &SUBSYS
     &CELL
       A     2.2797798341622947E+01    0.0000000000000000E+00    0.0000000000000000E+00
       B    -1.2314523740922173E+01    1.9865804794661500E+01    0.0000000000000000E+00
       C    -3.6317456931520331E-01    2.6420995036946049E-01    3.8717735009347784E+01
       PERIODIC  XY
       MULTIPLE_UNIT_CELL  1 1 1
     &END CELL
     &COORD
B    3.9322107028312074E+00    8.7597511307205682E+00    2.2256712100613527E+01
B    4.0395145450963552E+00    8.6627756770955333E+00    7.2091691087776386E+00
B    1.5541378924519739E+01    2.0140272259157368E+00    1.2615209931845660E+01
B    1.5465936146732588E+01    2.0857482993492020E+00    1.6880595261008786E+01
C    2.9952683980710253E+00    6.9015953090181705E+00    2.0921339784222788E+01
C    1.7720056249448195E+00    6.6954762567234702E+00    2.0169364822122674E+01
C    6.6614669152523369E+00    6.6753192452966825E+00    2.1098672594042416E+01
C    5.2408460690098133E+00    6.9201322170196340E+00    2.1263262753428904E+01
C   -1.3450149875090486E-01    8.0520369413983044E+00    1.9480110768421369E+01
C    1.0218124118506446E+00    7.8875679489079005E+00    2.0214168812783612E+01
C    7.3757034799231347E+00    5.5150719732983688E+00    2.0966916149480252E+01
C    1.7874653389174275E+00    8.8497965007388952E+00    2.1027420069049924E+01
C    1.3651758374940268E+00    5.6377450595293581E+00    1.9394699977149184E+01
C    4.0070436868958330E+00    8.5340247488393484E+00    4.4597846444024425E+00
C    3.8202600151620603E+00    8.6669206014734854E+00    2.3795817371139020E+01
C    3.9700041088884004E+00    8.5571434435500304E+00    5.6728515620779563E+00
C    3.7904611663411991E+00    8.6891000975332808E+00    2.5019823673271386E+01
C    5.3414871853091572E+00    6.8243252495805589E+00    8.2297330763039280E+00
C    1.1153596815137523E+00    7.7820219549189780E+00    9.2365391783877051E+00
C    1.8608933764136750E+00    6.5872530184036178E+00    9.2697248486479467E+00
C    1.4562924635281684E+00    5.5204162402124730E+00    1.0043289364717618E+01
C   -3.0540983837006895E-02    7.9425661591154011E+00    9.9690189783531853E+00
C   -4.3361407297575288E-01    6.8838280612514362E+00    1.0778401982514678E+01
C    2.9455057844211346E-01    5.6989550969490823E+00    1.0815877730470973E+01
C    3.0850059598556681E+00    6.7992370266829569E+00    8.5120427233280420E+00
C    1.8930129146397412E+00    8.7333712022663388E+00    8.4442500421124809E+00
C    7.4654477341375687E+00    5.4158538534924707E+00    8.5186157410729511E+00
C    6.7532809151710236E+00    6.5812887976714425E+00    8.4072071789740086E+00
C   -2.5777109484661036E+00    5.6191379373435533E+00    1.1757368063706199E+01
C   -1.0646321573988480E+01    1.9710834770635842E+01    1.2583064019712031E+01
C    4.1762180877895148E+00    1.1215510336096546E-01    1.1293222526588563E+01
C    3.4389851182451654E+00    1.2140787748902049E+00    1.1717217355885325E+01
C   -1.8754488613622917E+00    4.4171192367969487E+00    1.1763812447172009E+01
C   -1.1290615517778912E+01    1.9378485394716844E+01    1.3828930719389600E+01
C    4.1431795792187822E+00    2.3255515608169022E+00    1.2351390134462429E+01
C   -1.0103036715256589E+01    1.7479969554228319E+01    1.3113878461182033E+01
C   -6.4024870389335744E+00    1.8562697224750202E+01    1.1819767351085778E+01
C    2.0439757390942339E+00    2.0835883417860357E+00    1.3408463438279460E+01
C    3.2641747746137635E+00    2.8403214504519476E+00    1.3395818852520694E+01
C   -7.6041883563914414E+00    1.7796489122718640E+01    1.1819859685095729E+01
C   -8.6930038552282483E+00    1.8656985751323226E+01    1.1510079599826177E+01
C   -9.9380959798618917E+00    1.8514897622583508E+01    1.2142597062550283E+01
C   -7.7794055794110948E+00    1.6766218941140981E+01    1.2768974825967264E+01
C    2.1648444539106513E+00    1.0774941897634569E+00    1.2376801648218283E+01
C    6.2649706570011334E+00    1.0825336763881266E+00    1.2098124291765011E+01
C   -6.7206542140119643E+00    1.9913777600766103E+01    1.1501795987969741E+01
C    5.5028766969770286E+00    2.2536542432292608E+00    1.2532221634100438E+01
C   -5.3924188496006353E+00    1.8314648462445213E+01    1.2753429775282978E+01
C   -9.0619178499493476E+00    1.6608631400909243E+01    1.3427502854255600E+01
C    4.2327856667754729E+00    2.6852548597885209E+00    1.6826655214117466E+01
C   -5.0115534470668379E+00    1.7700027093766757E+01    1.4978021605091202E+01
C    3.5016000634225479E+00    6.4588832056996406E+00    1.5495165195843668E+01
C    3.1915100479015974E+00    2.9292016516195933E+00    1.5861974291134093E+01
C   -1.0708412394689077E+01    1.7648358113627150E+01    1.5479710644269588E+01
C   -1.0812347793873016E+01    1.8636231013748436E+01    1.6534597133025198E+01
C    2.0144078377777972E+00    2.1891482975215664E+00    1.5883130193327474E+01
C    1.4428824237530193E+00    1.7816322260305661E+00    1.4630986824576786E+01
C   -5.5791607508196099E+00    1.7249250565795819E+01    1.3739432593311985E+01
C    4.7530567833640704E+00    6.2972449742955670E+00    1.4760077523563945E+01
C   -9.6274713675859527E+00    1.6765507985798763E+01    1.5818567980001493E+01
C   -1.1159647044514694E+01    1.9937950431473816E+01    1.6199452741061073E+01
C   -1.0961428395547262E+01    1.7987596638024257E+01    1.4179803258806659E+01
C    5.9270144973689982E+00    6.6780473855524463E+00    1.5334321114646114E+01
C    9.2847839714393454E-01    4.6301560486232546E-01    1.4832618812176561E+01
C    1.8536987747147837E+00    1.1669686859542763E+00    1.6861359823393219E+01
C   -8.8348912582849266E+00    1.6267673656221589E+01    1.4804012325255400E+01
C   -6.7598756862268941E+00    1.6510437450585677E+01    1.3745823426912422E+01
C   -7.3736582477854986E+00    1.6189325245954727E+01    1.5003256316654142E+01
C   -6.8437454177362236E+00    1.6612896442316366E+01    1.6197473288440790E+01
C   -5.6049093114528397E+00    1.7390594679476489E+01    1.6192862661783803E+01
C    3.8308634536465709E+00    3.2368702124892539E+00    1.4609368014829984E+01
C   -7.7132465169826174E+00    1.9341915634305046E+01    1.8296555008708218E+01
C    2.8665271842708919E+00    9.0486950081429252E-01    1.7780311350117042E+01
C   -5.7045715713430454E+00    1.8362168132694006E+01    1.7250205571993440E+01
C   -7.6753810936103219E+00    1.7128075547217044E+01    1.7262347976395361E+01
C   -5.2555763622381069E-01    6.9849247431074852E+00    1.8668351895544745E+01
C   -2.6852983311239660E+00    5.7011118800148335E+00    1.7708192551665501E+01
C   -1.9596886896698504E+00    4.5145177161250842E+00    1.7703814079134112E+01
C   -9.1337054139362550E+00    1.9415861990681588E+01    1.8108522863081575E+01
C    2.0479715428166273E-01    5.7946094422822911E+00    1.8635362432801085E+01
C    4.0769705479016451E+00    1.6655169395827814E+00    1.7780376159348840E+01
C    5.1677463471017218E+00    7.7492553599881042E-01    1.8102772285118313E+01
C   -7.0036329431451314E+00    1.8236473283935290E+01    1.7892426934540339E+01
C   -9.7801725203306944E+00    1.8361041052016834E+01    1.7493486017482983E+01
C   -9.0587267240604739E+00    1.7193239691420562E+01    1.7062921770813908E+01
C    2.5090850844835741E+00    1.3351279044524164E+01    2.1189974084212352E+01
C    2.8289053420563239E+00    1.0807409803808129E+01    2.1418898852984917E+01
C    3.2358104701228383E+00    1.2188358434852780E+01    2.1294845938870715E+01
C    2.9207303863267176E+00    1.0711274714837799E+01    8.0388882018864010E+00
C    3.3270771317413095E+00    1.2089375194641800E+01    8.1977211984127312E+00
C    2.5967350982042925E+00    1.3257396072439855E+01    8.3034206378361848E+00
C    2.6818486630003568E+00    7.8706131785026319E+00    1.2293995447577931E+01
C    2.0422590773349123E+00    1.0104144106389420E+01    1.2109992849336709E+01
C    5.0202362229797100E+00    8.2204108244153549E+00    1.1617292518790123E+01
C    1.7983837557852631E+00    1.1271456433261607E+01    1.2809212391073073E+01
C    1.6827215374981170E+00    8.8245829108925555E+00    1.2684467876133473E+01
C    3.0816150529368538E+00    6.8961936278839211E+00    1.3225982354610347E+01
C    5.4110698495531855E+00    7.2048426819386666E+00    1.2570621728465536E+01
C    3.6684027820752481E+00    8.5607144383953901E+00    1.1511945138078287E+01
C    3.2832218048706694E+00    9.9236620164564702E+00    1.1397050939878520E+01
C    4.4703364331841922E+00    6.5647486104223116E+00    1.3348912246763572E+01
C    1.0823647131873038E+00    8.7745445692701409E+00    1.3953722788159043E+01
C    1.2071115367481298E+00    1.1188342835137723E+01    1.4147484025076970E+01
C    1.8255594314191201E+00    1.2177559333628450E+01    1.4968981289658618E+01
C    5.9183005071567125E+00    7.2544050648025005E+00    1.6672503161998929E+01
C    1.4889415599356759E+00    7.7663402060193629E+00    1.4894920281054725E+01
C    8.6654803559343541E-01    9.9817114745747144E+00    1.4689865732118534E+01
C    2.4897422560319731E+00    6.8319218557276162E+00    1.4542521898734735E+01
C    1.1156639432065876E+00    9.7225943214878061E+00    1.6081873793554944E+01
C    1.5155681775473551E+00    8.3380156095096840E+00    1.6212428450446740E+01
C    3.4988838572449867E+00    7.0340231979421795E+00    1.6770873361918852E+01
C    3.1267443571557161E+00    8.9701040800154086E+00    1.7959666632642655E+01
C    2.0771591590116829E+00    1.1953248082632740E+01    1.6323904992993604E+01
C    2.7260542013946485E+00    1.0296573420826196E+01    1.7840301054840339E+01
C    1.7060094717383096E+00    1.0675896083659687E+01    1.6900505850673650E+01
C    4.7499769607561273E+00    7.3941646546019717E+00    1.7362640192467470E+01
C    2.4879159100697854E+00    7.9622018042079574E+00    1.7141796218194536E+01
C    4.5191782562407914E+00    8.6366506419938567E+00    1.8106130083129155E+01
C    3.7220339240875946E+00    1.1346743118151034E+01    1.7869943297507497E+01
C    8.6866176765134639E+00    7.9654143875020420E+00    2.1081367914844307E+01
C    9.4149507385474678E+00    6.7920139032563194E+00    2.1021458306260456E+01
C    7.3279993501487644E+00    7.9107478341527946E+00    2.1214129857348880E+01
C    1.0967599768235264E+01    4.2432297404145265E+00    2.0294424940111721E+01
C    6.3115365928115912E+00    8.9183720400619730E+00    2.1547959614314205E+01
C    1.1437346621661295E+01    3.0830851954039198E+00    1.9648922510819702E+01
C    8.7530465504534956E+00    5.5501164685359274E+00    2.1026391555173426E+01
C    1.1655518185306251E+01    5.4598148454717732E+00    2.0143999748039935E+01
C    6.4077031308099466E+00    8.8246707431158118E+00    7.9783354433750162E+00
C    8.7913997211297623E+00    7.8877696885901241E+00    8.4005320915924955E+00
C    7.4234212217139000E+00    7.8287206650403673E+00    8.2829647651545439E+00
C    9.5104100344293290E+00    6.7080444386484679E+00    8.4592496739553233E+00
C    8.8751039570906691E+00    5.4471822480932035E+00    8.4162588230658404E+00
C    1.1567642537144353E+01    3.0080873128536112E+00    9.7929932718067576E+00
C    1.2688133900897668E+01    3.1111774734296787E+00    1.0570626744476320E+01
C    1.1725259843504690E+01    5.3687021940360520E+00    9.3604556822774452E+00
C    1.2845384495985718E+01    5.4784738379830342E+00    1.0152051808896639E+01
C    1.1075908458912265E+01    4.1437044373019001E+00    9.1716271988779443E+00
C    1.7977568990807377E+01    2.1449025889908269E+00    1.1980195134597066E+01
C    1.4555448279063519E+01    4.0574720462862084E+00    1.1537573738163799E+01
C    1.8911103710336672E+01    3.1920485648019929E+00    1.1867077566152135E+01
C    1.6775701595478239E+01    4.0828269882272012E+00    1.1980955830650608E+01
C    1.3465089811949458E+01    2.0864254307652583E+00    1.1201569578955645E+01
C    1.8175944000243646E+01    4.4336718701985411E+00    1.1862359936598503E+01
C    2.0298082940775188E+01    3.1938632877835516E+00    1.1767629554666007E+01
C    1.8816994647239603E+01    5.6277516717631402E+00    1.1738369707160903E+01
C    1.6916011348892081E+01    1.7750696722908257E-01    1.1546472224494060E+01
C    7.2966819312503324E+00    8.1741887708124350E-01    1.3082442172563807E+01
C    1.4648475524045551E+01    1.5393014817073991E-01    1.1201953851644697E+01
C    7.1765989664248222E+00    1.8169985423601398E+00    1.4120487722556341E+01
C    6.0890140079404711E+00    2.6794133513494289E+00    1.3783553829651513E+01
C    1.3330135055220381E+01    4.3473812349103174E+00    1.0751670970468194E+01
C   -4.6849016236429888E+00    1.9377125665604339E+01    1.3404902127669782E+01
C    1.5319770996564912E+01    1.9641325834072281E+00    1.5367181832861901E+01
C    1.5369799588055390E+01    1.9380565441564992E+00    1.4129341644795769E+01
C    6.5972489071489573E+00    1.9559330882991353E+00    1.6496436879974503E+01
C   -4.4583426600987828E+00    1.9002763698008845E+01    1.4777414818973785E+01
C   -4.5339632115648252E+00    1.9958199641953520E+01    1.5794012151490294E+01
C    7.4065768974605737E+00    1.4686280353625856E+00    1.5434414121982623E+01
C    5.5013048011716554E+00    2.8185450668709349E+00    1.6182740247827912E+01
C    5.2740826366629667E+00    3.1567973450823628E+00    1.4800086757485762E+01
C    1.4458641595120246E+01    4.1274669835592945E+00    1.7929638515168872E+01
C    1.8738550042314461E+01    5.7250519804965245E+00    1.7714521174100351E+01
C    1.7886611537812090E+01    2.2142660569045929E+00    1.7515257953176427E+01
C    1.3369562809301884E+01    2.1626436939371541E+00    1.8267944029113540E+01
C    1.2749554166881367E+01    5.5560194683466104E+00    1.9326509988038303E+01
C    1.6705720881559564E+01    4.1694632789614339E+00    1.7509920465780734E+01
C    1.2602253386328961E+01    3.1924468847201921E+00    1.8892147100735492E+01
C    2.0220885252759267E+01    3.2863644595708648E+00    1.7709803731610471E+01
C    1.3222194345209537E+01    4.4387842310318657E+00    1.8701102093273494E+01
C    1.8852035612210951E+01    3.2632747010021648E+00    1.7617280944893608E+01
C    1.8111799543159169E+01    4.4983260577425277E+00    1.7616676835009354E+01
C    1.6821008587416166E+01    2.7374938136863408E-01    1.7977531273190426E+01
C    1.4565626595479211E+01    2.3446095005220791E-01    1.8308019849614308E+01
C    6.3887459935323347E+00    9.2238746331907839E-01    1.7473227824307205E+01
C   -5.1942010141710284E+00    1.9622368085351592E+01    1.7048245623989938E+01
C    4.4137493136182506E+00    1.7138634613114597E+01    2.0268321429238476E+01
C    3.1840083884010806E+00    1.4551803120042795E+01    2.1229379050461944E+01
C    4.5935587352721363E+00    1.4574558366617801E+01    2.1196552809884405E+01
C    5.1111928231487571E+00    1.0844424246433677E+01    2.1605474302729540E+01
C    4.6633444650090770E+00    1.2216679322693357E+01    2.1381837516286318E+01
C    3.0148140902351992E+00    1.7090447483590072E+01    2.0434188756293086E+01
C    5.3273705876191633E+00    1.3387681089690075E+01    2.1244911060326800E+01
C    2.2288088822193410E+00    1.8018344999645731E+01    1.9771802269932458E+01
C    5.0203348226167464E+00    1.8039384091379215E+01    1.9422839520916813E+01
C    5.2039875318690072E+00    1.0755000544631772E+01    7.8853543445759966E+00
C    5.4236870667030663E+00    1.3292436077087858E+01    8.2800732295911796E+00
C    4.7530136064636190E+00    1.2114461408166941E+01    8.1355513518273881E+00
C    3.2731415702761164E+00    1.4452694325163304E+01    8.2888526997250338E+00
C    4.6768194555196860E+00    1.4462833670440597E+01    8.3285391425738187E+00
C    2.3072894174969880E+00    1.7922013923420035E+01    9.7565023882761714E+00
C    3.1104311175787216E+00    1.6997861286478678E+01    9.0764189772896522E+00
C    4.5117287261476680E+00    1.7030164072046880E+01    9.2657855672817995E+00
C    5.1078587583434976E+00    1.7962408338678383E+01    1.0097639736464240E+01
C    2.8849180929762404E+00    1.8854111471642891E+01    1.0561602142619527E+01
C    4.2854520410367423E+00    1.8863873256164954E+01    1.0735280759896593E+01
C    6.2561699456190141E+00    1.1570022622352750E+01    1.2356920635212951E+01
C    6.0234380986129210E+00    9.2420883263908973E+00    1.1603346183953212E+01
C    5.6287460023103559E+00    1.0573772833403160E+01    1.1519430027349992E+01
C    7.0592264530637898E+00    8.8673637811326298E+00    1.2593463439689476E+01
C    6.6701848604603580E+00    7.6188618614871553E+00    1.3184818038183419E+01
C    5.2505377738650960E+00    1.2546981956917573E+01    1.2716153896941812E+01
C    7.6368613263159340E+00    9.8635729314630485E+00    1.3404025430469659E+01
C    7.2318759844142413E+00    1.1220806600844135E+01    1.3288844132385789E+01
C    4.2476733205985955E+00    1.0928540830718630E+01    1.1385153830533245E+01
C    2.8068891719350941E+00    1.2295387830077575E+01    1.2849011931216911E+01
C    3.9898580918073456E+00    1.2119283407882474E+01    1.2145671552060490E+01
C    4.0284532318847583E+00    1.3233826209144523E+01    1.4740620529144653E+01
C    5.2553129927446944E+00    1.3085705066143403E+01    1.4015647859731873E+01
C    7.2504397133882712E+00    1.1816002834935420E+01    1.4619261491057653E+01
C    2.8214876331246659E+00    1.2865683356020671E+01    1.4173448118467604E+01
C    7.5334362339490255E+00    8.3371045086281637E+00    1.5354704178097924E+01
C    7.6267673751217933E+00    1.0755916597493384E+01    1.5548344265696629E+01
C    6.9579664499998222E+00    8.2904024162924763E+00    1.6680028362963686E+01
C    6.2818807164874837E+00    1.2729069312687903E+01    1.4964068065195862E+01
C    7.8887552055841912E+00    9.5722388693864371E+00    1.4810985536734702E+01
C    4.2714900840999919E+00    1.3018944658933396E+01    1.6153715828844199E+01
C    6.9121003360243121E+00    7.3526065109549510E+00    1.4527648186365171E+01
C    6.0509925643538196E+00    1.1671680962620462E+01    1.7206207653274760E+01
C    4.2168346697136059E+00    1.8965134264815600E+01    1.8795725955809555E+01
C    3.3304769164928816E+00    1.2363905195403996E+01    1.6909412965443664E+01
C    2.8161942351180662E+00    1.8957612844741384E+01    1.8973452100861646E+01
C    5.6847286082193937E+00    1.2702169380497786E+01    1.6296861114463994E+01
C    7.0872552985917876E+00    1.0732774737986805E+01    1.6850256475214479E+01
C    5.0787628055080241E+00    1.0987000936631162E+01    1.8011590365912845E+01
C    5.4812698534584330E+00    9.6364739225538010E+00    1.8127175848396018E+01
C    6.7251279169480176E+00    9.4650340591996382E+00    1.7431671385578561E+01
H    6.8669323525914550E+00    4.5518104177409464E+00    2.0889202199634056E+01
H   -6.8154818685124241E-01    8.9657564792531037E+00    1.9479143049253434E+01
H    1.9453041710309442E+00    4.7224634124294651E+00    1.9349690043376782E+01
H   -5.8909076311124642E-01    8.8630747002907544E+00    9.9607671298390379E+00
H    2.0350363385693622E+00    4.6146653121429670E+00    1.0097065151291547E+01
H    6.9661997382668233E+00    4.4656797001517665E+00    8.5911802660803698E+00
H    1.4337549650282895E+00    1.3338559194121986E+01    2.1163582978529849E+01
H    1.5224524170281626E+00    1.3239653150149794E+01    8.3308521876670003E+00
H    9.2154646345545839E+00    8.9167074777079556E+00    2.1115994297562398E+01
H    1.0942278921767329E+01    2.1563083899481885E+00    1.9794088524649414E+01
H    9.3121814917268892E+00    8.8337566994728416E+00    8.3847418438938561E+00
H    1.1054301713558148E+01    2.0711025213814418E+00    9.6654577946971667E+00
H    1.3373518740944487E+01    6.4182336468696004E+00    1.0254036857969190E+01
H    2.0854784604340530E+01    2.2789734154950754E+00    1.1747202667075472E+01
H    1.8270768210793449E+01    6.5452832595838117E+00    1.1705136902508880E+01
H    1.8177814878291361E+01    6.6426114911834846E+00    1.7758385990763973E+01
H    2.0770113980033965E+01    2.3768427580366631E+00    1.7740081254406981E+01
H    1.3274509271224794E+01    6.5001264604651414E+00    1.9217193508826625E+01
H    6.4174703764102556E+00    1.3423551804165237E+01    2.1228914167135859E+01
H    1.1425046980882947E+00    1.7996286659184950E+01    1.9912215053378098E+01
H    6.0930252582335012E+00    1.8068126640481211E+01    1.9307462451440308E+01
H    6.5104883918218333E+00    1.3326120086647101E+01    8.3134843809025583E+00
H    6.1826465778748512E+00    1.7982124103076867E+01    1.0217524540828309E+01
H    1.2282609373870954E+00    1.7908090166329334E+01    9.6013268944677659E+00
N    4.1554799503469591E+00    6.2246550863686281E+00    2.0907280102542320E+01
N    2.8400556035602973E+00    8.1244270872166382E+00    2.1469661131868406E+01
N    5.1803197642394991E+00    8.1883609715474801E+00    2.1699770818230910E+01
N    5.2844045530971409E+00    8.1116459688599107E+00    7.8253607593297678E+00
N    2.9403414030661419E+00    8.0282045767216701E+00    7.9846554990701994E+00
N    4.2590731212994113E+00    6.1313499709997146E+00    8.5270248949964458E+00
N    1.6881322054624934E+00    1.0184769441812607E+01    2.1094940683322740E+01
N    3.9673308167351764E+00    1.0168098939712319E+01    2.1740955207765332E+01
N    4.0623237666675172E+00    1.0070508368877359E+01    7.7217681891454752E+00
N    1.7775673112556845E+00    1.0075313746653157E+01    8.3718342208006984E+00
N    1.6813128607286714E+01    2.7518396137431167E+00    1.2186313948018249E+01
N    1.4445225503196886E+01    2.7267768919546547E+00    1.1845532093941744E+01
N    1.5690230235330660E+01    7.1005749615655422E-01    1.1861886668060286E+01
N    1.5645632842560969E+01    4.7661968096586627E+00    1.1691140737441847E+01
N    1.8038765594884925E+01    8.4462041938122367E-01    1.1700376456306751E+01
N    1.3486528653938494E+01    7.5587744853147976E-01    1.0959107835386707E+01
N    1.4353718291324162E+01    2.8223850402508055E+00    1.7623791056712260E+01
N    1.5583554399606182E+01    7.7975163964449068E-01    1.7641920366459487E+01
N    1.6702279448891286E+01    2.8318417663798465E+00    1.7313911559551265E+01
N    1.3404215294647305E+01    8.1544071750415770E-01    1.8547938001230431E+01
N    1.7953225134588561E+01    9.2730407440632234E-01    1.7818911700828295E+01
N    1.5559054167690604E+01    4.8236965438117387E+00    1.7784930751140166E+01
N    6.2974367529957798E+00    1.0248604725809752E+01    2.1553703919879919E+01
N    6.3937730961650603E+00    1.0161653812614967E+01    7.9580872319765747E+00
S   -1.7952466413550070E+00    7.1786196937360405E+00    1.1831110854676004E+01
S   -1.3785967569968166E-01    4.3982324838793563E+00    1.1883034842148144E+01
S   -1.8860105473087594E+00    7.2731593231489802E+00    1.7606371699991936E+01
S   -2.2178443575972487E-01    4.4896990958917247E+00    1.7570304502615912E+01
S    9.5893583524939014E+00    4.0580857120344636E+00    2.1320986395349216E+01
S    1.1157372885690117E+01    6.8277198310768350E+00    2.1028072244407685E+01
S    9.6996594459918999E+00    4.0046399083636093E+00    8.1326080797136164E+00
S    1.1259324731897195E+01    6.7491892550903634E+00    8.4455227949724634E+00
S    2.2608122854709354E+00    1.5977217483692082E+01    2.1516871710929120E+01
S    5.4687953345059261E+00    1.6128150550398466E+01    2.1215063043035912E+01
S    2.3615004557911523E+00    1.5860135633168015E+01    8.0217743050528956E+00
S    5.5624927494271743E+00    1.6010675903439896E+01    8.3435674583449799E+00
H    4.0317625013969094E+00    8.5249113317249066E+00    3.3698954790322500E+00
H    3.7705261002650747E+00    8.7039808812996267E+00    2.6100237103157589E+01
     &END COORD
     &KIND H
       BASIS_SET DZVP-MOLOPT-GTH
       POTENTIAL GTH-PBE-q1
       &POTENTIAL
 1
  0.2000000000000000E+00 2 -0.4178900440000000E+01  0.7244633100000000E+00
 0
         # Potential name:  GTH-PBE-Q1  for symbol:  H
         # Potential read from the potential filename: POTENTIAL
       &END POTENTIAL
     &END KIND
     &KIND C
       BASIS_SET DZVP-MOLOPT-GTH
       POTENTIAL GTH-PBE-q4
       &POTENTIAL
 2 2
  0.3384712400000000E+00 2 -0.8803673979999999E+01  0.1339210850000000E+01
 2
  0.3025757500000000E+00 1  0.9622486650000001E+01
  0.2915069400000000E+00 0
         # Potential name:  GTH-PBE-Q4  for symbol:  C
         # Potential read from the potential filename: POTENTIAL
       &END POTENTIAL
     &END KIND
     &KIND N
       BASIS_SET DZVP-MOLOPT-GTH
       POTENTIAL GTH-PBE-q5
       &POTENTIAL
 2 3
  0.2837905100000000E+00 2 -0.1241522559000000E+02  0.1868095920000000E+01
 2
  0.2554050000000000E+00 1  0.1363026257000000E+02
  0.2454945300000000E+00 0
         # Potential name:  GTH-PBE-Q5  for symbol:  N
         # Potential read from the potential filename: POTENTIAL
       &END POTENTIAL
     &END KIND
     &KIND B
       BASIS_SET DZVP-MOLOPT-SR-GTH
       POTENTIAL GTH-PBE-q3
       &POTENTIAL
 2 1
  0.4189914500000000E+00 2 -0.5859461710000000E+01  0.9037564300000001E+00
 2
  0.3713204600000000E+00 1  0.6297280180000000E+01
  0.3645630800000000E+00 0
         # Potential name:  GTH-PBE-Q3  for symbol:  B
         # Potential read from the potential filename: POTENTIAL
       &END POTENTIAL
     &END KIND
     &KIND S
       BASIS_SET DZVP-MOLOPT-GTH
       POTENTIAL GTH-PBE-q6
       &POTENTIAL
 2 4
  0.4200000000000000E+00 1 -0.5986260380000000E+01
 2
  0.3648203500000000E+00 2  0.1314354448000000E+02 -0.4241830450000000E+01
  0.5476179570000000E+01
  0.4094804800000000E+00 1  0.3700890570000000E+01
         # Potential name:  GTH-PBE-Q6  for symbol:  S
         # Potential read from the potential filename: POTENTIAL
       &END POTENTIAL
     &END KIND
     &TOPOLOGY
       COORD_FILE_NAME cof.xyz
       COORD_FILE_FORMAT  XYZ
       NUMBER_OF_ATOMS  288
       MULTIPLE_UNIT_CELL  1 1 1
     &END TOPOLOGY
   &END SUBSYS
 &END FORCE_EVAL
