 # Version information for this restart file 
 # current date 2021-06-24 15:34:21.590
 # current working dir /panfs/panfs.cbls.ccr.buffalo.edu/scratch/grp-cyberwksp21/ub2053/cof/opt
 # Program compiled at                              Thu Apr 22 21:44:59 EDT 2021
 # Program compiled on                cpn-k07-07-02.compute.cbls.ccr.buffalo.edu
 # Program compiled for                                                    local
 # Source code revision number                                       git:36754bb
 &GLOBAL
   EXTENDED_FFT_LENGTHS  T
   PRINT_LEVEL  MEDIUM
   PROJECT_NAME COF
   RUN_TYPE  GEO_OPT
 &END GLOBAL
 &MOTION
   &GEO_OPT
     OPTIMIZER  BFGS
     MAX_ITER  550
     MAX_DR     2.0000000000000000E-03
     MAX_FORCE     2.9999999999999997E-04
     RMS_DR     2.0000000000000000E-03
     RMS_FORCE     2.9999999999999997E-04
     STEP_START_VAL  8
     &BFGS
     &END BFGS
   &END GEO_OPT
   &CELL_OPT
     OPTIMIZER  BFGS
     MAX_ITER  550
     MAX_DR     2.0000000000000000E-03
     MAX_FORCE     2.9999999999999997E-04
     RMS_DR     2.0000000000000000E-03
     RMS_FORCE     2.9999999999999997E-04
     TYPE  DIRECT_CELL_OPT
     EXTERNAL_PRESSURE     1.0000000000000000E+02    0.0000000000000000E+00    0.0000000000000000E+00    0.0000000000000000E+00 \
         1.0000000000000000E+02    0.0000000000000000E+00    0.0000000000000000E+00    0.0000000000000000E+00    1.0000000000000000E+02
     KEEP_SYMMETRY  F
     PRESSURE_TOLERANCE     1.0000000000000000E+02
   &END CELL_OPT
   &PRINT
     &TRAJECTORY  SILENT
       &EACH
         GEO_OPT  1
       &END EACH
     &END TRAJECTORY
     &FORCES  ON
     &END FORCES
     &RESTART  SILENT
       BACKUP_COPIES  1
       &EACH
         GEO_OPT  1
       &END EACH
     &END RESTART
   &END PRINT
 &END MOTION
 &FORCE_EVAL
   METHOD  QS
   STRESS_TENSOR  NONE
   &DFT
     BASIS_SET_FILE_NAME BASIS_MOLOPT
     POTENTIAL_FILE_NAME POTENTIAL
     MULTIPLICITY  1
     &SCF
       MAX_SCF  50
       EPS_SCF     9.9999999999999995E-07
       SCF_GUESS  ATOMIC
       ADDED_MOS  50
       &DIAGONALIZATION  T
         ALGORITHM  DAVIDSON
       &END DIAGONALIZATION
       &SMEAR  T
         METHOD  FERMI_DIRAC
       &END SMEAR
       &MIXING  T
         METHOD  BROYDEN_MIXING
         ALPHA     2.9999999999999999E-01
         NBUFFER  8
       &END MIXING
     &END SCF
     &QS
       EPS_DEFAULT     1.0000000000000000E-14
       METHOD  GPW
     &END QS
     &MGRID
       NGRIDS  6
       CUTOFF     1.0000000000000000E+03
       REL_CUTOFF     6.0000000000000000E+01
     &END MGRID
     &XC
       DENSITY_CUTOFF     1.0000000000000000E-10
       GRADIENT_CUTOFF     1.0000000000000000E-10
       TAU_CUTOFF     1.0000000000000000E-10
       &XC_GRID
         XC_DERIV  SPLINE2_SMOOTH
       &END XC_GRID
       &XC_FUNCTIONAL  NO_SHORTCUT
         &PBE  T
         &END PBE
       &END XC_FUNCTIONAL
       &VDW_POTENTIAL
         POTENTIAL_TYPE  PAIR_POTENTIAL
         &PAIR_POTENTIAL
           TYPE  DFTD3
           PARAMETER_FILE_NAME dftd3.dat
           REFERENCE_FUNCTIONAL PBE
         &END PAIR_POTENTIAL
       &END VDW_POTENTIAL
     &END XC
     &POISSON
       POISSON_SOLVER  PERIODIC
       PERIODIC  XYZ
     &END POISSON
     &PRINT
       &MO_CUBES  SILENT
         WRITE_CUBE  F
         NLUMO  3
         NHOMO  3
       &END MO_CUBES
       &PDOS  SILENT
         COMPONENTS  T
         APPEND  T
         NLUMO  -1
       &END PDOS
       &MULLIKEN  OFF
       &END MULLIKEN
       &HIRSHFELD  OFF
       &END HIRSHFELD
     &END PRINT
   &END DFT
   &SUBSYS
     &CELL
       A     2.3015039999999999E+01    0.0000000000000000E+00    0.0000000000000000E+00
       B    -1.2316407365200799E+01    2.0115804794661500E+01    0.0000000000000000E+00
       C    -3.6364993523501205E-01    2.6423684160043998E-01    3.8841378964405301E+01
       PERIODIC  XYZ
       MULTIPLE_UNIT_CELL  1 1 1
     &END CELL
     &COORD
B    4.0108290130269593E+00    8.8727106865659806E+00    2.2434286457737773E+01
B    4.1204976075059800E+00    8.7784988971258020E+00    7.1370261824479879E+00
B    1.5703878861402487E+01    2.0275247129656320E+00    1.2649044405992482E+01
B    1.5624599409632296E+01    2.1004502122602906E+00    1.6942352833819619E+01
C    3.0493355415981576E+00    6.9796255648755912E+00    2.1059469433616375E+01
C    1.8471846881847900E+00    6.7789271987385771E+00    2.0266262223687452E+01
C    6.7362892483157486E+00    6.7593237905297094E+00    2.1167762464688188E+01
C    5.3202747805968951E+00    7.0001240507714924E+00    2.1388868572054633E+01
C   -5.6899225662852819E-02    8.1547339673235264E+00    1.9542047382541892E+01
C    1.0959353391413695E+00    8.0008592796652351E+00    2.0312946888573325E+01
C    7.4494453799905669E+00    5.5770820492014330E+00    2.1013322537918391E+01
C    1.8459204188181613E+00    8.9405092443515013E+00    2.1132225869244490E+01
C    1.4348341827441988E+00    5.7228444062583241E+00    1.9451823710128519E+01
C    4.0582093840363900E+00    8.6166146211813448E+00    4.3586776973835475E+00
C    3.9078723560373771E+00    8.7835274046513341E+00    2.3997164835595907E+01
C    4.0559095804852205E+00    8.6710485136845339E+00    5.5731630612585876E+00
C    3.8600020531964381E+00    8.7561099308197488E+00    2.5211646469798122E+01
C    5.4216319922917604E+00    6.9097612013264165E+00    8.1975568562387089E+00
C    1.1888347866779867E+00    7.9023573752134189E+00    9.2341293494478265E+00
C    1.9395720561216492E+00    6.6807085333823668E+00    9.2822137185707660E+00
C    1.5233040596314076E+00    5.6224628349344350E+00    1.0091122854339812E+01
C    3.4672802564346822E-02    8.0556756853904083E+00    1.0003749848109095E+01
C   -3.6757888367597719E-01    6.9988045130163972E+00    1.0827825725669221E+01
C    3.7107927423102116E-01    5.7855955787046360E+00    1.0867335710845254E+01
C    3.1471091643038025E+00    6.8835088012282819E+00    8.4981867907613164E+00
C    1.9423801051609662E+00    8.8430812565177046E+00    8.4201619807179000E+00
C    7.5554448883377008E+00    5.4868093620993097E+00    8.5552544933045187E+00
C    6.8386417105236079E+00    6.6690545074395260E+00    8.4166822932202177E+00
C   -2.5726453864395071E+00    5.6983913731509457E+00    1.1821198191761683E+01
C   -1.0651860744286704E+01    1.9929341055524255E+01    1.2609910013535996E+01
C    4.1881825669165549E+00    1.2207170051538935E-01    1.1315391153419297E+01
C    3.4790129702462784E+00    1.2497690796952095E+00    1.1744548645203507E+01
C   -1.8402371261791608E+00    4.4825494910379842E+00    1.1842118441018766E+01
C   -1.1294270575032558E+01    1.9603194708256346E+01    1.3872734484970904E+01
C    4.1803346929725977E+00    2.3494523909230529E+00    1.2385054635318051E+01
C   -1.0101833618023338E+01    1.7708999147764931E+01    1.3152371963065617E+01
C   -6.3501863350256711E+00    1.8793877964098815E+01    1.1847616867278731E+01
C    2.1010217944352672E+00    2.0914383167019683E+00    1.3454452888278112E+01
C    3.3277119491279983E+00    2.8682812889487788E+00    1.3442983671087656E+01
C   -7.5786754230803064E+00    1.8016929864469848E+01    1.1858528677700662E+01
C   -8.6777631622214386E+00    1.8909237088512949E+01    1.1528163863348002E+01
C   -9.9148877937985969E+00    1.8758645395306008E+01    1.2164074501243192E+01
C   -7.7597750208242982E+00    1.7007507768560320E+01    1.2810169968027838E+01
C    2.1935214840864647E+00    1.0917581567640242E+00    1.2404210257797592E+01
C    6.3013507028021332E+00    1.1086778597050053E+00    1.2130081084435473E+01
C   -6.6897982535039509E+00    2.0166586311687677E+01    1.1510745925047738E+01
C    5.5644872548606026E+00    2.2793146192080318E+00    1.2575457598325988E+01
C   -5.3492395846850789E+00    1.8531939909322965E+01    1.2789597423042821E+01
C   -9.0449533236555819E+00    1.6850159469102767E+01    1.3469423010086722E+01
C    4.2895789908348432E+00    2.7039210908646107E+00    1.6889681917417004E+01
C   -4.9520527156820000E+00    1.7932134172450745E+01    1.5029298577811813E+01
C    3.5766740471541412E+00    6.5433979913987761E+00    1.5534695336484612E+01
C    3.2490303523600077E+00    2.9740736341445553E+00    1.5911026547361812E+01
C   -1.0717233295044718E+01    1.7874259416851864E+01    1.5540191842723868E+01
C   -1.0810301875817032E+01    1.8875980460909869E+01    1.6588958845659299E+01
C    2.0675672538411032E+00    2.2279108454994736E+00    1.5920684790159923E+01
C    1.4812656252921172E+00    1.7780238143331868E+00    1.4668708991939209E+01
C   -5.5380118288993403E+00    1.7482598132528537E+01    1.3777148165414362E+01
C    4.8225714622345182E+00    6.3691757384676020E+00    1.4806556854043912E+01
C   -9.6186430666951939E+00    1.6982912324967437E+01    1.5868180950415033E+01
C   -1.1137469222066487E+01    2.0196668392658211E+01    1.6266788869828840E+01
C   -1.0953771151658842E+01    1.8231476234075586E+01    1.4207871015184455E+01
C    6.0337763596690124E+00    6.7602701339279738E+00    1.5384823960571973E+01
C    9.3080176547432136E-01    4.5164739308394297E-01    1.4882210489939352E+01
C    1.8794233484374367E+00    1.1795717521749143E+00    1.6909261119115232E+01
C   -8.7977175825291063E+00    1.6480781101920197E+01    1.4853621738948892E+01
C   -6.7188302468904624E+00    1.6734869986223547E+01    1.3787263997112202E+01
C   -7.3612091283505396E+00    1.6409405867037670E+01    1.5049862505969402E+01
C   -6.7973360259561098E+00    1.6842015238846191E+01    1.6254833192648437E+01
C   -5.5700714949335524E+00    1.7618218341843047E+01    1.6244488377470731E+01
C    3.8925782160505658E+00    3.2934603993506930E+00    1.4648428213709627E+01
C   -7.6572257314754415E+00    1.9588210795918329E+01    1.8384555392816647E+01
C    2.8811312995312486E+00    9.1684581685918010E-01    1.7850089819336485E+01
C   -5.6618312550478516E+00    1.8618633395786912E+01    1.7295342314627696E+01
C   -7.6493030283128292E+00    1.7362059883184028E+01    1.7311868898106333E+01
C   -4.5786388684816121E-01    7.0987070996399506E+00    1.8717157291010196E+01
C   -2.6677248253094832E+00    5.7956071366638424E+00    1.7738364436367672E+01
C   -1.9325051597217902E+00    4.5814620301550759E+00    1.7719366981323663E+01
C   -9.0957136077144849E+00    1.9660363199719882E+01    1.8185500781394470E+01
C    2.8286117034111385E-01    5.8866727094458069E+00    1.8675137659754352E+01
C    4.1099605729383084E+00    1.6942633359591337E+00    1.7841257226282316E+01
C    5.2087212532190064E+00    8.0131135058656289E-01    1.8169949026080566E+01
C   -6.9481571465078673E+00    1.8461523770013290E+01    1.7954272101465662E+01
C   -9.7701717821596130E+00    1.8602183142947954E+01    1.7567442373422498E+01
C   -9.0331373020382308E+00    1.7431725783209725E+01    1.7121168843513040E+01
C    2.6132630280002509E+00    1.3497359542049258E+01    2.1244496797105423E+01
C    2.9108300658308672E+00    1.0937066500894829E+01    2.1521739266843571E+01
C    3.3377388917442530E+00    1.2316869064461725E+01    2.1356877758668045E+01
C    3.0058810419551061E+00    1.0842248019714416E+01    8.0402384786725918E+00
C    3.4294969305403433E+00    1.2220011346813870E+01    8.2256066947580813E+00
C    2.7035671610454863E+00    1.3398385882072461E+01    8.3508417175442808E+00
C    2.7725094161037909E+00    7.9699229250391692E+00    1.2358256037185415E+01
C    2.1296840837504436E+00    1.0221698097610620E+01    1.2155332476903196E+01
C    5.1239143684993076E+00    8.3143986720942316E+00    1.1680497748721359E+01
C    1.8998539992581727E+00    1.1401755303030599E+01    1.2868836653296807E+01
C    1.7569051913743647E+00    8.9399263406419500E+00    1.2729966014595190E+01
C    3.1588337098300752E+00    6.9779207731587496E+00    1.3263565742073633E+01
C    5.5280647841688895E+00    7.2859104704876563E+00    1.2625077777609468E+01
C    3.7716922385763225E+00    8.6495255720994049E+00    1.1551934883289915E+01
C    3.3750176985660030E+00    1.0042166024068550E+01    1.1428146704236548E+01
C    4.5644968882908685E+00    6.6341437788450772E+00    1.3401857606602229E+01
C    1.1651225143331416E+00    8.8833444683477190E+00    1.3995791970170318E+01
C    1.2898257349967912E+00    1.1344653636647068E+01    1.4187523033327583E+01
C    1.9217766162965142E+00    1.2356340737761025E+01    1.5018080289532746E+01
C    6.0489202454016420E+00    7.3469718388785008E+00    1.6714578005852161E+01
C    1.5702895352856534E+00    7.8551017377955921E+00    1.4939883106135834E+01
C    9.2917132787600332E-01    1.0110645847227477E+01    1.4739714088694029E+01
C    2.5468615822917005E+00    6.9199783544781441E+00    1.4580659765305880E+01
C    1.1891822680611639E+00    9.8407037995765769E+00    1.6144239221652938E+01
C    1.5877677541554287E+00    8.4477183650115339E+00    1.6265999615206962E+01
C    3.5921831366904344E+00    7.1101171084287937E+00    1.6812641042845069E+01
C    3.2103763982433464E+00    9.0949207004060444E+00    1.8011317310630346E+01
C    2.1697314778573404E+00    1.2097398201244530E+01    1.6370463940356533E+01
C    2.8277035070214604E+00    1.0434171041172160E+01    1.7895282436491442E+01
C    1.7971305366647046E+00    1.0814889031288256E+01    1.6944082203480686E+01
C    4.8507218766544806E+00    7.5186820366157319E+00    1.7415675443527448E+01
C    2.5808343981722990E+00    8.0847301384590811E+00    1.7179763310849900E+01
C    4.6139081273719746E+00    8.7465002985913358E+00    1.8157504850903894E+01
C    3.8347294118915469E+00    1.1480300486693963E+01    1.7913013389664254E+01
C    8.8014320721261257E+00    8.0878224954636213E+00    2.1134346581850611E+01
C    9.5215876852118839E+00    6.8869491305360953E+00    2.1048862800921810E+01
C    7.4153384956195332E+00    8.0195561542922729E+00    2.1288906823868963E+01
C    1.1105153322225442E+01    4.2919556223999251E+00    2.0336313389850950E+01
C    6.4067533391510576E+00    9.0165328168266310E+00    2.1636612512778811E+01
C    1.1573770889327660E+01    3.1334972808047752E+00    1.9717897078305338E+01
C    8.8452762707221897E+00    5.6393020342711875E+00    2.1058386126122095E+01
C    1.1784115408095129E+01    5.5310875257712064E+00    2.0184253886576922E+01
C    6.5060411126008040E+00    8.9290176773071845E+00    7.9603924675181288E+00
C    8.9021570670300214E+00    8.0016256052193295E+00    8.4504254697158121E+00
C    7.5156149896931508E+00    7.9315934371830012E+00    8.3028371000923524E+00
C    9.6248431033772466E+00    6.8013772583708700E+00    8.5173912191900634E+00
C    8.9508056054166687E+00    5.5528973960319483E+00    8.5008654259223047E+00
C    1.1673226009795171E+01    3.0517260015594894E+00    9.8408481619867647E+00
C    1.2827176950804429E+01    3.1353231178637739E+00    1.0608878092603510E+01
C    1.1889216851914865E+01    5.4476542010366229E+00    9.3690672574657601E+00
C    1.3035438068803636E+01    5.5385115952912658E+00    1.0171066830493357E+01
C    1.1210250294423846E+01    4.2090688963806420E+00    9.2160242635848668E+00
C    1.8153392227614408E+01    2.1539912852411343E+00    1.2047675613074880E+01
C    1.4716486510478115E+01    4.0959033595318113E+00    1.1564906076523178E+01
C    1.9121838093855761E+01    3.2391154799368516E+00    1.1944503252975188E+01
C    1.6966206630820128E+01    4.1261356937701201E+00    1.2032801417288299E+01
C    1.3617933078899958E+01    2.1033045249864983E+00    1.1242560793896210E+01
C    1.8380309205689027E+01    4.4706618579575768E+00    1.1932531398714062E+01
C    2.0512795262835954E+01    3.2478751018803043E+00    1.1851360604570091E+01
C    1.9041438892336942E+01    5.6924165238392446E+00    1.1817223669813421E+01
C    1.7073088664862141E+01    1.8172862087078964E-01    1.1579774165405412E+01
C    7.3418960704863290E+00    8.3479378445382835E-01    1.3108546218862520E+01
C    1.4800514805290600E+01    1.4438332842295912E-01    1.1242216995086260E+01
C    7.2482359756471659E+00    1.8361500508407287E+00    1.4157823693325017E+01
C    6.1497462393684366E+00    2.7273782297441862E+00    1.3828929017673614E+01
C    1.3512616790082918E+01    4.3811148553491446E+00    1.0791315550854776E+01
C   -4.6476337833603631E+00    1.9630264814168630E+01    1.3432156863541122E+01
C    1.5458945718291407E+01    1.9640445158066415E+00    1.5404165080165152E+01
C    1.5496489128852836E+01    1.9305265553944844E+00    1.4185103942146480E+01
C    6.6330829682200170E+00    2.0015065738769646E+00    1.6546387739579064E+01
C   -4.4039236694416317E+00    1.9259128500103614E+01    1.4816489472295673E+01
C   -4.4922577959483387E+00    2.0224107068839693E+01    1.5825026549132719E+01
C    7.4856766748550561E+00    1.4799648466103035E+00    1.5490522675885742E+01
C    5.5751783648180853E+00    2.8591946918735576E+00    1.6230148415704839E+01
C    5.3288290182607509E+00    3.2244531831698691E+00    1.4845133119890855E+01
C    1.4620639429866952E+01    4.1766101238464310E+00    1.7999996907596433E+01
C    1.8946010494750297E+01    5.7856664989019038E+00    1.7748474141784992E+01
C    1.8067521135434973E+01    2.2421860152817694E+00    1.7556856748093466E+01
C    1.3525986976248857E+01    2.1835135314264527E+00    1.8329398401412448E+01
C    1.2932731133720550E+01    5.6211812113413595E+00    1.9385167701952387E+01
C    1.6874358810702692E+01    4.2107636641451265E+00    1.7549008745204354E+01
C    1.2730500237299356E+01    3.2168269735296944E+00    1.8954066757718795E+01
C    2.0424147713910223E+01    3.3449488295047498E+00    1.7728285516174036E+01
C    1.3413700510733749E+01    4.4630750507030861E+00    1.8768544916785899E+01
C    1.9032819038441016E+01    3.3313515629480848E+00    1.7645995662119169E+01
C    1.8287638151243893E+01    4.5610565502199778E+00    1.7647080356784631E+01
C    1.6990658685581550E+01    2.7126938456635002E-01    1.8039824964219985E+01
C    1.4715828468605194E+01    2.2902971988531343E-01    1.8362220514187875E+01
C    6.4467583998552849E+00    9.5241238126301075E-01    1.7535697463398584E+01
C   -5.1342514742768781E+00    1.9897182040683024E+01    1.7088300358651448E+01
C    4.5697610603347147E+00    1.7329143796418993E+01    2.0327981918127467E+01
C    3.3135825432296317E+00    1.4706579820763958E+01    2.1283020166833627E+01
C    4.7320453293185780E+00    1.4730735666953862E+01    2.1242967548284028E+01
C    5.2092427595658286E+00    1.0972068881371145E+01    2.1700033225329982E+01
C    4.7730546535053842E+00    1.2338107217268362E+01    2.1435812948872698E+01
C    3.1581116104151383E+00    1.7304817284185919E+01    2.0489363595723173E+01
C    5.4679115176433060E+00    1.3538663024925725E+01    2.1288938238454481E+01
C    2.3424244879153919E+00    1.8226048084959832E+01    1.9832380996757266E+01
C    5.1768859072829381E+00    1.8272089111373486E+01    1.9488632248325366E+01
C    5.3050373056623750E+00    1.0880900631614786E+01    7.8841927053418894E+00
C    5.5584535745930630E+00    1.3441778494973637E+01    8.3274694614542728E+00
C    4.8652848147020693E+00    1.2242936777817585E+01    8.1602799607342593E+00
C    3.4035678016084105E+00    1.4608441257053700E+01    8.3319539802643732E+00
C    4.8217783191923536E+00    1.4632813191255870E+01    8.3803017939222553E+00
C    2.4305538025621947E+00    1.8132723760048695E+01    9.7852119951310819E+00
C    3.2473015446711821E+00    1.7206710329699597E+01    9.1366644890401414E+00
C    4.6583888853805133E+00    1.7229440090131732E+01    9.3049656166690085E+00
C    5.2627687516553463E+00    1.8173500022176981E+01    1.0145045982761395E+01
C    3.0332845616046602E+00    1.9091025830531191E+01    1.0591045241655234E+01
C    4.4530962714764977E+00    1.9113494681443836E+01    1.0786205780040747E+01
C    6.3798888472678446E+00    1.1714634125705411E+01    1.2409200226967442E+01
C    6.1321273837011550E+00    9.3616071147765503E+00    1.1696305859043338E+01
C    5.7488490379902428E+00    1.0702062613791556E+01    1.1579502016492508E+01
C    7.1593137891522991E+00    8.9800251564442775E+00    1.2651722036189801E+01
C    6.7864621542884063E+00    7.6973465686345532E+00    1.3225785390789810E+01
C    5.3652663518404999E+00    1.2687321956955319E+01    1.2782697250073999E+01
C    7.7650247935837111E+00    9.9543720521398473E+00    1.3452429107580988E+01
C    7.3680433948017194E+00    1.1347238561807918E+01    1.3328790267379334E+01
C    4.3444480907378020E+00    1.1049314386490304E+01    1.1440359309213310E+01
C    2.9088748320788640E+00    1.2448466784453892E+01    1.2884530614072300E+01
C    4.1069723831472968E+00    1.2276607013510345E+01    1.2182882306665080E+01
C    4.1333961481646417E+00    1.3433754207867596E+01    1.4790188882089540E+01
C    5.3781203378042761E+00    1.3254874325437383E+01    1.4061605183767574E+01
C    7.3814618809839612E+00    1.1937774953412553E+01    1.4656928985863233E+01
C    2.9219317408440242E+00    1.3038260934430001E+01    1.4212889574839462E+01
C    7.6655385565054104E+00    8.4508910142334237E+00    1.5410614563924961E+01
C    7.7863181519307849E+00    1.0910449353478853E+01    1.5601615985100759E+01
C    7.0570691637713416E+00    8.3944131193242342E+00    1.6730091888537839E+01
C    6.4053527975694111E+00    1.2873102001185368E+01    1.5016711847314623E+01
C    8.0232277728702410E+00    9.6846073088703992E+00    1.4857209219561391E+01
C    4.3913292785635356E+00    1.3164934782836244E+01    1.6195306385624082E+01
C    7.0337102136104406E+00    7.4397199373585536E+00    1.4579084877039934E+01
C    6.1863030220688735E+00    1.1828586328580068E+01    1.7244878054940013E+01
C    4.3686663630620526E+00    1.9207258542918908E+01    1.8839051495247535E+01
C    3.4289565902093622E+00    1.2509426342404382E+01    1.6970368307005181E+01
C    2.9475384382428174E+00    1.9181750392882932E+01    1.9025324586516671E+01
C    5.7962654028155338E+00    1.2817536408624544E+01    1.6335224343291149E+01
C    7.2009175027439412E+00    1.0856450344600004E+01    1.6871063371300441E+01
C    5.1864999621338637E+00    1.1146515116112745E+01    1.8048941131950134E+01
C    5.5841382997789193E+00    9.7540773877669462E+00    1.8173658991662247E+01
C    6.8302994332574176E+00    9.5742527735822236E+00    1.7446897960646975E+01
H    6.9353844922211145E+00    4.6177413115060197E+00    2.0967172409888573E+01
H   -6.1989875265657524E-01    9.0874586921779112E+00    1.9564298711410505E+01
H    2.0089135896163910E+00    4.7973056568817531E+00    1.9406214433154261E+01
H   -5.2861418200956234E-01    8.9882298277279258E+00    9.9812006585112911E+00
H    2.0969800360917641E+00    4.6966970817106599E+00    1.0134868865546650E+01
H    7.0442659994898431E+00    4.5257103566772532E+00    8.5965846181467711E+00
H    1.5243167552318424E+00    1.3484381420144736E+01    2.1214944376180362E+01
H    1.6144537521713804E+00    1.3384057923810163E+01    8.3752240432874370E+00
H    9.3200330924484831E+00    9.0466741868629956E+00    2.1162057043432306E+01
H    1.1052058688232332E+01    2.1843415978503731E+00    1.9838534742231346E+01
H    9.4188501064146983E+00    8.9616784974852219E+00    8.4297553077434522E+00
H    1.1149033665971624E+01    2.1037727429292636E+00    9.7220009286159161E+00
H    1.3551212680560729E+01    6.4903498462972911E+00    1.0296725588046293E+01
H    2.1075062987916077E+01    2.3144178529861530E+00    1.1824933823337222E+01
H    1.8481099902415814E+01    6.6258597957687968E+00    1.1764992997283382E+01
H    1.8382592336807306E+01    6.7176218432623713E+00    1.7795219920416177E+01
H    2.0989790766767367E+01    2.4136956930208298E+00    1.7758222336606114E+01
H    1.3448603478395452E+01    6.5730147389830842E+00    1.9259652564204810E+01
H    6.5580751375457300E+00    1.3555860849051763E+01    2.1276735578839755E+01
H    1.2602711311160741E+00    1.8208162764574237E+01    1.9961268283703074E+01
H    6.2589534265923099E+00    1.8286584720538137E+01    1.9359567447558472E+01
H    6.6484796093395708E+00    1.3459273653100071E+01    8.3484557504401948E+00
H    6.3442877896891279E+00    1.8186157846072575E+01    1.0279110242089089E+01
H    1.3491899229170183E+00    1.8117733016750822E+01    9.6496115720679878E+00
N    4.2191931649127703E+00    6.3085626872661722E+00    2.1044306630017584E+01
N    2.9023787846084490E+00    8.2186945737956574E+00    2.1637121558350682E+01
N    5.2598369551231805E+00    8.2894206250037303E+00    2.1836297897330464E+01
N    5.3604601471128897E+00    8.2019153741719979E+00    7.7601478612707959E+00
N    3.0027512787416417E+00    8.1231456142785099E+00    7.9201819965188971E+00
N    4.3178203339520707E+00    6.2144211867451382E+00    8.5254908144510484E+00
N    1.7811976338726583E+00    1.0286428811436821E+01    2.1186305994319078E+01
N    4.0458655348478985E+00    1.0272119667725631E+01    2.1890472974379204E+01
N    4.1442723480513619E+00    1.0181807477373956E+01    7.6722021159759928E+00
N    1.8757295820123454E+00    1.0189100846115283E+01    8.3678996083378685E+00
N    1.6952726303039949E+01    2.7762021694809156E+00    1.2261742797793673E+01
N    1.4626575804601154E+01    2.7630370484204749E+00    1.1891309475630601E+01
N    1.5850528669733075E+01    7.2204537500924193E-01    1.1906058829767669E+01
N    1.5847042226061362E+01    4.8119856900628317E+00    1.1729925433298819E+01
N    1.8235306571322774E+01    8.4326496267261253E-01    1.1750797458415542E+01
N    1.3642143026181429E+01    7.8181499719074266E-01    1.0996927482649175E+01
N    1.4534434245849917E+01    2.8413847054105439E+00    1.7677071144398880E+01
N    1.5768901240445279E+01    8.0601434300647112E-01    1.7704236728807658E+01
N    1.6865409898571450E+01    2.8585650936529405E+00    1.7336218924480718E+01
N    1.3553200473880443E+01    8.6494817765369025E-01    1.8590244293460636E+01
N    1.8151887874826169E+01    9.3434744416047399E-01    1.7866353669519288E+01
N    1.5750439417660386E+01    4.8947590376039543E+00    1.7838638961438349E+01
N    6.4105552446213272E+00    1.0363759978676168E+01    2.1630762865218014E+01
N    6.5070230525164119E+00    1.0275964694003230E+01    7.9652384730825565E+00
S   -1.7451427011731939E+00    7.2583753474295447E+00    1.1903494644616464E+01
S   -7.7511714786780220E-02    4.4841177362599529E+00    1.1975119728864641E+01
S   -1.8420942936607119E+00    7.3563114839225330E+00    1.7647848363992065E+01
S   -1.7073048859647538E-01    4.5854167628678839E+00    1.7568470257418003E+01
S    9.6915983824488983E+00    4.1288019762615882E+00    2.1365855275507929E+01
S    1.1286835090210579E+01    6.9674276785031042E+00    2.1090272483850931E+01
S    9.8021327643356511E+00    4.0479577629014774E+00    8.1778602181235520E+00
S    1.1389591427827494E+01    6.8835226598248669E+00    8.4637979066226965E+00
S    2.3775294697857552E+00    1.6167311521896998E+01    2.1579244927708942E+01
S    5.6161421152661797E+00    1.6259023009235509E+01    2.1269187326829190E+01
S    2.4673376459878984E+00    1.6070322080461882E+01    8.0454922979290320E+00
S    5.7081898042882502E+00    1.6159612140425605E+01    8.3680846547693584E+00
H    4.0535336163229774E+00    8.5642699405187273E+00    3.2900254957866677E+00
H    3.8114800560587825E+00    8.7270776166278772E+00    2.6280075511890495E+01
     &END COORD
     &KIND H
       BASIS_SET DZVP-MOLOPT-GTH
       POTENTIAL GTH-PBE-q1
       &POTENTIAL
 1
  0.2000000000000000E+00 2 -0.4178900440000000E+01  0.7244633100000000E+00
 0
         # Potential name:  GTH-PBE-Q1  for symbol:  H
         # Potential read from the potential filename: POTENTIAL
       &END POTENTIAL
     &END KIND
     &KIND C
       BASIS_SET DZVP-MOLOPT-GTH
       POTENTIAL GTH-PBE-q4
       &POTENTIAL
 2 2
  0.3384712400000000E+00 2 -0.8803673979999999E+01  0.1339210850000000E+01
 2
  0.3025757500000000E+00 1  0.9622486650000001E+01
  0.2915069400000000E+00 0
         # Potential name:  GTH-PBE-Q4  for symbol:  C
         # Potential read from the potential filename: POTENTIAL
       &END POTENTIAL
     &END KIND
     &KIND N
       BASIS_SET DZVP-MOLOPT-GTH
       POTENTIAL GTH-PBE-q5
       &POTENTIAL
 2 3
  0.2837905100000000E+00 2 -0.1241522559000000E+02  0.1868095920000000E+01
 2
  0.2554050000000000E+00 1  0.1363026257000000E+02
  0.2454945300000000E+00 0
         # Potential name:  GTH-PBE-Q5  for symbol:  N
         # Potential read from the potential filename: POTENTIAL
       &END POTENTIAL
     &END KIND
     &KIND B
       BASIS_SET DZVP-MOLOPT-SR-GTH
       POTENTIAL GTH-PBE-q3
       &POTENTIAL
 2 1
  0.4189914500000000E+00 2 -0.5859461710000000E+01  0.9037564300000001E+00
 2
  0.3713204600000000E+00 1  0.6297280180000000E+01
  0.3645630800000000E+00 0
         # Potential name:  GTH-PBE-Q3  for symbol:  B
         # Potential read from the potential filename: POTENTIAL
       &END POTENTIAL
     &END KIND
     &KIND S
       BASIS_SET DZVP-MOLOPT-GTH
       POTENTIAL GTH-PBE-q6
       &POTENTIAL
 2 4
  0.4200000000000000E+00 1 -0.5986260380000000E+01
 2
  0.3648203500000000E+00 2  0.1314354448000000E+02 -0.4241830450000000E+01
  0.5476179570000000E+01
  0.4094804800000000E+00 1  0.3700890570000000E+01
         # Potential name:  GTH-PBE-Q6  for symbol:  S
         # Potential read from the potential filename: POTENTIAL
       &END POTENTIAL
     &END KIND
     &TOPOLOGY
       COORD_FILE_NAME cof.xyz
       COORD_FILE_FORMAT  XYZ
       NUMBER_OF_ATOMS  288
       MULTIPLE_UNIT_CELL  1 1 1
     &END TOPOLOGY
   &END SUBSYS
 &END FORCE_EVAL
