 # Version information for this restart file 
 # current date 2021-06-23 06:21:31.512
 # current working dir /panfs/panfs.cbls.ccr.buffalo.edu/scratch/grp-cyberwksp21/ub2053/cof/opt
 # Program compiled at                              Thu Apr 22 21:44:59 EDT 2021
 # Program compiled on                cpn-k07-07-02.compute.cbls.ccr.buffalo.edu
 # Program compiled for                                                    local
 # Source code revision number                                       git:36754bb
 &GLOBAL
   EXTENDED_FFT_LENGTHS  T
   PRINT_LEVEL  MEDIUM
   PROJECT_NAME COF
   RUN_TYPE  CELL_OPT
 &END GLOBAL
 &MOTION
   &GEO_OPT
     OPTIMIZER  BFGS
     MAX_ITER  550
     MAX_DR     2.0000000000000000E-03
     MAX_FORCE     2.9999999999999997E-04
     RMS_DR     2.0000000000000000E-03
     RMS_FORCE     2.9999999999999997E-04
     &BFGS
     &END BFGS
   &END GEO_OPT
   &CELL_OPT
     OPTIMIZER  BFGS
     MAX_ITER  550
     MAX_DR     2.0000000000000000E-03
     MAX_FORCE     2.9999999999999997E-04
     RMS_DR     2.0000000000000000E-03
     RMS_FORCE     2.9999999999999997E-04
     STEP_START_VAL  5
     TYPE  DIRECT_CELL_OPT
     EXTERNAL_PRESSURE     1.0000000000000000E+02    0.0000000000000000E+00    0.0000000000000000E+00    0.0000000000000000E+00 \
         1.0000000000000000E+02    0.0000000000000000E+00    0.0000000000000000E+00    0.0000000000000000E+00    1.0000000000000000E+02
     KEEP_SYMMETRY  F
     PRESSURE_TOLERANCE     1.0000000000000000E+02
   &END CELL_OPT
   &PRINT
     &TRAJECTORY  SILENT
       &EACH
         GEO_OPT  1
       &END EACH
     &END TRAJECTORY
     &FORCES  ON
     &END FORCES
     &RESTART  SILENT
       BACKUP_COPIES  1
       &EACH
         GEO_OPT  1
       &END EACH
     &END RESTART
   &END PRINT
 &END MOTION
 &FORCE_EVAL
   METHOD  QS
   STRESS_TENSOR  ANALYTICAL
   &DFT
     BASIS_SET_FILE_NAME BASIS_MOLOPT
     POTENTIAL_FILE_NAME POTENTIAL
     MULTIPLICITY  1
     &SCF
       MAX_SCF  50
       EPS_SCF     9.9999999999999995E-07
       SCF_GUESS  ATOMIC
       ADDED_MOS  50
       &DIAGONALIZATION  T
         ALGORITHM  DAVIDSON
       &END DIAGONALIZATION
       &SMEAR  T
         METHOD  FERMI_DIRAC
       &END SMEAR
       &MIXING  T
         METHOD  BROYDEN_MIXING
         ALPHA     2.9999999999999999E-01
         NBUFFER  8
       &END MIXING
     &END SCF
     &QS
       EPS_DEFAULT     1.0000000000000000E-14
       METHOD  GPW
     &END QS
     &MGRID
       NGRIDS  6
       CUTOFF     1.0000000000000000E+03
       REL_CUTOFF     6.0000000000000000E+01
     &END MGRID
     &XC
       DENSITY_CUTOFF     1.0000000000000000E-10
       GRADIENT_CUTOFF     1.0000000000000000E-10
       TAU_CUTOFF     1.0000000000000000E-10
       &XC_GRID
         XC_DERIV  SPLINE2_SMOOTH
       &END XC_GRID
       &XC_FUNCTIONAL  NO_SHORTCUT
         &PBE  T
         &END PBE
       &END XC_FUNCTIONAL
       &VDW_POTENTIAL
         POTENTIAL_TYPE  PAIR_POTENTIAL
         &PAIR_POTENTIAL
           TYPE  DFTD3
           PARAMETER_FILE_NAME dftd3.dat
           REFERENCE_FUNCTIONAL PBE
         &END PAIR_POTENTIAL
       &END VDW_POTENTIAL
     &END XC
     &POISSON
       POISSON_SOLVER  ANALYTIC
       PERIODIC  NONE
     &END POISSON
     &PRINT
       &MO_CUBES  SILENT
         WRITE_CUBE  F
         NLUMO  3
         NHOMO  3
       &END MO_CUBES
       &PDOS  SILENT
         COMPONENTS  T
         APPEND  T
         NLUMO  -1
       &END PDOS
       &MULLIKEN  OFF
       &END MULLIKEN
       &HIRSHFELD  OFF
       &END HIRSHFELD
     &END PRINT
   &END DFT
   &SUBSYS
     &CELL
       A     2.1925044695880889E+01    0.0000000000000000E+00    0.0000000000000000E+00
       B    -1.2300309996068677E+01    1.8865804794661500E+01    0.0000000000000000E+00
       C    -3.6203981623195081E-01    2.6447033022080219E-01    3.8220132368899584E+01
       PERIODIC  XY
       MULTIPLE_UNIT_CELL  1 1 1
     &END CELL
     &COORD
B    3.5634560903385575E+00    8.3054929512330649E+00    2.1951356749467312E+01
B    3.6754768651772327E+00    8.1954076218452361E+00    7.1335842088662567E+00
B    1.4901146527372340E+01    1.9391442373961036E+00    1.2512426230085984E+01
B    1.4830922114201888E+01    2.0012303820821886E+00    1.6596996409555402E+01
C    2.7191897673439565E+00    6.5267570404305566E+00    2.0658634837338280E+01
C    1.5098184516440287E+00    6.3764000502265805E+00    1.9925737468136195E+01
C    6.2732019166951760E+00    6.3500738483905517E+00    2.0841113810079420E+01
C    4.8760282474527212E+00    6.5812082806304710E+00    2.0970072632442157E+01
C   -3.4784149450606422E-01    7.6678752928064426E+00    1.9251695944100895E+01
C    7.7238939836904275E-01    7.4467728971912592E+00    1.9948711150328847E+01
C    6.9834253161260644E+00    5.2896597498898243E+00    2.0704868965464122E+01
C    1.5036170358340162E+00    8.4455233668377225E+00    2.0801999568911899E+01
C    1.1814126832774750E+00    5.3409833302451108E+00    1.9141065315730732E+01
C    3.6430914724462622E+00    8.0835711596117470E+00    4.4391877095147692E+00
C    3.4668287771810626E+00    8.2392030006765200E+00    2.3455779584705731E+01
C    3.6094851942641859E+00    8.1253767676535276E+00    5.6330024418210591E+00
C    3.4246422775889127E+00    8.2529613098985148E+00    2.4696155004142319E+01
C    4.9668394226266042E+00    6.4986259275889147E+00    8.1338653687588618E+00
C    8.5885081349250225E-01    7.3521520793265855E+00    9.1208608674620439E+00
C    1.5943335429363616E+00    6.2636036045795338E+00    9.1383451487663336E+00
C    1.2877070436791529E+00    5.2139766011854354E+00    9.9297470164049795E+00
C   -2.4827464363792798E-01    7.5627404851644346E+00    9.7981678829391488E+00
C   -6.1487251586722225E-01    6.5267430806357769E+00    1.0610458123436818E+01
C    1.0255798110650217E-01    5.4083597921295814E+00    1.0662037501318601E+01
C    2.8007213354128968E+00    6.4463183001067810E+00    8.4187451749781026E+00
C    1.6430892819596647E+00    8.2847208393309124E+00    8.3279839397455540E+00
C    7.0414134847547221E+00    5.1546082164661984E+00    8.4089466518832978E+00
C    6.3351650460917739E+00    6.2433751632472010E+00    8.3139255671253558E+00
C   -2.5559011003406193E+00    5.3593311660625842E+00    1.1633108229059587E+01
C   -1.0632937121378218E+01    1.8810922246793446E+01    1.2459314716223432E+01
C    4.0685099251556789E+00    1.2624555862262127E-01    1.1108303505772389E+01
C    3.2610100716790393E+00    1.1015635820994629E+00    1.1543757931688928E+01
C   -1.9458733539162718E+00    4.2018535729801911E+00    1.1594058546122850E+01
C   -1.1291298904652932E+01    1.8518372586944974E+01    1.3653741338700190E+01
C    3.9597688868069949E+00    2.2587505565303645E+00    1.2186961389829413E+01
C   -1.0084146026005580E+01    1.6603294754665022E+01    1.2963329637296079E+01
C   -6.6034686296621201E+00    1.7665197275214449E+01    1.1679625918191288E+01
C    1.8316695896096593E+00    2.0498077950976339E+00    1.3233128165193953E+01
C    3.0139405063612821E+00    2.7001782804842955E+00    1.3223770215248571E+01
C   -7.7311068259744280E+00    1.6957749231917422E+01    1.1645724431324709E+01
C   -8.7807411157469826E+00    1.7705523179928903E+01    1.1369705593477617E+01
C   -1.0009726320455975E+01    1.7559735241925644E+01    1.2027602865824248E+01
C   -7.8834552410331336E+00    1.5870055910478934E+01    1.2597075876195849E+01
C    2.0290378423938615E+00    1.0379484157032846E+00    1.2226172123090111E+01
C    6.0581655208807375E+00    1.0227470422934577E+00    1.1950466937682819E+01
C   -6.8741824845501425E+00    1.8936255042048636E+01    1.1378205276235830E+01
C    5.2329529775762689E+00    2.1478984170952420E+00    1.2335985971091391E+01
C   -5.6102919726944194E+00    1.7479217417092638E+01    1.2596269879831910E+01
C   -9.1212390290386445E+00    1.5679365761871569E+01    1.3258273393486679E+01
C    3.9881809550988621E+00    2.6036719138254143E+00    1.6615775766777698E+01
C   -5.2431118610841558E+00    1.6811321604101245E+01    1.4773220642545212E+01
C    3.2466797137649994E+00    6.1436429590132073E+00    1.5284422294968296E+01
C    2.9757758323980981E+00    2.7451667427793902E+00    1.5664341998936651E+01
C   -1.0672678172614459E+01    1.6777273367508698E+01    1.5259142618023482E+01
C   -1.0778901318967836E+01    1.7728275716928568E+01    1.6329430978468235E+01
C    1.8151603098782048E+00    2.0353052454643561E+00    1.5721213815667165E+01
C    1.2876643766969378E+00    1.7710328043096899E+00    1.4458989466491063E+01
C   -5.7928464225607179E+00    1.6379444829551758E+01    1.3579588227885472E+01
C    4.5123612969812124E+00    6.0203384943681906E+00    1.4561991037342608E+01
C   -9.6428621415310136E+00    1.5937152863229866E+01    1.5614896866139597E+01
C   -1.1229263131830667E+01    1.8942637870815279E+01    1.5935844706998303E+01
C   -1.0945215067391917E+01    1.7045548030795974E+01    1.4051581711417059E+01
C    5.5413101341683841E+00    6.3573675361987343E+00    1.5128096314198542E+01
C    9.4873013877798495E-01    5.2112225802483203E-01    1.4637275477997450E+01
C    1.7663015566399440E+00    1.1518287223255292E+00    1.6663701138192220E+01
C   -8.9687497955060635E+00    1.5473191381975626E+01    1.4606210191124767E+01
C   -6.9252333606912257E+00    1.5662666137289490E+01    1.3571013818008469E+01
C   -7.4174501898591183E+00    1.5370592764953233E+01    1.4812429677158338E+01
C   -7.0134168623624715E+00    1.5746133728830518E+01    1.5975087358558461E+01
C   -5.7772961352600580E+00    1.6517578288539912E+01    1.5993138722642080E+01
C    3.5923343807761929E+00    3.0103261186046169E+00    1.4445723671739819E+01
C   -7.9188241151482650E+00    1.8381468092734238E+01    1.8067772050138746E+01
C    2.7953207638379580E+00    8.8865357379992826E-01    1.7550894828051725E+01
C   -5.8847309077160057E+00    1.7397406201423586E+01    1.7074289880814760E+01
C   -7.7826775557377479E+00    1.6247577511369592E+01    1.7073257364082625E+01
C   -6.9092865745339216E-01    6.5973721132886451E+00    1.8441316830755916E+01
C   -2.6930034933734737E+00    5.3803849880023149E+00    1.7487243576736244E+01
C   -1.9894074027573945E+00    4.2893568352003122E+00    1.7486878918336640E+01
C   -9.2809947268738249E+00    1.8472604386214361E+01    1.7878939787002665E+01
C    1.1138768110870079E-02    5.4913622224140228E+00    1.8421765128777352E+01
C    3.8967481460087270E+00    1.6009495586161593E+00    1.7544294552239577E+01
C    4.9713514951642939E+00    7.1710478524421328E-01    1.7895828493500847E+01
C   -7.2249890724155836E+00    1.7374065452260666E+01    1.7681096062494593E+01
C   -9.8104408068097140E+00    1.7430589469288002E+01    1.7239625354410162E+01
C   -9.1391184093047730E+00    1.6288359666093847E+01    1.6843548676655626E+01
C    2.0885496187241133E+00    1.2699357749820710E+01    2.0924248703079083E+01
C    2.4661458911226228E+00    1.0259043394421411E+01    2.1188100032811768E+01
C    2.8208199198157797E+00    1.1606386435501689E+01    2.1033056820694522E+01
C    2.5680654107689134E+00    1.0164753566146569E+01    7.9057700670139193E+00
C    2.9061223939597367E+00    1.1492999080238407E+01    8.0881143231045698E+00
C    2.1765168008947415E+00    1.2616594960564317E+01    8.1755921076079332E+00
C    2.3642023968312755E+00    7.4951936058039683E+00    1.2110709542413035E+01
C    1.7278344436919288E+00    9.6079533966243762E+00    1.1918689961911895E+01
C    4.6358331538486635E+00    7.8438542191351548E+00    1.1389798825096362E+01
C    1.4314767582697274E+00    1.0727387983653966E+01    1.2616095248130293E+01
C    1.4256072034749898E+00    8.3502505512102356E+00    1.2511140877199335E+01
C    2.8199383958158606E+00    6.5396569595209639E+00    1.3058485653076875E+01
C    5.0027444927248705E+00    6.8714866441176392E+00    1.2386237003727450E+01
C    3.2845383491955933E+00    8.1728577467143086E+00    1.1378030334383697E+01
C    2.9451802621739933E+00    9.4350495431816555E+00    1.1300710704555865E+01
C    4.1443953041032087E+00    6.2816262641853262E+00    1.3160710694097798E+01
C    8.0820746797194709E-01    8.3138678616679371E+00    1.3777538161923102E+01
C    9.1257551136636395E-01    1.0538216798113162E+01    1.3993846418625632E+01
C    1.4611716254714231E+00    1.1484709792252850E+01    1.4751376856448841E+01
C    5.4650889516283758E+00    6.8736009965118248E+00    1.6487088000400231E+01
C    1.2266038282190042E+00    7.3856440323227064E+00    1.4718041657748570E+01
C    6.4613844388902575E-01    9.4557132508678414E+00    1.4500303666171838E+01
C    2.3068253446921609E+00    6.4755904298341891E+00    1.4356918264744040E+01
C    8.5132487689532665E-01    9.2272012003566886E+00    1.5844887075560862E+01
C    1.2700601855872633E+00    7.8917267593365139E+00    1.6013772148731832E+01
C    3.2047239775505072E+00    6.7145230209848679E+00    1.6588940224712001E+01
C    2.8247917328894507E+00    8.4544279581239490E+00    1.7720625491961627E+01
C    1.7315984596638303E+00    1.1371792503836547E+01    1.6100532893398420E+01
C    2.3415917435776277E+00    9.7384077454232472E+00    1.7589692550327332E+01
C    1.3624495443405535E+00    1.0110444501587523E+01    1.6688674808009168E+01
C    4.3945091093478776E+00    6.9289241977720177E+00    1.7111316503568791E+01
C    2.1714714308976983E+00    7.4888682136150928E+00    1.6919491895547939E+01
C    4.1672566154217074E+00    8.1915837225966790E+00    1.7880121723908715E+01
C    3.3034564170989795E+00    1.0823936038892624E+01    1.7622645328729043E+01
C    8.1159577303880290E+00    7.5411521458293382E+00    2.0746130210951151E+01
C    8.8954087048149901E+00    6.4781631008405665E+00    2.0728403277326542E+01
C    6.8797731970413940E+00    7.4914661625200845E+00    2.0902679046618374E+01
C    1.0396484035025937E+01    4.0557784089866979E+00    2.0045733258546200E+01
C    5.8587108179624519E+00    8.4896185223540694E+00    2.1269972760648926E+01
C    1.0870389532680617E+01    2.9109010491885852E+00    1.9302180409523046E+01
C    8.3486241711453175E+00    5.2469422078834462E+00    2.0773297382832922E+01
C    1.1088781746460217E+01    5.2088208370267939E+00    1.9894591550571231E+01
C    5.9698641039872227E+00    8.3833024326404768E+00    7.8644315796007742E+00
C    8.2591801708491648E+00    7.4830165966867748E+00    8.2898329727888687E+00
C    6.9585892411514916E+00    7.4401220177249989E+00    8.1781928859421988E+00
C    8.9922836342108212E+00    6.3737671592143519E+00    8.3519326515892054E+00
C    8.4652885412529635E+00    5.1350103231949769E+00    8.2973015800089627E+00
C    1.1103272224156520E+01    2.8604448775193267E+00    9.6849908891921448E+00
C    1.2130261909882995E+01    3.0002406266511032E+00    1.0441945380304659E+01
C    1.1087402578985722E+01    5.0743602459648818E+00    9.3040093567143938E+00
C    1.2140960027760789E+01    5.2181192201535813E+00    1.0057888228447945E+01
C    1.0531391247290710E+01    3.8864120045889488E+00    9.0382005318872078E+00
C    1.7305939969728112E+01    2.0952560253103618E+00    1.1809435615116385E+01
C    1.3927252026814369E+01    3.8754520682199436E+00    1.1415348150440561E+01
C    1.8093365414286694E+01    3.0145749721502906E+00    1.1706066174788658E+01
C    1.6045141952178884E+01    3.9050653035534557E+00    1.1845635055730497E+01
C    1.2870167534323771E+01    1.9978031706502832E+00    1.1022805405331599E+01
C    1.7402966063726321E+01    4.2746186130630379E+00    1.1707435187299689E+01
C    1.9497709207053870E+01    3.0276688824239968E+00    1.1623847698785919E+01
C    1.7983855673206847E+01    5.3755399628482188E+00    1.1578514424353992E+01
C    1.6305526668310883E+01    1.6376511838529520E-01    1.1447098399611333E+01
C    7.0359341103113344E+00    7.8749698632552634E-01    1.2966125128622416E+01
C    1.4062828433135536E+01    1.7120597819113109E-01    1.1041526107225684E+01
C    6.8722504024004234E+00    1.7567461405818598E+00    1.3975478329624805E+01
C    5.7971328880138229E+00    2.5162092251264716E+00    1.3602701613186987E+01
C    1.2672387487187553E+01    4.1539958600984468E+00    1.0588998358889942E+01
C   -4.8937303360315436E+00    1.8407596245923930E+01    1.3267916550961582E+01
C    1.4668484987779694E+01    1.9158976996768546E+00    1.5222238159254566E+01
C    1.4759561128533830E+01    1.9279837076571511E+00    1.3899053615440682E+01
C    6.3765460356356387E+00    1.8210655745964981E+00    1.6267549936615552E+01
C   -4.7589315305424709E+00    1.8062462550389466E+01    1.4605708071330398E+01
C   -4.7454536631140654E+00    1.8964697626617806E+01    1.5629126120164871E+01
C    7.0521113896210412E+00    1.4215993083174141E+00    1.5230747412380277E+01
C    5.1891219807558784E+00    2.6473564691335638E+00    1.5981657436262429E+01
C    5.0189979263779945E+00    2.9123707494334781E+00    1.4614072713581564E+01
C    1.3824183529274954E+01    3.9131867150295543E+00    1.7654533188743521E+01
C    1.7933059652598743E+01    5.5004684928405565E+00    1.7460605970212285E+01
C    1.7197303973855096E+01    2.1125290583532386E+00    1.7261312270857193E+01
C    1.2751339577591747E+01    2.0522276651728224E+00    1.8032490203740476E+01
C    1.2051575266711522E+01    5.2835309568367448E+00    1.9059171767370128E+01
C    1.6055076603406764E+01    3.9871556657465801E+00    1.7248779535379185E+01
C    1.2124703209980598E+01    3.0690995305268887E+00    1.8676175793046756E+01
C    1.9445936300839566E+01    3.1076058089193319E+00    1.7475153428619326E+01
C    1.2525723937443873E+01    4.2872966354947089E+00    1.8434118576901003E+01
C    1.8113508211293595E+01    3.0202101733208564E+00    1.7386343855814619E+01
C    1.7435713872672935E+01    4.2501835372176533E+00    1.7356279214995560E+01
C    1.6152058677021014E+01    2.9172162377081928E-01    1.7722924300043118E+01
C    1.3989880874714974E+01    2.3111648589163608E-01    1.8084413234900371E+01
C    6.1111167615106972E+00    8.4402202094768630E-01    1.7270694351663032E+01
C   -5.4703415733024912E+00    1.8599668769034388E+01    1.6859335536254104E+01
C    3.7970250790129136E+00    1.6325244555606030E+01    2.0031878222929489E+01
C    2.6713192384372202E+00    1.3864231712365948E+01    2.0926825433716456E+01
C    4.0634463495116711E+00    1.3868531032389740E+01    2.0941356841661900E+01
C    4.6742708253005665E+00    1.0305932397772411E+01    2.1379964008854142E+01
C    4.1888037524263320E+00    1.1653078360001748E+01    2.1127353916325223E+01
C    2.4706362161927635E+00    1.6208829069722512E+01    2.0172209784444707E+01
C    4.7914254704624915E+00    1.2696992490688844E+01    2.0970644138197198E+01
C    1.7647394890982944E+00    1.7161441239122780E+01    1.9493842065145923E+01
C    4.4175763302737519E+00    1.7098657161644446E+01    1.9155989694113156E+01
C    4.7666853198487500E+00    1.0220194631346274E+01    7.7390554876270938E+00
C    4.9034061193383049E+00    1.2619233453471042E+01    8.1632895154218197E+00
C    4.2904642061695313E+00    1.1528605757404097E+01    8.0411745915554711E+00
C    2.7757532673723877E+00    1.3753022014705170E+01    8.2009852009327364E+00
C    4.1239188105771474E+00    1.3726524608387908E+01    8.1682838967045992E+00
C    1.8202166148957351E+00    1.7034076899426843E+01    9.7221155353533764E+00
C    2.5972228357206406E+00    1.6122561213337953E+01    8.9494299285781569E+00
C    3.9454703269729023E+00    1.6180996266596352E+01    9.1820080019786872E+00
C    4.4969101513105709E+00    1.7060884448002000E+01    9.9864896919778090E+00
C    2.3020610500808063E+00    1.7882030739945218E+01    1.0492440052532885E+01
C    3.6449012327302293E+00    1.7871141239351530E+01    1.0600060813054441E+01
C    5.7577756382730021E+00    1.0986282689148393E+01    1.2173978267037224E+01
C    5.6001744974389061E+00    8.7206987725054077E+00    1.1389881401502098E+01
C    5.1567911365944719E+00    1.0057385404982757E+01    1.1316170062336141E+01
C    6.6365150926022114E+00    8.4158719338937011E+00    1.2409504315421055E+01
C    6.2586710655534077E+00    7.2806644468123167E+00    1.2996828970612828E+01
C    4.8051988850441916E+00    1.1960307469197810E+01    1.2492923702504813E+01
C    7.1693545244189147E+00    9.4527158320314069E+00    1.3215798187307280E+01
C    6.7168411124089280E+00    1.0696441200179686E+01    1.3072225345552360E+01
C    3.8754652941065180E+00    1.0433936994739385E+01    1.1202386389753800E+01
C    2.4064233303425882E+00    1.1670802932267344E+01    1.2708539296293639E+01
C    3.5483792537076764E+00    1.1498302959351513E+01    1.1926555298882061E+01
C    3.5980060897362018E+00    1.2460066527110795E+01    1.4548136526680294E+01
C    4.7789249271602410E+00    1.2432347462219491E+01    1.3810387085486521E+01
C    6.7230277336185740E+00    1.1309705206065413E+01    1.4433368366648038E+01
C    2.4306976458137419E+00    1.2188353283538740E+01    1.4030643856279958E+01
C    7.0339716571470730E+00    7.9015465442293831E+00    1.5118290205529428E+01
C    7.0138703501641650E+00    1.0163036867887433E+01    1.5299942842962425E+01
C    6.5977340421588062E+00    7.8971978436126857E+00    1.6485876085422898E+01
C    5.7864559566529641E+00    1.2148214355854423E+01    1.4745915285523417E+01
C    7.3794781941035863E+00    9.1197387268212484E+00    1.4608257509924664E+01
C    3.8102933922233304E+00    1.2394954629057594E+01    1.5967749931940647E+01
C    6.4758346806748905E+00    6.9982382138176442E+00    1.4354365833259822E+01
C    5.5182501013319989E+00    1.1027228833885676E+01    1.7018269585970881E+01
C    3.6223426499878220E+00    1.8021520384653666E+01    1.8576683052114646E+01
C    2.9344631822661777E+00    1.1772633021787769E+01    1.6667398180708158E+01
C    2.2860325341393630E+00    1.8042240699152636E+01    1.8747047090901447E+01
C    5.2270932808591111E+00    1.2193160872650170E+01    1.6116138485549268E+01
C    6.6211627844865300E+00    1.0233660020468898E+01    1.6679401130797576E+01
C    4.6543246097580218E+00    1.0350015803996385E+01    1.7791153294938113E+01
C    5.0755026696246839E+00    9.1480506968744830E+00    1.7918179107974073E+01
C    6.2701632262115075E+00    9.0145992264158536E+00    1.7285180693837201E+01
H    6.4999340332825417E+00    4.3222190359703871E+00    2.0617668412128502E+01
H   -8.4440536982970482E-01    8.5383918108848338E+00    1.9228943543569031E+01
H    1.7720830858203629E+00    4.4923667043149873E+00    1.9096918859963363E+01
H   -7.6274757812549920E-01    8.4382187400970246E+00    9.8277142092172571E+00
H    1.8572823728069314E+00    4.3796560236208144E+00    9.9696786798650088E+00
H    6.5920476922444315E+00    4.2454919264563911E+00    8.4947396211065804E+00
H    1.0678897491337986E+00    1.2675136227710430E+01    2.0898938185471234E+01
H    1.1605155403342891E+00    1.2574322706261013E+01    8.2166277359066502E+00
H    8.6680469280764463E+00    8.4649635175206424E+00    2.0839627180391702E+01
H    1.0454850826308165E+01    2.0562618795441079E+00    1.9550120759529367E+01
H    8.7686315560802104E+00    8.3861497273386068E+00    8.2865908057534714E+00
H    1.0585860243350371E+01    1.9740863062291099E+00    9.5326466621790171E+00
H    1.2698746845185426E+01    6.1069796725701684E+00    1.0130290542518773E+01
H    2.0014646410901427E+01    2.1826320297566837E+00    1.1592860689433666E+01
H    1.7419622692875723E+01    6.2277300233408184E+00    1.1549484955778421E+01
H    1.7343367073779358E+01    6.3410344251693038E+00    1.7525186301698120E+01
H    1.9944389992387777E+01    2.2780782047725778E+00    1.7509109384693971E+01
H    1.2595334342399827E+01    6.1955445045241619E+00    1.8964831120271487E+01
H    5.8593676156586039E+00    1.2777619148122922E+01    2.0953926930765391E+01
H    6.7777453817980149E-01    1.7099065693147505E+01    1.9662699990465335E+01
H    5.4413570999741481E+00    1.7162151153369251E+01    1.9054625265898885E+01
H    5.9615558397198773E+00    1.2689837276278777E+01    8.2129924937309529E+00
H    5.5476392440038049E+00    1.7081757523232053E+01    1.0099161653948780E+01
H    7.5648915377750969E-01    1.7014108417104808E+01    9.4776071853137900E+00
N    3.8533649890497985E+00    5.8565429859429834E+00    2.0593241528193747E+01
N    2.5276520129311670E+00    7.6718371269881178E+00    2.1162297294110818E+01
N    4.8028283835228729E+00    7.7789994002427179E+00    2.1423088007121457E+01
N    4.9336020468992530E+00    7.6983794645723727E+00    7.7264546322969370E+00
N    2.6152669135886724E+00    7.6014762901820694E+00    7.9105305451604551E+00
N    3.9759931881491779E+00    5.7924978877899118E+00    8.4568777758263050E+00
N    1.3225389327765902E+00    9.7313690381003308E+00    2.0857988326923810E+01
N    3.6073975859851810E+00    9.6815984112924571E+00    2.1449079990485750E+01
N    3.6936529013678823E+00    9.6002710353197678E+00    7.5807861264091780E+00
N    1.4268271416504141E+00    9.6007928322185556E+00    8.2829912603930360E+00
N    1.6182122464891947E+01    2.6539414081776949E+00    1.1980433672999395E+01
N    1.3752334958635625E+01    2.5596178636703586E+00    1.1697965563250417E+01
N    1.5060542175630271E+01    6.4752226143981562E-01    1.1705861155490336E+01
N    1.4940444444457128E+01    4.5575799999927789E+00    1.1543022436995503E+01
N    1.7297717084967093E+01    8.2348837629668759E-01    1.1549771750197607E+01
N    1.2895858677983027E+01    6.3103503618503298E-01    1.0814260679781937E+01
N    1.3668228635006839E+01    2.7060759893569548E+00    1.7388168684958725E+01
N    1.4865185840447207E+01    6.9556797861110575E-01    1.7373516220775688E+01
N    1.6013814602383142E+01    2.7100996303941121E+00    1.7141053661944657E+01
N    1.2803011781423402E+01    6.4542210213558215E-01    1.8330600347563596E+01
N    1.7231448783945275E+01    8.8840952810380236E-01    1.7571203451301788E+01
N    1.4794058768091514E+01    4.5606865699455241E+00    1.7536524042090164E+01
N    5.8071486474841212E+00    9.7619265392365939E+00    2.1279464892005155E+01
N    5.9254037363143750E+00    9.6639111698010360E+00    7.8064517192184448E+00
S   -1.8931545082945338E+00    6.9133493767526835E+00    1.1691812912022710E+01
S   -2.5104305458030263E-01    4.1463210265828891E+00    1.1716988708711840E+01
S   -1.9956945879868544E+00    6.9953297186737711E+00    1.7365823695994994E+01
S   -3.1932545964640546E-01    4.2246071751192789E+00    1.7367907768152975E+01
S    9.0668136338251983E+00    3.8391294509058413E+00    2.1022790670720067E+01
S    1.0595336054575153E+01    6.3833020104550693E+00    2.0647483302190295E+01
S    9.1979876396678595E+00    3.8868697269900951E+00    8.0194825773548679E+00
S    1.0711119634228281E+01    6.3379138413895948E+00    8.4687890034201612E+00
S    1.7741142360256070E+00    1.5124196350997764E+01    2.1248897146221381E+01
S    4.9297691807712027E+00    1.5474549890281949E+01    2.0949941429580509E+01
S    1.9098487382702107E+00    1.4961776817360739E+01    7.9521660694990164E+00
S    5.0204644576834543E+00    1.5318860023563570E+01    8.2854287436382865E+00
H    3.6781483825440224E+00    8.1016554490285131E+00    3.3260297482809711E+00
H    3.4239309803185498E+00    8.2740997255991857E+00    2.5761773480781407E+01
     &END COORD
     &KIND H
       BASIS_SET DZVP-MOLOPT-GTH
       POTENTIAL GTH-PBE-q1
       &POTENTIAL
 1
  0.2000000000000000E+00 2 -0.4178900440000000E+01  0.7244633100000000E+00
 0
         # Potential name:  GTH-PBE-Q1  for symbol:  H
         # Potential read from the potential filename: POTENTIAL
       &END POTENTIAL
     &END KIND
     &KIND C
       BASIS_SET DZVP-MOLOPT-GTH
       POTENTIAL GTH-PBE-q4
       &POTENTIAL
 2 2
  0.3384712400000000E+00 2 -0.8803673979999999E+01  0.1339210850000000E+01
 2
  0.3025757500000000E+00 1  0.9622486650000001E+01
  0.2915069400000000E+00 0
         # Potential name:  GTH-PBE-Q4  for symbol:  C
         # Potential read from the potential filename: POTENTIAL
       &END POTENTIAL
     &END KIND
     &KIND N
       BASIS_SET DZVP-MOLOPT-GTH
       POTENTIAL GTH-PBE-q5
       &POTENTIAL
 2 3
  0.2837905100000000E+00 2 -0.1241522559000000E+02  0.1868095920000000E+01
 2
  0.2554050000000000E+00 1  0.1363026257000000E+02
  0.2454945300000000E+00 0
         # Potential name:  GTH-PBE-Q5  for symbol:  N
         # Potential read from the potential filename: POTENTIAL
       &END POTENTIAL
     &END KIND
     &KIND B
       BASIS_SET DZVP-MOLOPT-SR-GTH
       POTENTIAL GTH-PBE-q3
       &POTENTIAL
 2 1
  0.4189914500000000E+00 2 -0.5859461710000000E+01  0.9037564300000001E+00
 2
  0.3713204600000000E+00 1  0.6297280180000000E+01
  0.3645630800000000E+00 0
         # Potential name:  GTH-PBE-Q3  for symbol:  B
         # Potential read from the potential filename: POTENTIAL
       &END POTENTIAL
     &END KIND
     &KIND S
       BASIS_SET DZVP-MOLOPT-GTH
       POTENTIAL GTH-PBE-q6
       &POTENTIAL
 2 4
  0.4200000000000000E+00 1 -0.5986260380000000E+01
 2
  0.3648203500000000E+00 2  0.1314354448000000E+02 -0.4241830450000000E+01
  0.5476179570000000E+01
  0.4094804800000000E+00 1  0.3700890570000000E+01
         # Potential name:  GTH-PBE-Q6  for symbol:  S
         # Potential read from the potential filename: POTENTIAL
       &END POTENTIAL
     &END KIND
     &TOPOLOGY
       COORD_FILE_NAME cof.xyz
       COORD_FILE_FORMAT  XYZ
       NUMBER_OF_ATOMS  288
       MULTIPLE_UNIT_CELL  1 1 1
     &END TOPOLOGY
   &END SUBSYS
 &END FORCE_EVAL
