 # Version information for this restart file 
 # current date 2021-06-24 15:07:26.743
 # current working dir /panfs/panfs.cbls.ccr.buffalo.edu/scratch/grp-cyberwksp21/ub2053/cof/opt
 # Program compiled at                              Thu Apr 22 21:44:59 EDT 2021
 # Program compiled on                cpn-k07-07-02.compute.cbls.ccr.buffalo.edu
 # Program compiled for                                                    local
 # Source code revision number                                       git:36754bb
 &GLOBAL
   EXTENDED_FFT_LENGTHS  T
   PRINT_LEVEL  MEDIUM
   PROJECT_NAME COF
   RUN_TYPE  GEO_OPT
 &END GLOBAL
 &MOTION
   &GEO_OPT
     OPTIMIZER  BFGS
     MAX_ITER  550
     MAX_DR     2.0000000000000000E-03
     MAX_FORCE     2.9999999999999997E-04
     RMS_DR     2.0000000000000000E-03
     RMS_FORCE     2.9999999999999997E-04
     STEP_START_VAL  7
     &BFGS
     &END BFGS
   &END GEO_OPT
   &CELL_OPT
     OPTIMIZER  BFGS
     MAX_ITER  550
     MAX_DR     2.0000000000000000E-03
     MAX_FORCE     2.9999999999999997E-04
     RMS_DR     2.0000000000000000E-03
     RMS_FORCE     2.9999999999999997E-04
     TYPE  DIRECT_CELL_OPT
     EXTERNAL_PRESSURE     1.0000000000000000E+02    0.0000000000000000E+00    0.0000000000000000E+00    0.0000000000000000E+00 \
         1.0000000000000000E+02    0.0000000000000000E+00    0.0000000000000000E+00    0.0000000000000000E+00    1.0000000000000000E+02
     KEEP_SYMMETRY  F
     PRESSURE_TOLERANCE     1.0000000000000000E+02
   &END CELL_OPT
   &PRINT
     &TRAJECTORY  SILENT
       &EACH
         GEO_OPT  1
       &END EACH
     &END TRAJECTORY
     &FORCES  ON
     &END FORCES
     &RESTART  SILENT
       BACKUP_COPIES  1
       &EACH
         GEO_OPT  1
       &END EACH
     &END RESTART
   &END PRINT
 &END MOTION
 &FORCE_EVAL
   METHOD  QS
   STRESS_TENSOR  NONE
   &DFT
     BASIS_SET_FILE_NAME BASIS_MOLOPT
     POTENTIAL_FILE_NAME POTENTIAL
     MULTIPLICITY  1
     &SCF
       MAX_SCF  50
       EPS_SCF     9.9999999999999995E-07
       SCF_GUESS  ATOMIC
       ADDED_MOS  50
       &DIAGONALIZATION  T
         ALGORITHM  DAVIDSON
       &END DIAGONALIZATION
       &SMEAR  T
         METHOD  FERMI_DIRAC
       &END SMEAR
       &MIXING  T
         METHOD  BROYDEN_MIXING
         ALPHA     2.9999999999999999E-01
         NBUFFER  8
       &END MIXING
     &END SCF
     &QS
       EPS_DEFAULT     1.0000000000000000E-14
       METHOD  GPW
     &END QS
     &MGRID
       NGRIDS  6
       CUTOFF     1.0000000000000000E+03
       REL_CUTOFF     6.0000000000000000E+01
     &END MGRID
     &XC
       DENSITY_CUTOFF     1.0000000000000000E-10
       GRADIENT_CUTOFF     1.0000000000000000E-10
       TAU_CUTOFF     1.0000000000000000E-10
       &XC_GRID
         XC_DERIV  SPLINE2_SMOOTH
       &END XC_GRID
       &XC_FUNCTIONAL  NO_SHORTCUT
         &PBE  T
         &END PBE
       &END XC_FUNCTIONAL
       &VDW_POTENTIAL
         POTENTIAL_TYPE  PAIR_POTENTIAL
         &PAIR_POTENTIAL
           TYPE  DFTD3
           PARAMETER_FILE_NAME dftd3.dat
           REFERENCE_FUNCTIONAL PBE
         &END PAIR_POTENTIAL
       &END VDW_POTENTIAL
     &END XC
     &POISSON
       POISSON_SOLVER  PERIODIC
       PERIODIC  XYZ
     &END POISSON
     &PRINT
       &MO_CUBES  SILENT
         WRITE_CUBE  F
         NLUMO  3
         NHOMO  3
       &END MO_CUBES
       &PDOS  SILENT
         COMPONENTS  T
         APPEND  T
         NLUMO  -1
       &END PDOS
       &MULLIKEN  OFF
       &END MULLIKEN
       &HIRSHFELD  OFF
       &END HIRSHFELD
     &END PRINT
   &END DFT
   &SUBSYS
     &CELL
       A     2.3015039999999999E+01    0.0000000000000000E+00    0.0000000000000000E+00
       B    -1.2316407365200799E+01    2.0115804794661500E+01    0.0000000000000000E+00
       C    -3.6364993523501205E-01    2.6423684160043998E-01    3.8841378964405301E+01
       PERIODIC  XYZ
       MULTIPLE_UNIT_CELL  1 1 1
     &END CELL
     &COORD
B    4.0154910871909051E+00    8.8751006868183531E+00    2.2409338185052828E+01
B    4.1249151168274336E+00    8.7807072134307393E+00    7.1600082955014415E+00
B    1.5702386115444090E+01    2.0275912378253591E+00    1.2649450448020591E+01
B    1.5623025930441683E+01    2.1015659185509552E+00    1.6941913519545164E+01
C    3.0529708440937049E+00    6.9818265988455934E+00    2.1041935417599447E+01
C    1.8479199574678367E+00    6.7795803435391404E+00    2.0255733466447605E+01
C    6.7414177574366398E+00    6.7604634315362135E+00    2.1158712109976122E+01
C    5.3246140839132794E+00    7.0029812025637677E+00    2.1368612762615449E+01
C   -6.0819700025254594E-02    8.1520187575408798E+00    1.9537152463327413E+01
C    1.0965094840762113E+00    8.0019635105916596E+00    2.0301858134017525E+01
C    7.4542758403255309E+00    5.5765428404444082E+00    2.1014124955226109E+01
C    1.8490387029558790E+00    8.9435683476294461E+00    2.1115167124802575E+01
C    1.4312072326161462E+00    5.7193727864428610E+00    1.9449520242851232E+01
C    4.0722696486970582E+00    8.6281477176059003E+00    4.3801868200850311E+00
C    3.9155924890336946E+00    8.7881887127243008E+00    2.3972173797022570E+01
C    4.0650200357291286E+00    8.6753727557345695E+00    5.5961624345166818E+00
C    3.8699872856655930E+00    8.7708075338284157E+00    2.5188132384999886E+01
C    5.4256135319246876E+00    6.9123180403372348E+00    8.2158618357605420E+00
C    1.1899257269078813E+00    7.9018104086196121E+00    9.2435772629418551E+00
C    1.9406803771367611E+00    6.6796528175714176E+00    9.2904702419081353E+00
C    1.5200809364404553E+00    5.6176831997116112E+00    1.0091835418573645E+01
C    3.1133537842666519E-02    8.0516782941883029E+00    1.0006493541206600E+01
C   -3.7124281325345526E-01    6.9934272326863640E+00    1.0827589826196473E+01
C    3.6700034268776804E-01    5.7802064766641834E+00    1.0865627673132694E+01
C    3.1508513099762343E+00    6.8843506345336101E+00    8.5132070279581704E+00
C    1.9453812413881804E+00    8.8445309636031801E+00    8.4355046212083362E+00
C    7.5590311748329668E+00    5.4866755065329267E+00    8.5562088507254366E+00
C    6.8430485239350487E+00    6.6705380453360563E+00    8.4253636761738644E+00
C   -2.5772998196747938E+00    5.6937567784862955E+00    1.1815885981075633E+01
C   -1.0651681248382149E+01    1.9927440349654368E+01    1.2607668906597256E+01
C    4.1895714177293399E+00    1.2087951885862486E-01    1.1314363959201552E+01
C    3.4798804308294300E+00    1.2488233288668729E+00    1.1741223629506131E+01
C   -1.8461044915795033E+00    4.4772554420092172E+00    1.1835887227248394E+01
C   -1.1291549971747937E+01    1.9601432507849267E+01    1.3872415929423699E+01
C    4.1818385801578737E+00    2.3473229778491116E+00    1.2383622145022674E+01
C   -1.0100924940838251E+01    1.7707699947906168E+01    1.3151839520033631E+01
C   -6.3494093234292359E+00    1.8791388133703329E+01    1.1845620347047738E+01
C    2.1027664466137503E+00    2.0890546522136888E+00    1.3453447053451173E+01
C    3.3293214541963749E+00    2.8652856919161702E+00    1.3442280410978201E+01
C   -7.5781122056840111E+00    1.8015121972169961E+01    1.1856226568132788E+01
C   -8.6770847503906179E+00    1.8907916651872544E+01    1.1526213773008767E+01
C   -9.9142448155373000E+00    1.8756512719051493E+01    1.2162502678282348E+01
C   -7.7581045525168193E+00    1.7005744775540062E+01    1.2809014136439602E+01
C    2.1949072989434191E+00    1.0896213454133910E+00    1.2402702523899659E+01
C    6.3029440824243839E+00    1.1069521814078374E+00    1.2129019957964321E+01
C   -6.6882305526317420E+00    2.0164772314586852E+01    1.1509419031275526E+01
C    5.5663695715185666E+00    2.2779467194904237E+00    1.2573945284044482E+01
C   -5.3493680352382356E+00    1.8528655746007718E+01    1.2789156367489335E+01
C   -9.0432516690905125E+00    1.6849780133154145E+01    1.3468063286965700E+01
C    4.2913086994790808E+00    2.7005832211615868E+00    1.6890347565557800E+01
C   -4.9525880842458774E+00    1.7931532927379191E+01    1.5029705483748867E+01
C    3.5734662329803282E+00    6.5430495237331954E+00    1.5535083509980318E+01
C    3.2508443648580085E+00    2.9702632876611621E+00    1.5911725984362207E+01
C   -1.0713977646913497E+01    1.7873727518922475E+01    1.5539992772582840E+01
C   -1.0809870167154175E+01    1.8874291718127171E+01    1.6589875772364465E+01
C    2.0691890736234533E+00    2.2252598300054123E+00    1.5921484816519625E+01
C    1.4841553299608907E+00    1.7761519625771289E+00    1.4668834758033833E+01
C   -5.5371119490733598E+00    1.7480301062921082E+01    1.3777734688417949E+01
C    4.8196175262275140E+00    6.3678970590469293E+00    1.4807148413138162E+01
C   -9.6171059656783520E+00    1.6981340694741483E+01    1.5868694102863463E+01
C   -1.1136914822184096E+01    2.0194600397391024E+01    1.6267101140888137E+01
C   -1.0952313993840093E+01    1.8229992186917737E+01    1.4207570644904918E+01
C    6.0309847287979581E+00    6.7600574770481012E+00    1.5385306853323113E+01
C    9.3490934709704143E-01    4.4990438424865964E-01    1.4881652235302239E+01
C    1.8811212369959522E+00    1.1767182412765138E+00    1.6909608095944467E+01
C   -8.7975554063376027E+00    1.6480176779469623E+01    1.4852571984545763E+01
C   -6.7184288814406523E+00    1.6733765837703007E+01    1.3787359300832783E+01
C   -7.3612185500511877E+00    1.6408302789171138E+01    1.5049614049479324E+01
C   -6.7970559160191426E+00    1.6839812821135379E+01    1.6254966908144219E+01
C   -5.5698728653446601E+00    1.7615630081692313E+01    1.6244780224828762E+01
C    3.8932033237714263E+00    3.2898579499813376E+00    1.4648834666425733E+01
C   -7.6564193150490354E+00    1.9586014532172697E+01    1.8385229655268297E+01
C    2.8812788885428522E+00    9.1519093408178642E-01    1.7853461248592104E+01
C   -5.6621962271452428E+00    1.8616129052521753E+01    1.7296008396296756E+01
C   -7.6487379642053295E+00    1.7360596093660352E+01    1.7312119178386077E+01
C   -4.6145300142020196E-01    7.0942799910308540E+00    1.8715376609495607E+01
C   -2.6723341360375117E+00    5.7907946026060184E+00    1.7742172774417984E+01
C   -1.9383108816777943E+00    4.5759445506565886E+00    1.7725030657684240E+01
C   -9.0949967190245520E+00    1.9658100305952107E+01    1.8187310918107627E+01
C    2.7830433193699955E-01    5.8819071232657363E+00    1.8675353011646163E+01
C    4.1101133690221481E+00    1.6930009129737909E+00    1.7844653960761377E+01
C    5.2093670699013774E+00    7.9927113395000571E-01    1.8172071002532622E+01
C   -6.9471237684354845E+00    1.8458133157884749E+01    1.7956999469340573E+01
C   -9.7699362390517592E+00    1.8600330065204933E+01    1.7568349972611529E+01
C   -9.0328696276777034E+00    1.7429616063504973E+01    1.7122891917435968E+01
C    2.6147125912696465E+00    1.3501641584840971E+01    2.1248865504465055E+01
C    2.9145621612069625E+00    1.0939751924238895E+01    2.1505703233752591E+01
C    3.3399241901139813E+00    1.2320581011876376E+01    2.1353011731745422E+01
C    3.0090043877902204E+00    1.0844021738578917E+01    8.0565341210161829E+00
C    3.4311458466507685E+00    1.2222755492308828E+01    8.2317881824934034E+00
C    2.7044740786995587E+00    1.3401761457390402E+01    8.3490496304997794E+00
C    2.7698329678619689E+00    7.9702276019691833E+00    1.2358513242014203E+01
C    2.1275819631842054E+00    1.0222433650804534E+01    1.2155747636947183E+01
C    5.1218061972334032E+00    8.3137274999841217E+00    1.1681324759274222E+01
C    1.8981601811025235E+00    1.1402660450461036E+01    1.2869409015076904E+01
C    1.7542892278327660E+00    8.9407645319717872E+00    1.2730075960998827E+01
C    3.1558798086204480E+00    6.9780957293367267E+00    1.3264015574968004E+01
C    5.5257741123257187E+00    7.2853527658853823E+00    1.2625991764654211E+01
C    3.7695506186521626E+00    8.6500547930433473E+00    1.1552959507246031E+01
C    3.3733849744634976E+00    1.0042611903312332E+01    1.1429300866013357E+01
C    4.5615591707806331E+00    6.6335092689528059E+00    1.3402521137157290E+01
C    1.1621170911999590E+00    8.8843691534734699E+00    1.3996005452448735E+01
C    1.2872406406287029E+00    1.1346285357853258E+01    1.4187677742332651E+01
C    1.9195030006041036E+00    1.2358103896413272E+01    1.5018051369464699E+01
C    6.0465080202368000E+00    7.3464861037324516E+00    1.6715325003336506E+01
C    1.5664526984578111E+00    7.8554869587269671E+00    1.4940140900249112E+01
C    9.2637861155745882E-01    1.0111851383196324E+01    1.4740017141483095E+01
C    2.5437469970582081E+00    6.9204184821398158E+00    1.4581253822048700E+01
C    1.1859808761770168E+00    9.8418329677053702E+00    1.6144658582204361E+01
C    1.5848017080168737E+00    8.4486217046841254E+00    1.6265968676341480E+01
C    3.5886289775399369E+00    7.1101830958396635E+00    1.6813123888119581E+01
C    3.2081725976027533E+00    9.0957230980232868E+00    1.8011100983119260E+01
C    2.1680027379084983E+00    1.2098570906548650E+01    1.6370401033632579E+01
C    2.8254129477771484E+00    1.0435057609333422E+01    1.7894726067185484E+01
C    1.7944462517248863E+00    1.0816331871090593E+01    1.6944203479281594E+01
C    4.8476355284988282E+00    7.5189798946990205E+00    1.7415314648156528E+01
C    2.5778658168932385E+00    8.0854651906627506E+00    1.7180183131991260E+01
C    4.6113942267353289E+00    8.7463527403995531E+00    1.8157915421058263E+01
C    3.8328907154469718E+00    1.1480623364883126E+01    1.7913095170543130E+01
C    8.8086023920478258E+00    8.0855498819418639E+00    2.1141738798464381E+01
C    9.5272334589583529E+00    6.8839201464591557E+00    2.1062242218711294E+01
C    7.4212739296003161E+00    8.0207544460252365E+00    2.1282998714173964E+01
C    1.1108773757321945E+01    4.2887736942266432E+00    2.0342223785105499E+01
C    6.4111888346802814E+00    9.0194135440673850E+00    2.1620533278696193E+01
C    1.1575947339487493E+01    3.1318034502334733E+00    1.9721068968114903E+01
C    8.8493152619706397E+00    5.6373876151094553E+00    2.1070339363718812E+01
C    1.1787587333637624E+01    5.5279207704855287E+00    2.0191242387995665E+01
C    6.5099500336912310E+00    8.9315969836331472E+00    7.9760931008609806E+00
C    8.9086119359149176E+00    7.9995485252544922E+00    8.4440123965742657E+00
C    7.5210667773477891E+00    7.9329061958464262E+00    8.3086256508282830E+00
C    9.6292466439051623E+00    6.7984616598233218E+00    8.5073596572771280E+00
C    8.9535961821346390E+00    5.5510139629405764E+00    8.4918097758460700E+00
C    1.1676214450919984E+01    3.0494399121127449E+00    9.8376062441938483E+00
C    1.2827677121935382E+01    3.1355041417694465E+00    1.0608892395010857E+01
C    1.1891440898544001E+01    5.4447814786145479E+00    9.3646555776181497E+00
C    1.3033460202883866E+01    5.5383534430448433E+00    1.0171290144853844E+01
C    1.1213456770152671E+01    4.2057029383965761E+00    9.2118357443083809E+00
C    1.8149363985461239E+01    2.1541299456339340E+00    1.2039563702002043E+01
C    1.4713667291888711E+01    4.0966080583935049E+00    1.1566437464417133E+01
C    1.9116325600644778E+01    3.2374057080039345E+00    1.1932269065432060E+01
C    1.6963486704319546E+01    4.1250538745517451E+00    1.2025883341826825E+01
C    1.3616746491200683E+01    2.1040521762602942E+00    1.1243600808095877E+01
C    1.8375782278900644E+01    4.4691272455273614E+00    1.1921674949952120E+01
C    2.0506784555124646E+01    3.2437861692154595E+00    1.1838785519797373E+01
C    1.9037665057199320E+01    5.6902433467787947E+00    1.1808447012783871E+01
C    1.7070740676092846E+01    1.8225864870337544E-01    1.1577116617308111E+01
C    7.3429066455912642E+00    8.3265088282310928E-01    1.3108513277974359E+01
C    1.4799049831402709E+01    1.4517509420634800E-01    1.1241425986681401E+01
C    7.2485202586169244E+00    1.8328351465187966E+00    1.4158338657823801E+01
C    6.1503173557031809E+00    2.7236479990972371E+00    1.3829411836158078E+01
C    1.3511407948077908E+01    4.3817001416719448E+00    1.0792531480570089E+01
C   -4.6487536267728196E+00    1.9627590177950111E+01    1.3431335451292670E+01
C    1.5461747428371556E+01    1.9669835495888870E+00    1.5404189967733972E+01
C    1.5499190489764489E+01    1.9324630320271783E+00    1.4185048845367202E+01
C    6.6343541730382531E+00    1.9991221753084507E+00    1.6548103438219652E+01
C   -4.4033658734016230E+00    1.9257861211218223E+01    1.4815826435637875E+01
C   -4.4926540911593014E+00    2.0220730334513807E+01    1.5826238015580611E+01
C    7.4849139451142364E+00    1.4758132588479203E+00    1.5491274770172611E+01
C    5.5767014301128510E+00    2.8562610564663586E+00    1.6230733914995159E+01
C    5.3287658519605383E+00    3.2196582745010192E+00    1.4845170187361408E+01
C    1.4618006388493388E+01    4.1775946038434872E+00    1.7999390548723664E+01
C    1.8942339211331479E+01    5.7832975280456109E+00    1.7756810733979563E+01
C    1.8063064626992450E+01    2.2418951366606135E+00    1.7564464800972416E+01
C    1.3524140168046749E+01    2.1842503417237640E+00    1.8327958180804785E+01
C    1.2931769379022260E+01    5.6206905437208530E+00    1.9387280227939819E+01
C    1.6871296240465803E+01    4.2099815713926878E+00    1.7557103184112378E+01
C    1.2730389149243125E+01    3.2171432568077702E+00    1.8954047918240040E+01
C    2.0417869278172493E+01    3.3408300362397516E+00    1.7740080088804326E+01
C    1.3412707469541177E+01    4.4635284661732202E+00    1.8768429663509650E+01
C    1.9027028415885553E+01    3.3293404126168902E+00    1.7657490482799094E+01
C    1.8283010827919085E+01    4.5593086652940302E+00    1.7657939506861936E+01
C    1.6987837137683986E+01    2.7126958952381025E-01    1.8039656914845995E+01
C    1.4713828519418925E+01    2.2997540940578293E-01    1.8361129409950752E+01
C    6.4477304287853530E+00    9.5016818775832301E-01    1.7537440179854279E+01
C   -5.1332525931852340E+00    1.9894553013964234E+01    1.7090946997409695E+01
C    4.5682636748684002E+00    1.7334589181538874E+01    2.0331527281439634E+01
C    3.3140706752584412E+00    1.4710751609223410E+01    2.1293705214615329E+01
C    4.7323048956893539E+00    1.4735954102144888E+01    2.1252419179410190E+01
C    5.2131694706361174E+00    1.0975031980291995E+01    2.1685853787838838E+01
C    4.7758446622125224E+00    1.2342489725515701E+01    2.1433361524750570E+01
C    3.1567672440199450E+00    1.7309497941817018E+01    2.0492413378273998E+01
C    5.4690016771178236E+00    1.3544826862206893E+01    2.1295632058635185E+01
C    2.3412105105804328E+00    1.8229768991227406E+01    1.9835043168390722E+01
C    5.1749057782096219E+00    1.8274294142524209E+01    1.9489343118765735E+01
C    5.3082315501174424E+00    1.0883192130291667E+01    7.8994857828827811E+00
C    5.5589677620422409E+00    1.3447088252237336E+01    8.3243354615579133E+00
C    4.8674847614086199E+00    1.2246396216032796E+01    8.1656936611998674E+00
C    3.4034095395571029E+00    1.4611868617865671E+01    8.3227579189775192E+00
C    4.8213799272709137E+00    1.4637209644475490E+01    8.3729044988637185E+00
C    2.4295489975957372E+00    1.8137166119033765E+01    9.7797774863596167E+00
C    3.2461560203182915E+00    1.7211845679065526E+01    9.1312095172851286E+00
C    4.6571417183161117E+00    1.7235633814133948E+01    9.2981590998385766E+00
C    5.2615761894561652E+00    1.8177945662668513E+01    1.0139182043380844E+01
C    3.0318120863277374E+00    1.9093707121225481E+01    1.0588008928749916E+01
C    4.4513610916753503E+00    1.9116261781502025E+01    1.0782276546490658E+01
C    6.3790494595716005E+00    1.1714457952129125E+01    1.2409709752475326E+01
C    6.1301959342447114E+00    9.3608640512451196E+00    1.1696749044599951E+01
C    5.7478655357637090E+00    1.0701859725054549E+01    1.1580336798671990E+01
C    7.1575785778343590E+00    8.9792343629644389E+00    1.2652058499668854E+01
C    6.7845248308024635E+00    7.6966526077181845E+00    1.3226350738586078E+01
C    5.3642715092520312E+00    1.2687206241423560E+01    1.2783360399035287E+01
C    7.7642322103891486E+00    9.9534047485641626E+00    1.3452822588065445E+01
C    7.3669741016727093E+00    1.1346258130528632E+01    1.3329497013926094E+01
C    4.3434297109646902E+00    1.1049351814739962E+01    1.1441442060098941E+01
C    2.9074655779867205E+00    1.2449275589157045E+01    1.2884518041245844E+01
C    4.1060161916163036E+00    1.2277009357640182E+01    1.2183187587883294E+01
C    4.1321887379242765E+00    1.3435041765090583E+01    1.4790720121316534E+01
C    5.3769078386466500E+00    1.3254962822961373E+01    1.4062248745469157E+01
C    7.3804244183786576E+00    1.1937027872500778E+01    1.4657583042191236E+01
C    2.9208780692087184E+00    1.3038856915959387E+01    1.4212880698877292E+01
C    7.6632829771408248E+00    8.4498810138643314E+00    1.5411291795020615E+01
C    7.7850335575410341E+00    1.0909581861155077E+01    1.5602342931485440E+01
C    7.0549819678528687E+00    8.3936300957437417E+00    1.6730950723732938E+01
C    6.4045130617501798E+00    1.2873013266452373E+01    1.5016960817933136E+01
C    8.0217344178669503E+00    9.6836148764517223E+00    1.4857808409186488E+01
C    4.3901633589306783E+00    1.3165025918503831E+01    1.6195608628157068E+01
C    7.0318368591291414E+00    7.4383609662249981E+00    1.4579733543273932E+01
C    6.1851197151397015E+00    1.1828721306600809E+01    1.7245332770985925E+01
C    4.3662911782319487E+00    1.9208879518805301E+01    1.8839116162637801E+01
C    3.4272045966190179E+00    1.2510171852395249E+01    1.6970803338693077E+01
C    2.9454893300730869E+00    1.9184145937651390E+01    1.9025687013465738E+01
C    5.7951132068626841E+00    1.2817640453180610E+01    1.6335322742914261E+01
C    7.1996875449329076E+00    1.0856212283238596E+01    1.6872028828150292E+01
C    5.1849136503563802E+00    1.1146710652026810E+01    1.8048888334874611E+01
C    5.5818365307158109E+00    9.7540184570291704E+00    1.8174412392947193E+01
C    6.8277613341442782E+00    9.5740036238389266E+00    1.7447308098855082E+01
H    6.9386460186617338E+00    4.6180689933561947E+00    2.0965798670263307E+01
H   -6.2591343782146713E-01    9.0834332845949195E+00    1.9561624715921642E+01
H    2.0032924271881201E+00    4.7924135116134376E+00    1.9408873333729041E+01
H   -5.3340320350497250E-01    8.9834268979943737E+00    9.9814542417961292E+00
H    2.0918009246784122E+00    4.6905536655072595E+00    1.0132136111180735E+01
H    7.0463245803731374E+00    4.5264266747229431E+00    8.5995638004923940E+00
H    1.5256673765644047E+00    1.3486984861893610E+01    2.1219851462854059E+01
H    1.6152226303767552E+00    1.3386187635964973E+01    8.3719400109713629E+00
H    9.3276600216544878E+00    9.0441130583246121E+00    2.1171956191973987E+01
H    1.1055262751518226E+01    2.1817234929321674E+00    1.9839033283522692E+01
H    9.4254400970729257E+00    8.9594344856202390E+00    8.4210152068026822E+00
H    1.1154364435051654E+01    2.0999841351134658E+00    9.7199582911426425E+00
H    1.3548923880879929E+01    6.4902428434142916E+00    1.0298641827597578E+01
H    2.1066573699700101E+01    2.3088230839291364E+00    1.1810289838226701E+01
H    1.8477367267087384E+01    6.6237509141144510E+00    1.1755740023347238E+01
H    1.8379228583888356E+01    6.7155416035495055E+00    1.7803470346347559E+01
H    2.0980770758862715E+01    2.4079506610518369E+00    1.7771879314168118E+01
H    1.3447537474071066E+01    6.5726642010234357E+00    1.9261310255116975E+01
H    6.5591466096774038E+00    1.3562297710714519E+01    2.1282714748316792E+01
H    1.2588657514699007E+00    1.8212226442854242E+01    1.9962151325554558E+01
H    6.2569627251946445E+00    1.8289783163885389E+01    1.9359659383775135E+01
H    6.6489518678051462E+00    1.3464813517261701E+01    8.3464694468662088E+00
H    6.3431913281726411E+00    1.8193059907736597E+01    1.0273000997506967E+01
H    1.3479555167480564E+00    1.8122420158431293E+01    9.6464069203392739E+00
N    4.2235009724150130E+00    6.3113282334220653E+00    2.1023705920902604E+01
N    2.9075956280852240E+00    8.2221390224601976E+00    2.1615382479600228E+01
N    5.2629955805839126E+00    8.2933084522095566E+00    2.1811330270965914E+01
N    5.3632019485740177E+00    8.2055913120645787E+00    7.7835039399372121E+00
N    3.0077428803758925E+00    8.1255147170802715E+00    7.9394137469239654E+00
N    4.3223020836892800E+00    6.2162181669148477E+00    8.5443618173940212E+00
N    1.7843478473574601E+00    1.0289699480375671E+01    2.1169364754829747E+01
N    4.0503841159103038E+00    1.0273397137799998E+01    2.1867861229872947E+01
N    4.1479836078923089E+00    1.0182703509157621E+01    7.6937198059884029E+00
N    1.8787090521867114E+00    1.0190806513974577E+01    8.3850627418806720E+00
N    1.6949789391167993E+01    2.7758421981886992E+00    1.2258077111485482E+01
N    1.4623804670215934E+01    2.7636538636005543E+00    1.1893887845991042E+01
N    1.5848451422049228E+01    7.2120009891684045E-01    1.1907041598377367E+01
N    1.5844463307980448E+01    4.8123792274436843E+00    1.1727437104257216E+01
N    1.8232927728143775E+01    8.4331405859309749E-01    1.1745157312239632E+01
N    1.3641440233529002E+01    7.8308406477159387E-01    1.0995324710351706E+01
N    1.4531510941743704E+01    2.8425478222754461E+00    1.7674898450573679E+01
N    1.5766399383209038E+01    8.0532347928729808E-01    1.7701680698165656E+01
N    1.6862449692755636E+01    2.8587812749974333E+00    1.7339942344558263E+01
N    1.3551816782524144E+01    8.6622457378268558E-01    1.8590746360197166E+01
N    1.8149452196390477E+01    9.3377416513553901E-01    1.7870176818339242E+01
N    1.5747978733064860E+01    4.8958537851855723E+00    1.7842763758156842E+01
N    6.4157332834575973E+00    1.0367233580596482E+01    2.1620124279716130E+01
N    6.5115607636152948E+00    1.0279068397221435E+01    7.9763935525280649E+00
S   -1.7487401549849750E+00    7.2528763031199128E+00    1.1903616834094558E+01
S   -8.3457731563270549E-02    4.4765249733477477E+00    1.1970021943862246E+01
S   -1.8453030806262227E+00    7.3505360651154836E+00    1.7645080829938841E+01
S   -1.7666269844597318E-01    4.5778042065092599E+00    1.7572640910567713E+01
S    9.6964881620732122E+00    4.1254589050687089E+00    2.1375780058241713E+01
S    1.1293303137842729E+01    6.9623049826065015E+00    2.1104383324361912E+01
S    9.8055635372151038E+00    4.0445585324442206E+00    8.1714660449809777E+00
S    1.1394847449117687E+01    6.8792241973429569E+00    8.4537218572454602E+00
S    2.3764415852140899E+00    1.6172664268942135E+01    2.1585336826139528E+01
S    5.6156817626511328E+00    1.6265665041884724E+01    2.1274903106682387E+01
S    2.4660785437642900E+00    1.6074805473567402E+01    8.0385401853418159E+00
S    5.7074282212840428E+00    1.6165265212205885E+01    8.3602839832124083E+00
H    4.0712622716549474E+00    8.5802019847215565E+00    3.3083347428176442E+00
H    3.8222649228831291E+00    8.7492462495406986E+00    2.6259727022576687E+01
     &END COORD
     &KIND H
       BASIS_SET DZVP-MOLOPT-GTH
       POTENTIAL GTH-PBE-q1
       &POTENTIAL
 1
  0.2000000000000000E+00 2 -0.4178900440000000E+01  0.7244633100000000E+00
 0
         # Potential name:  GTH-PBE-Q1  for symbol:  H
         # Potential read from the potential filename: POTENTIAL
       &END POTENTIAL
     &END KIND
     &KIND C
       BASIS_SET DZVP-MOLOPT-GTH
       POTENTIAL GTH-PBE-q4
       &POTENTIAL
 2 2
  0.3384712400000000E+00 2 -0.8803673979999999E+01  0.1339210850000000E+01
 2
  0.3025757500000000E+00 1  0.9622486650000001E+01
  0.2915069400000000E+00 0
         # Potential name:  GTH-PBE-Q4  for symbol:  C
         # Potential read from the potential filename: POTENTIAL
       &END POTENTIAL
     &END KIND
     &KIND N
       BASIS_SET DZVP-MOLOPT-GTH
       POTENTIAL GTH-PBE-q5
       &POTENTIAL
 2 3
  0.2837905100000000E+00 2 -0.1241522559000000E+02  0.1868095920000000E+01
 2
  0.2554050000000000E+00 1  0.1363026257000000E+02
  0.2454945300000000E+00 0
         # Potential name:  GTH-PBE-Q5  for symbol:  N
         # Potential read from the potential filename: POTENTIAL
       &END POTENTIAL
     &END KIND
     &KIND B
       BASIS_SET DZVP-MOLOPT-SR-GTH
       POTENTIAL GTH-PBE-q3
       &POTENTIAL
 2 1
  0.4189914500000000E+00 2 -0.5859461710000000E+01  0.9037564300000001E+00
 2
  0.3713204600000000E+00 1  0.6297280180000000E+01
  0.3645630800000000E+00 0
         # Potential name:  GTH-PBE-Q3  for symbol:  B
         # Potential read from the potential filename: POTENTIAL
       &END POTENTIAL
     &END KIND
     &KIND S
       BASIS_SET DZVP-MOLOPT-GTH
       POTENTIAL GTH-PBE-q6
       &POTENTIAL
 2 4
  0.4200000000000000E+00 1 -0.5986260380000000E+01
 2
  0.3648203500000000E+00 2  0.1314354448000000E+02 -0.4241830450000000E+01
  0.5476179570000000E+01
  0.4094804800000000E+00 1  0.3700890570000000E+01
         # Potential name:  GTH-PBE-Q6  for symbol:  S
         # Potential read from the potential filename: POTENTIAL
       &END POTENTIAL
     &END KIND
     &TOPOLOGY
       COORD_FILE_NAME cof.xyz
       COORD_FILE_FORMAT  XYZ
       NUMBER_OF_ATOMS  288
       MULTIPLE_UNIT_CELL  1 1 1
     &END TOPOLOGY
   &END SUBSYS
 &END FORCE_EVAL
