 # Version information for this restart file 
 # current date 2021-06-23 03:29:10.574
 # current working dir /panfs/panfs.cbls.ccr.buffalo.edu/scratch/grp-cyberwksp21/ub2053/cof/opt
 # Program compiled at                              Thu Apr 22 21:44:59 EDT 2021
 # Program compiled on                cpn-k07-07-02.compute.cbls.ccr.buffalo.edu
 # Program compiled for                                                    local
 # Source code revision number                                       git:36754bb
 &GLOBAL
   EXTENDED_FFT_LENGTHS  T
   PRINT_LEVEL  MEDIUM
   PROJECT_NAME COF
   RUN_TYPE  CELL_OPT
 &END GLOBAL
 &MOTION
   &GEO_OPT
     OPTIMIZER  BFGS
     MAX_ITER  550
     MAX_DR     2.0000000000000000E-03
     MAX_FORCE     2.9999999999999997E-04
     RMS_DR     2.0000000000000000E-03
     RMS_FORCE     2.9999999999999997E-04
     &BFGS
     &END BFGS
   &END GEO_OPT
   &CELL_OPT
     OPTIMIZER  BFGS
     MAX_ITER  550
     MAX_DR     2.0000000000000000E-03
     MAX_FORCE     2.9999999999999997E-04
     RMS_DR     2.0000000000000000E-03
     RMS_FORCE     2.9999999999999997E-04
     STEP_START_VAL  3
     TYPE  DIRECT_CELL_OPT
     EXTERNAL_PRESSURE     1.0000000000000000E+02    0.0000000000000000E+00    0.0000000000000000E+00    0.0000000000000000E+00 \
         1.0000000000000000E+02    0.0000000000000000E+00    0.0000000000000000E+00    0.0000000000000000E+00    1.0000000000000000E+02
     KEEP_SYMMETRY  F
     PRESSURE_TOLERANCE     1.0000000000000000E+02
   &END CELL_OPT
   &PRINT
     &TRAJECTORY  SILENT
       &EACH
         GEO_OPT  1
       &END EACH
     &END TRAJECTORY
     &FORCES  ON
     &END FORCES
     &RESTART  SILENT
       BACKUP_COPIES  1
       &EACH
         GEO_OPT  1
       &END EACH
     &END RESTART
   &END PRINT
 &END MOTION
 &FORCE_EVAL
   METHOD  QS
   STRESS_TENSOR  ANALYTICAL
   &DFT
     BASIS_SET_FILE_NAME BASIS_MOLOPT
     POTENTIAL_FILE_NAME POTENTIAL
     MULTIPLICITY  1
     &SCF
       MAX_SCF  50
       EPS_SCF     9.9999999999999995E-07
       SCF_GUESS  ATOMIC
       ADDED_MOS  50
       &DIAGONALIZATION  T
         ALGORITHM  DAVIDSON
       &END DIAGONALIZATION
       &SMEAR  T
         METHOD  FERMI_DIRAC
       &END SMEAR
       &MIXING  T
         METHOD  BROYDEN_MIXING
         ALPHA     2.9999999999999999E-01
         NBUFFER  8
       &END MIXING
     &END SCF
     &QS
       EPS_DEFAULT     1.0000000000000000E-14
       METHOD  GPW
     &END QS
     &MGRID
       NGRIDS  6
       CUTOFF     1.0000000000000000E+03
       REL_CUTOFF     6.0000000000000000E+01
     &END MGRID
     &XC
       DENSITY_CUTOFF     1.0000000000000000E-10
       GRADIENT_CUTOFF     1.0000000000000000E-10
       TAU_CUTOFF     1.0000000000000000E-10
       &XC_GRID
         XC_DERIV  SPLINE2_SMOOTH
       &END XC_GRID
       &XC_FUNCTIONAL  NO_SHORTCUT
         &PBE  T
         &END PBE
       &END XC_FUNCTIONAL
       &VDW_POTENTIAL
         POTENTIAL_TYPE  PAIR_POTENTIAL
         &PAIR_POTENTIAL
           TYPE  DFTD3
           PARAMETER_FILE_NAME dftd3.dat
           REFERENCE_FUNCTIONAL PBE
         &END PAIR_POTENTIAL
       &END VDW_POTENTIAL
     &END XC
     &POISSON
       POISSON_SOLVER  ANALYTIC
       PERIODIC  NONE
     &END POISSON
     &PRINT
       &MO_CUBES  SILENT
         WRITE_CUBE  F
         NLUMO  3
         NHOMO  3
       &END MO_CUBES
       &PDOS  SILENT
         COMPONENTS  T
         APPEND  T
         NLUMO  -1
       &END PDOS
       &MULLIKEN  OFF
       &END MULLIKEN
       &HIRSHFELD  OFF
       &END HIRSHFELD
     &END PRINT
   &END DFT
   &SUBSYS
     &CELL
       A     2.2361993568977812E+01    0.0000000000000000E+00    0.0000000000000000E+00
       B    -1.2309039694297708E+01    1.9365804794661500E+01    0.0000000000000000E+00
       C    -3.6239584850653217E-01    2.6426049055955753E-01    3.8469851384023521E+01
       PERIODIC  XY
       MULTIPLE_UNIT_CELL  1 1 1
     &END CELL
     &COORD
B    3.7475927041897301E+00    8.5297878442986104E+00    2.2104481514494406E+01
B    3.8553427066651813E+00    8.4271718832167046E+00    7.1682371760271639E+00
B    1.5220213670350898E+01    1.9763737693844632E+00    1.2566433891896430E+01
B    1.5150291575724664E+01    2.0421769066483795E+00    1.6737924784286662E+01
C    2.8586786320310096E+00    6.7227826142551868E+00    2.0785761880695997E+01
C    1.6382185950221697E+00    6.5348932421200656E+00    2.0037655601738795E+01
C    6.4701129193138263E+00    6.5149227659832478E+00    2.0983492423613278E+01
C    5.0563177394055421E+00    6.7546137353187365E+00    2.1120302659464009E+01
C   -2.4296133105814854E-01    7.8644039797141261E+00    1.9367605267880780E+01
C    8.9121254332488720E-01    7.6633256188947518E+00    2.0082668547829190E+01
C    7.1834020555378819E+00    5.4054788754467262E+00    2.0841716795621174E+01
C    1.6453360033605018E+00    8.6454613752085745E+00    2.0927634660709742E+01
C    1.2685252054933585E+00    5.4889424850000825E+00    1.9273101106380356E+01
C    3.8248431683175896E+00    8.3081231785330445E+00    4.4518206818399584E+00
C    3.6406226223135154E+00    8.4505584028419687E+00    2.3624917402157600E+01
C    3.7869168051932935E+00    8.3405875037030590E+00    5.6599671125174025E+00
C    3.6024964429474702E+00    8.4716804750531125E+00    2.4857772501921378E+01
C    5.1528388587314744E+00    6.6570146914906889E+00    8.1840892103569463E+00
C    9.8482655535885677E-01    7.5631395984008352E+00    9.1844564639362449E+00
C    1.7226519895055434E+00    6.4258416070791489E+00    9.2048288021754772E+00
C    1.3673420890954695E+00    5.3613256169903432E+00    9.9800451160875490E+00
C   -1.3912260394774442E-01    7.7565562970213477E+00    9.8819110087510040E+00
C   -5.2994589243046764E-01    6.7056774762943947E+00    1.0689011609993578E+01
C    1.9131863612821035E-01    5.5595682170517486E+00    1.0738742042442441E+01
C    2.9412118639269780E+00    6.6252595280703597E+00    8.4542788581453259E+00
C    1.7724537084427703E+00    8.5070542151757955E+00    8.3897283009422257E+00
C    7.2530955845736909E+00    5.2840045709294117E+00    8.4581984997128181E+00
C    6.5464453462244965E+00    6.4163423513010640E+00    8.3647679782305460E+00
C   -2.5651785031984602E+00    5.4888566904014029E+00    1.1696906605142537E+01
C   -1.0640215399945637E+01    1.9270469735548563E+01    1.2522626754976706E+01
C    4.1309099576782238E+00    1.1460376315751356E-01    1.1196490183830715E+01
C    3.3485312744548699E+00    1.1542817786511650E+00    1.1625973354419344E+01
C   -1.9114394431567927E+00    4.3100428858641928E+00    1.1683309127893938E+01
C   -1.1285844140774325E+01    1.8949106947901761E+01    1.3741185825444218E+01
C    4.0529813904240273E+00    2.2906100250159676E+00    1.2271455374569028E+01
C   -1.0093387734272678E+01    1.7042545426000821E+01    1.3037628368723752E+01
C   -6.5096350949171073E+00    1.8116351020387217E+01    1.1750238528953787E+01
C    1.9350677962927640E+00    2.0666277332583549E+00    1.3317486747655163E+01
C    3.1380213336239304E+00    2.7715800571166422E+00    1.3304505180725688E+01
C   -7.6658323578722953E+00    1.7375806224978184E+01    1.1732021626595261E+01
C   -8.7350678081861961E+00    1.8174829790454893E+01    1.1439364993548221E+01
C   -9.9767544268706931E+00    1.8039875203406421E+01    1.2086883382022428E+01
C   -7.8307805155781525E+00    1.6314430799232632E+01    1.2683102270672364E+01
C    2.0986228767983834E+00    1.0597082100349589E+00    1.2304375061396053E+01
C    6.1662705035992680E+00    1.0505383931589334E+00    1.2024878185279924E+01
C   -6.7953058645572302E+00    1.9424445304485566E+01    1.1441987164589845E+01
C    5.3660130904314247E+00    2.1992164266529648E+00    1.2428683222834771E+01
C   -5.5008198107834163E+00    1.7902036670265801E+01    1.2674395199618077E+01
C   -9.0937914391315982E+00    1.6142239926831113E+01    1.3343846209322255E+01
C    4.1117259782337099E+00    2.6492037693236941E+00    1.6712830041771905E+01
C   -5.1340324176190144E+00    1.7255999483995435E+01    1.4872702625502553E+01
C    3.3751179355213665E+00    6.2974524679345354E+00    1.5393729287876670E+01
C    3.0775750252448000E+00    2.8357300836211712E+00    1.5761938353830597E+01
C   -1.0686032266387551E+01    1.7215256297102879E+01    1.5367861689014576E+01
C   -1.0798201912273809E+01    1.8183107118478659E+01    1.6430644512160015E+01
C    1.9105088970844399E+00    2.1075732581801749E+00    1.5810731389146534E+01
C    1.3663900792531565E+00    1.7809497283795810E+00    1.4548328956761745E+01
C   -5.6867256812613656E+00    1.6813200406762519E+01    1.3660736254450665E+01
C    4.6339233062527692E+00    6.1583399029251042E+00    1.4661791390340108E+01
C   -9.6364358156532592E+00    1.6352650167100499E+01    1.5718171656199415E+01
C   -1.1194803161264787E+01    1.9438022667688557E+01    1.6066815708643617E+01
C   -1.0957313345278498E+01    1.7517384533840143E+01    1.4120530447359993E+01
C    5.7318366528038913E+00    6.5184823899496926E+00    1.5232202640133387E+01
C    9.4016440047064842E-01    4.9256060938735036E-01    1.4736637310223653E+01
C    1.8100205895646868E+00    1.1555432910994927E+00    1.6764723703870743E+01
C   -8.9035785098200098E+00    1.5869539339449258E+01    1.4706003695399772E+01
C   -6.8459849841987737E+00    1.6085285950817678E+01    1.3659536260750459E+01
C   -7.3981412190316975E+00    1.5777955215456972E+01    1.4908702763009815E+01
C   -6.9358422741726216E+00    1.6181239717693799E+01    1.6086372589182027E+01
C   -5.6878808769400333E+00    1.6955302962132880E+01    1.6093556481074238E+01
C    3.7082543036572257E+00    3.1170964152880201E+00    1.4526501691585077E+01
C   -7.8215530432603781E+00    1.8863855503466610E+01    1.8179267073334994E+01
C    2.8332292504961574E+00    8.9475600225477725E-01    1.7667653248712146E+01
C   -5.7948263322815228E+00    1.7874185260707751E+01    1.7163802998250326E+01
C   -7.7298099716571764E+00    1.6686475018794873E+01    1.7169494080961869E+01
C   -6.1536085983601496E-01    6.7932693361425613E+00    1.8565029932912779E+01
C   -2.6903098637624998E+00    5.5402993834182235E+00    1.7597719271096519E+01
C   -1.9781064783820703E+00    4.4046356958242496E+00    1.7597145608254571E+01
C   -9.2124324713515779E+00    1.8944673140695762E+01    1.7993827690780538E+01
C    9.8584488960113292E-02    5.6441231969818526E+00    1.8536513603847510E+01
C    3.9938834334012823E+00    1.6300624913299990E+00    1.7668113803440011E+01
C    5.0704702387690528E+00    7.4476261405172273E-01    1.8001430847780714E+01
C   -7.1157556550035226E+00    1.7806401269166230E+01    1.7787663826996518E+01
C   -9.7941667158467069E+00    1.7894830244571999E+01    1.7365009432518036E+01
C   -9.1018707781184638E+00    1.6741805012784845E+01    1.6951416600310232E+01
C    2.2970394450580200E+00    1.3025073577549476E+01    2.1054561759827486E+01
C    2.6510204934988355E+00    1.0530989263014115E+01    2.1292877988791261E+01
C    3.0289443751566116E+00    1.1896400635230190E+01    2.1160036192926533E+01
C    2.7408079787857731E+00    1.0436623826642906E+01    7.9566777981818193E+00
C    3.1190213071691439E+00    1.1793016309524795E+01    8.1362769335121516E+00
C    2.3829976285253274E+00    1.2940051163361677E+01    8.2309054224680835E+00
C    2.5226127921482857E+00    7.6805943886829278E+00    1.2190786292467985E+01
C    1.8836799648130378E+00    9.8586322933966333E+00    1.2016513240979249E+01
C    4.8265310158493806E+00    8.0349252648798277E+00    1.1510914657166104E+01
C    1.6120842241715989E+00    1.1001089942279275E+01    1.2708265664113204E+01
C    1.5530558524939733E+00    8.5870106017976564E+00    1.2595385117507226E+01
C    2.9490128521208994E+00    6.7229672066535358E+00    1.3143733020433308E+01
C    5.2089539160484293E+00    7.0370566155044374E+00    1.2471597275405109E+01
C    3.4762265821541063E+00    8.3739497077008167E+00    1.1443124677272156E+01
C    3.1134230711274493E+00    9.6804543558606575E+00    1.1346798438426815E+01
C    4.3051602158824469E+00    6.4248761220938428E+00    1.3246954596434163E+01
C    9.4305778222781322E-01    8.5461416550532157E+00    1.3869281447062297E+01
C    1.0584208051064725E+00    1.0861000381754211E+01    1.4067712363628830E+01
C    1.6448933650187454E+00    1.1822415213280456E+01    1.4863384861892774E+01
C    5.6835388428193339E+00    7.0646664512025543E+00    1.6589720445277212E+01
C    1.3523125179101587E+00    7.5789865979279174E+00    1.4805774293332437E+01
C    7.5693001333460208E-01    9.7165084823399734E+00    1.4594021819481846E+01
C    2.3970306765218354E+00    6.6533742045672613E+00    1.4454134921433052E+01
C    9.8452166817394027E-01    9.4766547599885520E+00    1.5962012394129474E+01
C    1.3932414791742249E+00    8.1156524053681096E+00    1.6109582192939254E+01
C    3.3479527324760303E+00    6.8752429930014056E+00    1.6682103469778717E+01
C    2.9770826680231739E+00    8.7127778563752454E+00    1.7844087235110791E+01
C    1.9011946206934205E+00    1.1661922274998002E+01    1.6222249635610797E+01
C    2.5339338565698606E+00    1.0015376429564075E+01    1.7714132951142929E+01
C    1.5359753654375403E+00    1.0390941835379904E+01    1.6793364137204701E+01
C    4.5705321349924590E+00    7.1559659251114844E+00    1.7239097885947199E+01
C    2.3272230423663189E+00    7.7215076725704526E+00    1.7043562190265970E+01
C    4.3429163307108745E+00    8.4166571387744540E+00    1.7985552089199288E+01
C    3.5117388094714825E+00    1.1086173752918301E+01    1.7763802188267611E+01
C    8.4017382903444169E+00    7.7521515564540548E+00    2.0915278262236605E+01
C    9.1534919854421499E+00    6.6357277368186685E+00    2.0871492479626767E+01
C    7.1061417354790217E+00    7.6985564242760072E+00    2.1067304476902759E+01
C    1.0686036732053143E+01    4.1495105744481400E+00    2.0177006757580280E+01
C    6.0851162437967492E+00    8.7051939548024961E+00    2.1415771333515373E+01
C    1.1155413082455944E+01    2.9936427724299053E+00    1.9477998322642925E+01
C    8.5511762973065135E+00    5.3927052008519993E+00    2.0901303375401636E+01
C    1.1377815340554962E+01    5.3355501111678807E+00    2.0028730140410012E+01
C    6.1875744601448588E+00    8.6035754832386750E+00    7.9307961793560811E+00
C    8.5292144918988377E+00    7.6841387123674094E+00    8.3420711186658156E+00
C    7.1937165307578654E+00    7.6306280113754825E+00    8.2385880846548467E+00
C    9.2514170634793125E+00    6.5417138804696009E+00    8.4042782941403527E+00
C    8.6732104037216100E+00    5.2869283175942732E+00    8.3475754782785625E+00
C    1.1340610034438535E+01    2.9292642168846581E+00    9.7314740619437838E+00
C    1.2410972206928259E+01    3.0566253679629973E+00    1.0499116103273559E+01
C    1.1401403518475529E+01    5.2225021788214461E+00    9.3387399148284516E+00
C    1.2489880719086848E+01    5.3514801383110244E+00    1.0105275618190056E+01
C    1.0803825768057777E+01    4.0158684149651114E+00    9.0988080973447332E+00
C    1.7640076051994853E+01    2.1230839411184155E+00    1.1892255834644418E+01
C    1.4243420875152033E+01    3.9671698873949741E+00    1.1478865603497397E+01
C    1.8506920296733437E+01    3.1036075859976564E+00    1.1787194935721130E+01
C    1.6408789202423897E+01    3.9961519217404811E+00    1.1914241421544148E+01
C    1.3163338422978955E+01    2.0422583215943928E+00    1.1111301864471518E+01
C    1.7784631232573702E+01    4.3610452250729033E+00    1.1786599391969336E+01
C    1.9900120575708314E+01    3.1103143527456578E+00    1.1692415914275571E+01
C    1.8400564352159630E+01    5.5037550085195752E+00    1.1653780463444535E+01
C    1.6610064045448070E+01    1.6903366304585135E-01    1.1500144444701082E+01
C    7.1717511161466225E+00    7.9846578085156161E-01    1.3025765411795915E+01
C    1.4350016710401583E+01    1.6308596463494493E-01    1.1120904496888789E+01
C    7.0211748770907434E+00    1.7863422259176027E+00    1.4048364503074666E+01
C    5.9440667517640522E+00    2.5916659095946168E+00    1.3687388688330824E+01
C    1.2996021060582569E+01    4.2544159634675331E+00    1.0657661826671648E+01
C   -4.7846170495250755E+00    1.8891378095550841E+01    1.3340256008182248E+01
C    1.4995019698630740E+01    1.9357329908576193E+00    1.5290363887937783E+01
C    1.5068922712943330E+01    1.9280321097214672E+00    1.4018966401210831E+01
C    6.4922707229601215E+00    1.8826312582093654E+00    1.6387666870040572E+01
C   -4.6027414931822772E+00    1.8523951683356081E+01    1.4694306172251510E+01
C   -4.6367496506564221E+00    1.9455165008812340E+01    1.5716170076648767E+01
C    7.2292621324274435E+00    1.4474750122926359E+00    1.5329420946755041E+01
C    5.3455447050528067E+00    2.7299323397595061E+00    1.6086067632880152E+01
C    5.1464585737052237E+00    3.0281810231045250E+00    1.4708885832461032E+01
C    1.4144257184030995E+01    4.0188050515234215E+00    1.7791819551585693E+01
C    1.8338573769060460E+01    5.6167521675000431E+00    1.7588725489631408E+01
C    1.7542499991857081E+01    2.1617853376760454E+00    1.7386702767860822E+01
C    1.3060734365391431E+01    2.1074175349280111E+00    1.8149596507467461E+01
C    1.2397265278204671E+01    5.4210043201006428E+00    1.9198133637277952E+01
C    1.6382004284756661E+01    4.0806582915979375E+00    1.7379555888427515E+01
C    1.2364332426142534E+01    3.1317270441238123E+00    1.8785751620617855E+01
C    1.9838017686309698E+01    3.1986179476164618E+00    1.7597491026726171E+01
C    1.2870522665362641E+01    4.3657658792590173E+00    1.8573806324566359E+01
C    1.8497206108958505E+01    3.1374008463018832E+00    1.7498971742310339E+01
C    1.7774230795764421E+01    4.3758285508261983E+00    1.7485623372737962E+01
C    1.6488883928525961E+01    2.8163100209376785E-01    1.7848695823029050E+01
C    1.4274062317633922E+01    2.3342792878062599E-01    1.8201027416187173E+01
C    6.2541902910563545E+00    8.8313094456131491E-01    1.7362310507465157E+01
C   -5.3313743667066813E+00    1.9105792963272549E+01    1.6959299663854509E+01
C    4.1030194902364867E+00    1.6735459379253673E+01    2.0155277979101133E+01
C    2.9250219445861618E+00    1.4206269012220476E+01    2.1073453174646559E+01
C    4.3254007443567684E+00    1.4221785328387677E+01    2.1061206800538976E+01
C    4.8952985422485096E+00    1.0571511099912303E+01    2.1480379675070949E+01
C    4.4277229315544400E+00    1.1939541346491978E+01    2.1262381611699883E+01
C    2.7365939503611179E+00    1.6647677221874158E+01    2.0305506420882626E+01
C    5.0538335874233944E+00    1.3040421328289854E+01    2.1107551928215852E+01
C    1.9993362611367851E+00    1.7592591481035647E+01    1.9633006654673768E+01
C    4.7168912247571901E+00    1.7566202206233633E+01    1.9288973665852605E+01
C    4.9856771655906931E+00    1.0486629297151566E+01    7.8208204651091613E+00
C    5.1618006784034272E+00    1.2955756067455294E+01    8.2138338398483999E+00
C    4.5195229476728933E+00    1.1823438144854560E+01    8.0819577243810503E+00
C    3.0195565439611531E+00    1.4104132951808142E+01    8.2456100288299901E+00
C    4.3963339807701649E+00    1.4094287353297398E+01    8.2490519446200121E+00
C    2.0640010998302754E+00    1.7479907907338010E+01    9.7394682983075498E+00
C    2.8517684449651983E+00    1.6559028379833244E+01    9.0067611370474321E+00
C    4.2276745887071838E+00    1.6602928037407974E+01    9.2206846912412530E+00
C    4.8032645880859368E+00    1.7510778877975010E+01    1.0045976139618007E+01
C    2.5932491087849101E+00    1.8368132260993892E+01    1.0524838594933621E+01
C    3.9599710368127883E+00    1.8365417803314923E+01    1.0659578493031196E+01
C    6.0096865417632506E+00    1.1276852884588507E+01    1.2260230821389305E+01
C    5.8134193477286908E+00    8.9871779412508808E+00    1.1482894581548090E+01
C    5.3915744133718313E+00    1.0317905023798444E+01    1.1427339602342219E+01
C    6.8603036211415214E+00    8.6366530646957678E+00    1.2493149433110476E+01
C    6.4629139615927453E+00    7.4530850498451899E+00    1.3089847489911032E+01
C    5.0286417993543351E+00    1.2254272582875553E+01    1.2603767055809037E+01
C    7.4017985358293856E+00    9.6688856787904278E+00    1.3306240760357101E+01
C    6.9742843438716244E+00    1.0968727539507945E+01    1.3182343767186895E+01
C    4.0619491048305090E+00    1.0685387520046405E+01    1.1298828295846157E+01
C    2.6082392526704203E+00    1.1980974020008222E+01    1.2779965426860400E+01
C    3.7646832356157174E+00    1.1806975365875543E+01    1.2056599049132709E+01
C    3.8158094395627784E+00    1.2836915975667617E+01    1.4642930058785778E+01
C    5.0166023672460165E+00    1.2752063164417525E+01    1.3914708520493644E+01
C    6.9901392772080326E+00    1.1564592836379912E+01    1.4531648271833923E+01
C    2.6253293423089179E+00    1.2523101135800266E+01    1.4100275750848640E+01
C    7.2852303436806700E+00    8.1146573422152386E+00    1.5237107290709497E+01
C    7.3174865043760207E+00    1.0458335486499090E+01    1.5427283861499923E+01
C    6.7788152723090089E+00    8.0892770404629601E+00    1.6588644850444052E+01
C    6.0366511221261163E+00    1.2441296167228323E+01    1.4851003413013807E+01
C    7.6338892015400432E+00    9.3501069545625697E+00    1.4709676881819906E+01
C    4.0405437185071955E+00    1.2713198774611689E+01    1.6064024943987299E+01
C    6.6928057368126233E+00    7.1778077868862722E+00    1.4430731192555978E+01
C    5.7851827291061602E+00    1.1350745832049803E+01    1.7120816633076913E+01
C    3.9182465141689216E+00    1.8491401393926846E+01    1.8698320315555712E+01
C    3.1352900393786887E+00    1.2068633818074185E+01    1.6783383591878476E+01
C    2.5569957285025442E+00    1.8499467324729643E+01    1.8862483936741715E+01
C    5.4600883023901980E+00    1.2458356575387961E+01    1.6211331363014700E+01
C    6.8568378519293329E+00    1.0482919416118897E+01    1.6770144051448057E+01
C    4.8676042064802800E+00    1.0666251266579266E+01    1.7897790204645929E+01
C    5.2839555623352030E+00    9.3947399007360026E+00    1.8014042558170203E+01
C    6.5037603894242979E+00    9.2461368194469049E+00    1.7366717330628699E+01
H    6.6832272036539120E+00    4.4374726982121180E+00    2.0753571419891095E+01
H   -7.6073175728051812E-01    8.7512790097179103E+00    1.9350604051993280E+01
H    1.8588547134456270E+00    4.6081380292977947E+00    1.9222836934997233E+01
H   -6.7369368675218633E-01    8.6504212305463550E+00    9.8981028600088905E+00
H    1.9463706900158551E+00    4.4969919205397808E+00    1.0035498756942232E+01
H    6.7774269487360375E+00    4.3571867524814367E+00    8.5458458647705484E+00
H    1.2492823518542397E+00    1.3006637124915455E+01    2.1029825831446956E+01
H    1.3391940476926578E+00    1.2907793471094058E+01    8.2714191672827972E+00
H    8.9420541310952473E+00    8.6895988185813344E+00    2.0976320981412631E+01
H    1.0700295746665528E+01    2.1074113165575494E+00    1.9669226844099672E+01
H    9.0396559941132484E+00    8.6098492009195837E+00    8.3385169971034667E+00
H    1.0823727665390553E+01    2.0221800744665792E+00    9.6028918861133032E+00
H    1.3038335447301444E+01    6.2612853969326485E+00    1.0192129262378328E+01
H    2.0436478792006412E+01    2.2291791463798440E+00    1.1670276112119682E+01
H    1.7846277999271969E+01    6.3851062080286605E+00    1.1629110689113718E+01
H    1.7759295051162209E+01    6.4918791778717226E+00    1.7642848294234266E+01
H    2.0358164987929275E+01    2.3275488750325151E+00    1.7626222475806504E+01
H    1.2935235528456172E+01    6.3473358105204811E+00    1.9090774970914477E+01
H    6.1378735311006638E+00    1.3101651301740981E+01    2.1093821226537742E+01
H    9.0856073795348768E-01    1.7550352534949976E+01    1.9787182873325037E+01
H    5.7640445602388803E+00    1.7614979650038208E+01    1.9179306025005893E+01
H    6.2358836844706822E+00    1.3009028522683977E+01    8.2613702383053074E+00
H    5.8627372253239383E+00    1.7532856344650394E+01    1.0161584837313672E+01
H    9.8978314677746837E-01    1.7462958681372385E+01    9.5434547176309454E+00
N    4.0070338385075814E+00    6.0362924758169489E+00    2.0753243276441587E+01
N    2.6797447262789307E+00    7.9004076923725606E+00    2.1314887519823031E+01
N    4.9972549343483967E+00    7.9814952616490746E+00    2.1567604742784642E+01
N    5.1113583938766425E+00    7.9052369148137469E+00    7.7662044404192780E+00
N    2.7769178493683104E+00    7.8156955208104826E+00    7.9495109081454309E+00
N    4.1172340282428568E+00    5.9557008429005549E+00    8.4746226156898246E+00
N    1.4958123207585099E+00    9.9638997788543922E+00    2.0984990957853491E+01
N    3.7868911910142198E+00    9.9318329125482006E+00    2.1603151926963839E+01
N    3.8790749463576613E+00    9.8413031017052219E+00    7.6588814319000322E+00
N    1.5929429465275617E+00    9.8377852643229939E+00    8.3175390018975524E+00
N    1.6510994317047178E+01    2.7041352355131667E+00    1.2079260332128079E+01
N    1.4094850794424062E+01    2.6422365570304791E+00    1.1772252572984888E+01
N    1.5372008043190910E+01    6.8156894817458957E-01    1.1787975932638618E+01
N    1.5276642459502035E+01    4.6661503523849301E+00    1.1618641047813398E+01
N    1.7664738520780006E+01    8.3733230793476610E-01    1.1626936231126752E+01
N    1.3182513805835585E+01    6.8861073656357619E-01    1.0889597593908405E+01
N    1.4007795414711254E+01    2.7644719938771827E+00    1.7504556943368740E+01
N    1.5224045945100896E+01    7.3235496102923425E-01    1.7504794309945748E+01
N    1.6367585544098237E+01    2.7717026847292963E+00    1.7228400274842208E+01
N    1.3098728508286415E+01    7.2243186781897895E-01    1.8442608426861405E+01
N    1.7586746023337927E+01    9.1146641807520212E-01    1.7697799826691746E+01
N    1.5176904847718870E+01    4.6886253424527480E+00    1.7661706210369275E+01
N    6.0493627461328767E+00    1.0005066054213069E+01    2.1414036980060995E+01
N    6.1574608166882383E+00    9.9181441084310364E+00    7.8897781597576895E+00
S   -1.8478243338594134E+00    7.0538758459983066E+00    1.1751195399484624E+01
S   -1.9677325328343243E-01    4.2733612904256981E+00    1.1792036941085524E+01
S   -1.9396186031201765E+00    7.1417232111490971E+00    1.7490359358903131E+01
S   -2.7008839736120505E-01    4.3528534525719227E+00    1.7478277648509263E+01
S    9.3360160478356828E+00    3.9444377705890399E+00    2.1172578891070579E+01
S    1.0872385354279070E+01    6.6013314642180223E+00    2.0832052821713699E+01
S    9.4554756817896841E+00    3.9419680540159723E+00    8.0737207104134061E+00
S    1.0982046407479530E+01    6.5378439840991387E+00    8.4605765844039009E+00
S    2.0158416626421518E+00    1.5554382174783610E+01    2.1382219695630251E+01
S    5.1981209356690830E+00    1.5809511711287763E+01    2.1074774061342112E+01
S    2.1373873264797383E+00    1.5410024959821314E+01    7.9933997786265270E+00
S    5.2913914511316138E+00    1.5669546918213758E+01    8.3205946262671002E+00
H    3.8544604077977462E+00    8.3136268077967372E+00    3.3501392313417462E+00
H    3.5960315452587666E+00    8.4883574051546287E+00    2.5933042995955166E+01
     &END COORD
     &KIND H
       BASIS_SET DZVP-MOLOPT-GTH
       POTENTIAL GTH-PBE-q1
       &POTENTIAL
 1
  0.2000000000000000E+00 2 -0.4178900440000000E+01  0.7244633100000000E+00
 0
         # Potential name:  GTH-PBE-Q1  for symbol:  H
         # Potential read from the potential filename: POTENTIAL
       &END POTENTIAL
     &END KIND
     &KIND C
       BASIS_SET DZVP-MOLOPT-GTH
       POTENTIAL GTH-PBE-q4
       &POTENTIAL
 2 2
  0.3384712400000000E+00 2 -0.8803673979999999E+01  0.1339210850000000E+01
 2
  0.3025757500000000E+00 1  0.9622486650000001E+01
  0.2915069400000000E+00 0
         # Potential name:  GTH-PBE-Q4  for symbol:  C
         # Potential read from the potential filename: POTENTIAL
       &END POTENTIAL
     &END KIND
     &KIND N
       BASIS_SET DZVP-MOLOPT-GTH
       POTENTIAL GTH-PBE-q5
       &POTENTIAL
 2 3
  0.2837905100000000E+00 2 -0.1241522559000000E+02  0.1868095920000000E+01
 2
  0.2554050000000000E+00 1  0.1363026257000000E+02
  0.2454945300000000E+00 0
         # Potential name:  GTH-PBE-Q5  for symbol:  N
         # Potential read from the potential filename: POTENTIAL
       &END POTENTIAL
     &END KIND
     &KIND B
       BASIS_SET DZVP-MOLOPT-SR-GTH
       POTENTIAL GTH-PBE-q3
       &POTENTIAL
 2 1
  0.4189914500000000E+00 2 -0.5859461710000000E+01  0.9037564300000001E+00
 2
  0.3713204600000000E+00 1  0.6297280180000000E+01
  0.3645630800000000E+00 0
         # Potential name:  GTH-PBE-Q3  for symbol:  B
         # Potential read from the potential filename: POTENTIAL
       &END POTENTIAL
     &END KIND
     &KIND S
       BASIS_SET DZVP-MOLOPT-GTH
       POTENTIAL GTH-PBE-q6
       &POTENTIAL
 2 4
  0.4200000000000000E+00 1 -0.5986260380000000E+01
 2
  0.3648203500000000E+00 2  0.1314354448000000E+02 -0.4241830450000000E+01
  0.5476179570000000E+01
  0.4094804800000000E+00 1  0.3700890570000000E+01
         # Potential name:  GTH-PBE-Q6  for symbol:  S
         # Potential read from the potential filename: POTENTIAL
       &END POTENTIAL
     &END KIND
     &TOPOLOGY
       COORD_FILE_NAME cof.xyz
       COORD_FILE_FORMAT  XYZ
       NUMBER_OF_ATOMS  288
       MULTIPLE_UNIT_CELL  1 1 1
     &END TOPOLOGY
   &END SUBSYS
 &END FORCE_EVAL
