 # Version information for this restart file 
 # current date 2021-06-23 02:04:39.049
 # current working dir /panfs/panfs.cbls.ccr.buffalo.edu/scratch/grp-cyberwksp21/ub2053/cof/opt
 # Program compiled at                              Thu Apr 22 21:44:59 EDT 2021
 # Program compiled on                cpn-k07-07-02.compute.cbls.ccr.buffalo.edu
 # Program compiled for                                                    local
 # Source code revision number                                       git:36754bb
 &GLOBAL
   EXTENDED_FFT_LENGTHS  T
   PRINT_LEVEL  MEDIUM
   PROJECT_NAME COF
   RUN_TYPE  CELL_OPT
 &END GLOBAL
 &MOTION
   &GEO_OPT
     OPTIMIZER  BFGS
     MAX_ITER  550
     MAX_DR     2.0000000000000000E-03
     MAX_FORCE     2.9999999999999997E-04
     RMS_DR     2.0000000000000000E-03
     RMS_FORCE     2.9999999999999997E-04
     &BFGS
     &END BFGS
   &END GEO_OPT
   &CELL_OPT
     OPTIMIZER  BFGS
     MAX_ITER  550
     MAX_DR     2.0000000000000000E-03
     MAX_FORCE     2.9999999999999997E-04
     RMS_DR     2.0000000000000000E-03
     RMS_FORCE     2.9999999999999997E-04
     STEP_START_VAL  2
     TYPE  DIRECT_CELL_OPT
     EXTERNAL_PRESSURE     1.0000000000000000E+02    0.0000000000000000E+00    0.0000000000000000E+00    0.0000000000000000E+00 \
         1.0000000000000000E+02    0.0000000000000000E+00    0.0000000000000000E+00    0.0000000000000000E+00    1.0000000000000000E+02
     KEEP_SYMMETRY  F
     PRESSURE_TOLERANCE     1.0000000000000000E+02
   &END CELL_OPT
   &PRINT
     &TRAJECTORY  SILENT
       &EACH
         GEO_OPT  1
       &END EACH
     &END TRAJECTORY
     &FORCES  ON
     &END FORCES
     &RESTART  SILENT
       BACKUP_COPIES  1
       &EACH
         GEO_OPT  1
       &END EACH
     &END RESTART
   &END PRINT
 &END MOTION
 &FORCE_EVAL
   METHOD  QS
   STRESS_TENSOR  ANALYTICAL
   &DFT
     BASIS_SET_FILE_NAME BASIS_MOLOPT
     POTENTIAL_FILE_NAME POTENTIAL
     MULTIPLICITY  1
     &SCF
       MAX_SCF  50
       EPS_SCF     9.9999999999999995E-07
       SCF_GUESS  ATOMIC
       ADDED_MOS  50
       &DIAGONALIZATION  T
         ALGORITHM  DAVIDSON
       &END DIAGONALIZATION
       &SMEAR  T
         METHOD  FERMI_DIRAC
       &END SMEAR
       &MIXING  T
         METHOD  BROYDEN_MIXING
         ALPHA     2.9999999999999999E-01
         NBUFFER  8
       &END MIXING
     &END SCF
     &QS
       EPS_DEFAULT     1.0000000000000000E-14
       METHOD  GPW
     &END QS
     &MGRID
       NGRIDS  6
       CUTOFF     1.0000000000000000E+03
       REL_CUTOFF     6.0000000000000000E+01
     &END MGRID
     &XC
       DENSITY_CUTOFF     1.0000000000000000E-10
       GRADIENT_CUTOFF     1.0000000000000000E-10
       TAU_CUTOFF     1.0000000000000000E-10
       &XC_GRID
         XC_DERIV  SPLINE2_SMOOTH
       &END XC_GRID
       &XC_FUNCTIONAL  NO_SHORTCUT
         &PBE  T
         &END PBE
       &END XC_FUNCTIONAL
       &VDW_POTENTIAL
         POTENTIAL_TYPE  PAIR_POTENTIAL
         &PAIR_POTENTIAL
           TYPE  DFTD3
           PARAMETER_FILE_NAME dftd3.dat
           REFERENCE_FUNCTIONAL PBE
         &END PAIR_POTENTIAL
       &END VDW_POTENTIAL
     &END XC
     &POISSON
       POISSON_SOLVER  ANALYTIC
       PERIODIC  NONE
     &END POISSON
     &PRINT
       &MO_CUBES  SILENT
         WRITE_CUBE  F
         NLUMO  3
         NHOMO  3
       &END MO_CUBES
       &PDOS  SILENT
         COMPONENTS  T
         APPEND  T
         NLUMO  -1
       &END PDOS
       &MULLIKEN  OFF
       &END MULLIKEN
       &HIRSHFELD  OFF
       &END HIRSHFELD
     &END PRINT
   &END DFT
   &SUBSYS
     &CELL
       A     2.2580150197195021E+01    0.0000000000000000E+00    0.0000000000000000E+00
       B    -1.2312368462785932E+01    1.9615804794661500E+01    0.0000000000000000E+00
       C    -3.6261974132288999E-01    2.6416578013250319E-01    3.8593939774972469E+01
       PERIODIC  XY
       MULTIPLE_UNIT_CELL  1 1 1
     &END CELL
     &COORD
B    3.8403274315006306E+00    8.6438831639972911E+00    2.2182516717084859E+01
B    3.9471242883869757E+00    8.5436881787981562E+00    7.1862860194722415E+00
B    1.5380890094343401E+01    1.9951400904255181E+00    1.2591394153296996E+01
B    1.5308651916072346E+01    2.0637133871063824E+00    1.6808938604695754E+01
C    2.9277379487505293E+00    6.8158415426482151E+00    2.0851630254565322E+01
C    1.7034957384539609E+00    6.6151000437722303E+00    2.0098734759698029E+01
C    6.5673295690062465E+00    6.5961500337502743E+00    2.1048226262280533E+01
C    5.1475994046412339E+00    6.8380976700274436E+00    2.1196383984355450E+01
C   -1.9252262613026450E-01    7.9604658451494821E+00    1.9425873764264566E+01
C    9.5432926890857828E-01    7.7731715126859671E+00    2.0147092579936114E+01
C    7.2839144515021470E+00    5.4608371291794420E+00    2.0911053373302693E+01
C    1.7175240622036139E+00    8.7472544068648013E+00    2.0982422877323309E+01
C    1.3155745849927805E+00    5.5641858401586157E+00    1.9334774616702255E+01
C    3.9163571656266254E+00    8.4207853344147860E+00    4.4561258218417192E+00
C    3.7288532872969973E+00    8.5572076757354321E+00    2.3709899581413204E+01
C    3.8773555552377572E+00    8.4479136729666120E+00    5.6692149562597942E+00
C    3.6950574511506868E+00    8.5804611437528493E+00    2.4937908222322765E+01
C    5.2468027340792620E+00    6.7386374756383249E+00    8.2099845557549092E+00
C    1.0489732257089452E+00    7.6713487635511486E+00    9.2154537660092455E+00
C    1.7875561357920025E+00    6.5061671585817757E+00    9.2354389748540893E+00
C    1.4094777696916487E+00    5.4381309208586339E+00    1.0005458852066113E+01
C   -8.2950042487499723E-02    7.8505290531851362E+00    9.9280531583452074E+00
C   -4.8273948287532381E-01    6.7943756658863776E+00    1.0733845575260517E+01
C    2.3763358148702929E-01    5.6344554120475143E+00    1.0776175176019132E+01
C    3.0099183134574874E+00    6.7132315208760662E+00    8.4721626965563015E+00
C    1.8351136090024027E+00    8.6197232210872947E+00    8.4191807022084610E+00
C    7.3609081674798915E+00    5.3476865795605484E+00    8.4859627811269291E+00
C    6.6504621862430824E+00    6.5006419475075985E+00    8.3867879491973376E+00
C   -2.5711170853637682E+00    5.5542592567659055E+00    1.1726764661786516E+01
C   -1.0643625744616488E+01    1.9494660632280308E+01    1.2553942990784035E+01
C    4.1593408228322222E+00    1.0993880516904675E-01    1.1240782952291926E+01
C    3.3940642914136951E+00    1.1822463603281606E+00    1.1669268137990029E+01
C   -1.8964395135873415E+00    4.3643864883577654E+00    1.1724068545851024E+01
C   -1.1285368878764084E+01    1.9163210597141017E+01    1.3785142998436275E+01
C    4.0983078313929440E+00    2.3068182099965151E+00    1.2310951066291203E+01
C   -1.0098855160859186E+01    1.7262184106329201E+01    1.3075213220032655E+01
C   -6.4585965431436838E+00    1.8340871967530678E+01    1.1785856061504356E+01
C    1.9881056408247781E+00    2.0744626627084970E+00    1.3360268079742180E+01
C    3.2004342522057461E+00    2.8062442753582890E+00    1.3348322136481192E+01
C   -7.6335474394289307E+00    1.7585661581863391E+01    1.1775360910738899E+01
C   -8.7115635507182052E+00    1.8411713863153210E+01    1.1474078540291828E+01
C   -9.9593412786939748E+00    1.8277965541839620E+01    1.2115273400642007E+01
C   -7.8046313827144740E+00    1.6538310493617022E+01    1.2726041446743375E+01
C    2.1322499323780031E+00    1.0693975087772978E+00    1.2341525247162481E+01
C    6.2182455477299179E+00    1.0634256844392589E+00    1.2059023405920220E+01
C   -6.7575598677185926E+00    1.9669096345251955E+01    1.1472700456560361E+01
C    5.4340900841565212E+00    2.2271421110463208E+00    1.2480515971728867E+01
C   -5.4452264996349298E+00    1.8110137248726698E+01    1.2714347085376509E+01
C   -9.0784513909719653E+00    1.6374758646042341E+01    1.3385989178683642E+01
C    4.1723882051606642E+00    2.6677228944175768E+00    1.6767611747947523E+01
C   -5.0767874131849098E+00    1.7479371364940135E+01    1.4923299716302932E+01
C    3.4384017922176167E+00    6.3763556383146636E+00    1.5447846008330570E+01
C    3.1327950732916987E+00    2.8824278728407435E+00    1.5809764611505727E+01
C   -1.0695551338944238E+01    1.7433958959870516E+01    1.5423238379878658E+01
C   -1.0806216653289821E+01    1.8410139860392700E+01    1.6481628256813259E+01
C    1.9616256032149848E+00    2.1475480220409597E+00    1.5849541493583169E+01
C    1.4044450720792840E+00    1.7838862660344648E+00    1.4590743473569255E+01
C   -5.6329773462534662E+00    1.7030104312681438E+01    1.3700282117839180E+01
C    4.6940048372817387E+00    6.2279091855413666E+00    1.4710851122143392E+01
C   -9.6324139894505993E+00    1.6559808373680216E+01    1.5768942455921895E+01
C   -1.1177233591687919E+01    1.9687474529762973E+01    1.6132285570233869E+01
C   -1.0960754535125163E+01    1.7753424656373046E+01    1.4152084077586618E+01
C    5.8287283220327994E+00    6.5989201846686516E+00    1.5283179984031491E+01
C    9.3445215801677972E-01    4.7839113215395640E-01    1.4784983728031936E+01
C    1.8308437167315417E+00    1.1595810632289845E+00    1.6814545231325468E+01
C   -8.8698123938510545E+00    1.6068318438967491E+01    1.4755215043034120E+01
C   -6.8027547124883752E+00    1.6297482622782006E+01    1.3703110642845944E+01
C   -7.3869487672547933E+00    1.5983205537611658E+01    1.4956362947582122E+01
C   -6.8921217161049562E+00    1.6397551222467690E+01    1.6141853965335169E+01
C   -5.6453424457700931E+00    1.7173383039728542E+01    1.6143123346096598E+01
C    3.7680952035068733E+00    3.1756854431907637E+00    1.4567491089734158E+01
C   -7.7694626254038743E+00    1.9103352613432747E+01    1.8236858203266891E+01
C    2.8508936590552976E+00    8.9855398722152280E-01    1.7724400193260745E+01
C   -5.7509859508037238E+00    1.8114510398478469E+01    1.7208369406743067E+01
C   -7.7028862117463870E+00    1.6906389574995021E+01    1.7216703258035341E+01
C   -5.7376247677970293E-01    6.8901103194596720E+00    1.8620848959029772E+01
C   -2.6868218628686309E+00    5.6204000563484220E+00    1.7652968519774376E+01
C   -1.9706522495320562E+00    4.4611600994514555E+00    1.7652558539019598E+01
C   -9.1749338560162652E+00    1.9180209404675299E+01    1.8051186368406949E+01
C    1.4712507717442447E-01    5.7223637632793674E+00    1.8586981305966091E+01
C    4.0398571742847125E+00    1.6447387365491404E+00    1.7728676079367794E+01
C    5.1198541758199925E+00    7.5869632713301871E-01    1.8054441045906913E+01
C   -7.0601747078730099E+00    1.8021561191826475E+01    1.7840215863522083E+01
C   -9.7865629888334897E+00    1.8127282025145600E+01    1.7428413711427844E+01
C   -9.0821239357089389E+00    1.6967513526282588E+01    1.7006226372557599E+01
C    2.4017484889956613E+00    1.3188553313867516E+01    2.1120073758936353E+01
C    2.7411578711442202E+00    1.0667913105905194E+01    2.1351338821109515E+01
C    3.1326751238133488E+00    1.2042291054020380E+01    2.1227797828385540E+01
C    2.8300076858344969E+00    1.0572970637724049E+01    7.9918596617326276E+00
C    3.2241927928392458E+00    1.1943124428064237E+01    8.1630956969015962E+00
C    2.4872020521852400E+00    1.3101688545780044E+01    8.2626985834242870E+00
C    2.6008235071632724E+00    7.7737646079785838E+00    1.2234704190609520E+01
C    1.9636655929815854E+00    9.9815332907965022E+00    1.2068168339488375E+01
C    4.9225827917021459E+00    8.1287467400510849E+00    1.1565841023107501E+01
C    1.7002100625334384E+00    1.1139045980991037E+01    1.2747435760248546E+01
C    1.6173609277892558E+00    8.7062098676074946E+00    1.2638937442529890E+01
C    3.0142398146977021E+00    6.8114249159550004E+00    1.3186285707523270E+01
C    5.3094791413165625E+00    7.1216632501155823E+00    1.2517838168778423E+01
C    3.5726487296890554E+00    8.4694252447554810E+00    1.1480463496126150E+01
C    3.1982288805166550E+00    9.8026805842585159E+00    1.1371914036648331E+01
C    4.3863194903877254E+00    6.4949693854414807E+00    1.3292922362143736E+01
C    1.0108122307958218E+00    8.6612178449503823E+00    1.3912603463995366E+01
C    1.1317141226594805E+00    1.1025100853966233E+01    1.4105882046953656E+01
C    1.7359154565974346E+00    1.1996313762992822E+01    1.4917410781360076E+01
C    5.7946029308328537E+00    7.1617592471473461E+00    1.6634727642695662E+01
C    1.4181812706334436E+00    7.6746812678046821E+00    1.4850343936726734E+01
C    8.1161941696732420E-01    9.8487911986702610E+00    1.4641565131935627E+01
C    2.4423587330795082E+00    6.7421840907255701E+00    1.4499813650635124E+01
C    1.0506074015137301E+00    9.6003215219616127E+00    1.6020843942695844E+01
C    1.4543515663790225E+00    8.2267035160891826E+00    1.6159697600262085E+01
C    3.4200854152944742E+00    6.9558679534957237E+00    1.6728871443218821E+01
C    3.0531100496087613E+00    8.8421378349431876E+00    1.7902691432507659E+01
C    1.9878052060851730E+00    1.1808666390267897E+01    1.6278361240568188E+01
C    2.6306493955991934E+00    1.0154580165726864E+01    1.7777244769350915E+01
C    1.6213121222392854E+00    1.0534031390738596E+01    1.6848494810939791E+01
C    4.6594186051240349E+00    7.2720117201485124E+00    1.7305790522795814E+01
C    2.4065904190446710E+00    7.8403411782335315E+00    1.7096785994670256E+01
C    4.4314383621546130E+00    8.5292708501097980E+00    1.8042531268775114E+01
C    3.6168521779392413E+00    1.1215688461407426E+01    1.7828851308240750E+01
C    8.5452421138141119E+00    7.8578548643565274E+00    2.0999537648270358E+01
C    9.2834310285879464E+00    6.7135588704622844E+00    2.0943148489060942E+01
C    7.2182554234493743E+00    7.8039801803290665E+00    2.1144571108063914E+01
C    1.0828101324511021E+01    4.1961474478460730E+00    2.0238424156707914E+01
C    6.2000641592375478E+00    8.8133074097984530E+00    2.1491772175744600E+01
C    1.1295251414830824E+01    3.0376201434972367E+00    1.9565788096854746E+01
C    8.6509435874419847E+00    5.4699782499777276E+00    2.0960131627852231E+01
C    1.1520837319605922E+01    5.3974323798719261E+00    2.0092571210765126E+01
C    6.2968971949527308E+00    8.7141346670387918E+00    7.9603772924063048E+00
C    8.6621857090084653E+00    7.7856929839299891E+00    8.3702969617870178E+00
C    7.3094827085315099E+00    7.7286309151443664E+00    8.2636264398106825E+00
C    9.3805832558741002E+00    6.6254446262906983E+00    8.4319141043051840E+00
C    8.7807662283044436E+00    5.3602451515835412E+00    8.3700278874634559E+00
C    1.1455697561110185E+01    2.9664651599716136E+00    9.7558414583192015E+00
C    1.2551785775906565E+01    3.0832572645917162E+00    1.0528194690088117E+01
C    1.1562490080325166E+01    5.2956940060040436E+00    9.3541586776654686E+00
C    1.2666537342024890E+01    5.4152617729023484E+00    1.0130083509196874E+01
C    1.0938503998885215E+01    4.0809019766704919E+00    9.1333761733400252E+00
C    1.7808195487778907E+01    2.1354956125665541E+00    1.1936272951743467E+01
C    1.4399684992969677E+01    4.0121239827843356E+00    1.1509474430877457E+01
C    1.8711198779013163E+01    3.1476183633990691E+00    1.1826361619403771E+01
C    1.6592743737854398E+01    4.0397024528999852E+00    1.1948499912999257E+01
C    1.3311942872139696E+01    2.0646849617694167E+00    1.1158175703840348E+01
C    1.7978322393211357E+01    4.3999878606404765E+00    1.1825082521438292E+01
C    2.0102491251039325E+01    3.1523294761065976E+00    1.1727647109154582E+01
C    1.8610111026339158E+01    5.5677962496799323E+00    1.1694110744451036E+01
C    1.6761921232790659E+01    1.7353820993692209E-01    1.1524924407879221E+01
C    7.2378967416614568E+00    8.0529097306659547E-01    1.3054902533061131E+01
C    1.4497001531857789E+01    1.5821752314900459E-01    1.1162746084267297E+01
C    7.0955606196016197E+00    1.8031051004925598E+00    1.4084676023507338E+01
C    6.0186303012048858E+00    2.6329509302476666E+00    1.3731872914633804E+01
C    1.3160377703868011E+01    4.3042017056261814E+00    1.0699306350441836E+01
C   -4.7318273987049402E+00    1.9131971076739319E+01    1.3375424781530681E+01
C    1.5158303681262964E+01    1.9482448808393071E+00    1.5327090919555349E+01
C    1.5220156123765504E+01    1.9313798030158138E+00    1.4075846865667803E+01
C    6.5487664803527519E+00    1.9155586288380309E+00    1.6446777460259892E+01
C   -4.5288663482716736E+00    1.8759506878151534E+01    1.4737662213599398E+01
C   -4.5813156130038202E+00    1.9702574704506663E+01    1.5757932995567687E+01
C    7.3161565096722567E+00    1.4595178598185243E+00    1.5380623139522360E+01
C    5.4224230199088996E+00    2.7745655332594135E+00    1.6136054644017410E+01
C    5.2121883268906659E+00    3.0876027890295412E+00    1.4754647246754230E+01
C    1.4303650003097182E+01    4.0717425870728308E+00    1.7860344867793707E+01
C    1.8541125325025590E+01    5.6730784208039200E+00    1.7651506177309354E+01
C    1.7715112096057254E+01    2.1873694980972052E+00    1.7450274390206495E+01
C    1.3215067261064537E+01    2.1355053736419483E+00    1.8207913107073498E+01
C    1.2572788243959714E+01    5.4882457460113461E+00    1.9263861342851641E+01
C    1.6545435753356280E+01    4.1254254830960404E+00    1.7444999644283467E+01
C    1.2482909136959289E+01    3.1619340312784878E+00    1.8840172728784808E+01
C    2.0031520500137741E+01    3.2430211498548656E+00    1.7655693651603606E+01
C    1.3043550289900775E+01    4.4038797728995771E+00    1.8641130101252521E+01
C    1.8679304560030136E+01    3.1990743869957248E+00    1.7556693125998983E+01
C    1.7942852906425038E+01    4.4378533589034195E+00    1.7550930402885243E+01
C    1.6655415357380452E+01    2.7703073382531845E-01    1.7912645066520771E+01
C    1.4418985111882547E+01    2.3400406080609645E-01    1.8255022819862333E+01
C    6.3224783466067001E+00    9.0405605688744606E-01    1.7413978710276421E+01
C   -5.2622567022082460E+00    1.9363905521673729E+01    1.7005359768736067E+01
C    4.2577642958190198E+00    1.6939156786150843E+01    2.0210482154666654E+01
C    3.0537192557819535E+00    1.4378625762151138E+01    2.1150583642131124E+01
C    4.4582423552589727E+00    1.4398019500574163E+01    2.1125356578175964E+01
C    5.0034609275221467E+00    1.0706380038990783E+01    2.1536687498055098E+01
C    4.5469607832777958E+00    1.2078573483386437E+01    2.1323856944857159E+01
C    2.8731464457344491E+00    1.6866639726418601E+01    2.0372413048323498E+01
C    5.1883423331402145E+00    1.3213322348972234E+01    2.1176346412266355E+01
C    2.1157358142438625E+00    1.7806199793581445E+01    1.9702710340895830E+01
C    4.8677671320849329E+00    1.7802346997232767E+01    1.9355654108595910E+01
C    5.0947583541680546E+00    1.0620726149083451E+01    7.8555500900274229E+00
C    5.2919654971959504E+00    1.3125723005904756E+01    8.2391708726335970E+00
C    4.6354479018269759E+00    1.1969576741422085E+01    8.1037457644790702E+00
C    3.1442510053199082E+00    1.4279874445172995E+01    8.2665912356665174E+00
C    4.5349486985116449E+00    1.4277935153556573E+01    8.2908546076945768E+00
C    2.1856780646131084E+00    1.7701367300488400E+01    9.7483359882330056E+00
C    2.9791465126313517E+00    1.6777398495856531E+01    9.0356286748952908E+00
C    4.3695054437863465E+00    1.6815568530073822E+01    9.2433722381573933E+00
C    4.9564642286534166E+00    1.7735608472197850E+01    1.0073176725073475E+01
C    2.7391413484592770E+00    1.8611250457130890E+01    1.0541669149093353E+01
C    4.1214167069599634E+00    1.8613260639852022E+01    1.0694191527257491E+01
C    6.1344446619526494E+00    1.1422433397788170E+01    1.2303984182462397E+01
C    5.9204533711367038E+00    9.1239836224141975E+00    1.1521484227932460E+01
C    5.5054677859132344E+00    1.0439788552903867E+01    1.1490464996695440E+01
C    6.9676038882999141E+00    8.7501473243396806E+00    1.2533013265295928E+01
C    6.5647275713799251E+00    7.5382854086879263E+00    1.3138484004361297E+01
C    5.1399499450858359E+00    1.2400937655979009E+01    1.2654739399205511E+01
C    7.5166632880487469E+00    9.7732901219641519E+00    1.3353861149590193E+01
C    7.1014329530906526E+00    1.1097682232417391E+01    1.3239661403965114E+01
C    4.1557375106323615E+00    1.0809494815595158E+01    1.1341584667131972E+01
C    2.7081146778293723E+00    1.2138295413045107E+01    1.2814213516101914E+01
C    3.8753384802760706E+00    1.1961106361751693E+01    1.2107938837682255E+01
C    3.9240132900592335E+00    1.3030384321281561E+01    1.4690721241921260E+01
C    5.1360460667661476E+00    1.2916728974105460E+01    1.3966089557557348E+01
C    7.1223461171691351E+00    1.1691248138665445E+01    1.4578455351514910E+01
C    2.7234653571216123E+00    1.2693042080478534E+01    1.4135975660875117E+01
C    7.4101885837941524E+00    8.2233647206328833E+00    1.5296022927292050E+01
C    7.4721146132515255E+00    1.0606462561195375E+01    1.5489792031676480E+01
C    6.8692836355011364E+00    8.1877384937192659E+00    1.6636745355103361E+01
C    6.1600438338060561E+00    1.2585239544964400E+01    1.4905801285183427E+01
C    7.7607946335710354E+00    9.4623955081508928E+00    1.4760748478041359E+01
C    4.1559243376963932E+00    1.2868606599166675E+01    1.6108853277735204E+01
C    6.8008337009024853E+00    7.2668892761311685E+00    1.4474367535401688E+01
C    5.9177268093793094E+00    1.1511718120426888E+01    1.7166438189743719E+01
C    4.0685989100205893E+00    1.8726380231531692E+01    1.8756440717288609E+01
C    3.2346279618046494E+00    1.2216135323613841E+01    1.6845030148855393E+01
C    2.6885733601238320E+00    1.8728906811063688E+01    1.8921157358714133E+01
C    5.5751172385272199E+00    1.2584364987407548E+01    1.6256038565333878E+01
C    6.9760571887161076E+00    1.0608672891678102E+01    1.6815527737227445E+01
C    4.9717124059118785E+00    1.0823957650778048E+01    1.7950787113568381E+01
C    5.3853981913064315E+00    9.5158964980191172E+00    1.8059511231890042E+01
C    6.6194678761267358E+00    9.3595385812579881E+00    1.7410082885015111E+01
H    6.7748869202737865E+00    4.4942761311950994E+00    2.0821514966051510E+01
H   -7.1935786870367724E-01    8.8583791654678112E+00    1.9412223527961928E+01
H    1.9021541720682931E+00    4.6653760909689632E+00    1.9286214461602384E+01
H   -6.3024076672071150E-01    8.7569418631642311E+00    9.9310630279635568E+00
H    1.9904583668057769E+00    4.5559977580595259E+00    1.0066590619693043E+01
H    6.8711250181441468E+00    4.4119099262406607E+00    8.5698602621702538E+00
H    1.3411399428306512E+00    1.3172093796269627E+01    2.1096020644663110E+01
H    1.4294313079200676E+00    1.3074727796986043E+01    8.2992744654409574E+00
H    9.0793748646027606E+00    8.8026010002384769E+00    2.1046310934701765E+01
H    1.0822783513233709E+01    2.1325558051421454E+00    1.9730061244643441E+01
H    9.1756933754746193E+00    8.7218828537853739E+00    8.3626096877167324E+00
H    1.0940595904887628E+01    2.0464181298926367E+00    9.6350066754705086E+00
H    1.3207283246245090E+01    6.3396444203926041E+00    1.0221681281224470E+01
H    2.0646437081358446E+01    2.2533992042275277E+00    1.1709141932720090E+01
H    1.8059073779794108E+01    6.4645086891974426E+00    1.1668102513936637E+01
H    1.7967911236014128E+01    6.5673355663050614E+00    1.7700991540164249E+01
H    2.0564079958283472E+01    2.3526119468034170E+00    1.7683821835189978E+01
H    1.3105022836561622E+01    6.4236156721567363E+00    1.9153785185948209E+01
H    6.2776495832298131E+00    1.3262858643960101E+01    2.1161732215827264E+01
H    1.0252303041374873E+00    1.7774577134119955E+01    1.9848718323528995E+01
H    5.9277520451498242E+00    1.7841630250982487E+01    1.9242937320314173E+01
H    6.3732532465328946E+00    1.3168045077913671E+01    8.2859638701876541E+00
H    6.0217218564080284E+00    1.7758157973481737E+01    1.0190705039905895E+01
H    1.1087017360119300E+00    1.7686151875213085E+01    9.5746238517611388E+00
N    4.0818125398942771E+00    6.1284309231434824E+00    2.0832108278889731E+01
N    2.7585074414010724E+00    8.0142922895553141E+00    2.1393301507369625E+01
N    5.0904226426048282E+00    8.0802553036332885E+00    2.1642250445930465E+01
N    5.1987718126547824E+00    8.0103178623070299E+00    7.7974123959088395E+00
N    2.8594762360506194E+00    7.9231034681093657E+00    7.9681456534401836E+00
N    4.1875907642539385E+00    6.0388674860904432E+00    8.4857386461933544E+00
N    1.5886861315050547E+00    1.0076068411186839E+01    2.1041023034381180E+01
N    3.8781569430783658E+00    1.0052945114379462E+01    2.1667235127753724E+01
N    3.9709598344180859E+00    9.9566270098106049E+00    7.6982744269719117E+00
N    1.6770934540631046E+00    9.9576362603602675E+00    8.3397779962111613E+00
N    1.6671159704985467E+01    2.7283792682957375E+00    1.2126883044902881E+01
N    1.4269111623005360E+01    2.6822691196996815E+00    1.1808208551221703E+01
N    1.5527051618497563E+01    6.9790732181734327E-01    1.1826637360849066E+01
N    1.5456697715754283E+01    4.7171116000625055E+00    1.1655566434933828E+01
N    1.7851749983859385E+01    8.4286876090414786E-01    1.1664570897474414E+01
N    1.3330835147372371E+01    7.1953730418480255E-01    1.0926377359884002E+01
N    1.4179298399075250E+01    2.7930823150965525E+00    1.7562719904213200E+01
N    1.5403706513799932E+01    7.5463932471636808E-01    1.7571861844810051E+01
N    1.6538197003796434E+01    2.8021826791751088E+00    1.7273858007888204E+01
N    1.3249851774288107E+01    7.6179643925043261E-01    1.8497440823390935E+01
N    1.7767966817217264E+01    9.2068010638531350E-01    1.7759732291606390E+01
N    1.5368759684043955E+01    4.7545768334967677E+00    1.7722760550764278E+01
N    6.1732594650918502E+00    1.0126710303933537E+01    2.1488883365623245E+01
N    6.2737129070644677E+00    1.0042688602381190E+01    7.9311192774945489E+00
S   -1.8256686995664850E+00    7.1217656313155731E+00    1.1785196613447392E+01
S   -1.6966257480801455E-01    4.3360997673039288E+00    1.1833549370084315E+01
S   -1.9128942418595718E+00    7.2119547878821670E+00    1.7549106054287630E+01
S   -2.4564844908042860E-01    4.4186236519252793E+00    1.7529223839500464E+01
S    9.4659127618224819E+00    3.9988821601048463E+00    2.1248496483151484E+01
S    1.1014535086506125E+01    6.7133492042377103E+00    2.0927490738191722E+01
S    9.5816778571332542E+00    3.9709742699064687E+00    8.0998545982976164E+00
S    1.1120115718060365E+01    6.6409667531031138E+00    8.4552569479093282E+00
S    2.1384958572147696E+00    1.5767522353428236E+01    2.1450787907969495E+01
S    5.3326256247594630E+00    1.5972970674152572E+01    2.1143720258200215E+01
S    2.2504516576939371E+00    1.5634238938227726E+01    8.0093261666427971E+00
S    5.4271418410872858E+00    1.5842271140753191E+01    8.3341373459008743E+00
H    3.9430889872191295E+00    8.4195638982732888E+00    3.3610624733964585E+00
H    3.6826081213255670E+00    8.5958825242519463E+00    2.6017480902870862E+01
     &END COORD
     &KIND H
       BASIS_SET DZVP-MOLOPT-GTH
       POTENTIAL GTH-PBE-q1
       &POTENTIAL
 1
  0.2000000000000000E+00 2 -0.4178900440000000E+01  0.7244633100000000E+00
 0
         # Potential name:  GTH-PBE-Q1  for symbol:  H
         # Potential read from the potential filename: POTENTIAL
       &END POTENTIAL
     &END KIND
     &KIND C
       BASIS_SET DZVP-MOLOPT-GTH
       POTENTIAL GTH-PBE-q4
       &POTENTIAL
 2 2
  0.3384712400000000E+00 2 -0.8803673979999999E+01  0.1339210850000000E+01
 2
  0.3025757500000000E+00 1  0.9622486650000001E+01
  0.2915069400000000E+00 0
         # Potential name:  GTH-PBE-Q4  for symbol:  C
         # Potential read from the potential filename: POTENTIAL
       &END POTENTIAL
     &END KIND
     &KIND N
       BASIS_SET DZVP-MOLOPT-GTH
       POTENTIAL GTH-PBE-q5
       &POTENTIAL
 2 3
  0.2837905100000000E+00 2 -0.1241522559000000E+02  0.1868095920000000E+01
 2
  0.2554050000000000E+00 1  0.1363026257000000E+02
  0.2454945300000000E+00 0
         # Potential name:  GTH-PBE-Q5  for symbol:  N
         # Potential read from the potential filename: POTENTIAL
       &END POTENTIAL
     &END KIND
     &KIND B
       BASIS_SET DZVP-MOLOPT-SR-GTH
       POTENTIAL GTH-PBE-q3
       &POTENTIAL
 2 1
  0.4189914500000000E+00 2 -0.5859461710000000E+01  0.9037564300000001E+00
 2
  0.3713204600000000E+00 1  0.6297280180000000E+01
  0.3645630800000000E+00 0
         # Potential name:  GTH-PBE-Q3  for symbol:  B
         # Potential read from the potential filename: POTENTIAL
       &END POTENTIAL
     &END KIND
     &KIND S
       BASIS_SET DZVP-MOLOPT-GTH
       POTENTIAL GTH-PBE-q6
       &POTENTIAL
 2 4
  0.4200000000000000E+00 1 -0.5986260380000000E+01
 2
  0.3648203500000000E+00 2  0.1314354448000000E+02 -0.4241830450000000E+01
  0.5476179570000000E+01
  0.4094804800000000E+00 1  0.3700890570000000E+01
         # Potential name:  GTH-PBE-Q6  for symbol:  S
         # Potential read from the potential filename: POTENTIAL
       &END POTENTIAL
     &END KIND
     &TOPOLOGY
       COORD_FILE_NAME cof.xyz
       COORD_FILE_FORMAT  XYZ
       NUMBER_OF_ATOMS  288
       MULTIPLE_UNIT_CELL  1 1 1
     &END TOPOLOGY
   &END SUBSYS
 &END FORCE_EVAL
