 $CONTRL SCFTYP=RHF COORD=UNIQUE UNITS=BOHR ISPHER=1 $END
 $SYSTEM MEMORY=300000000 TIMLIM=100000000 $END
 $BASIS GBASIS=ACCD $END
 $SCF DIRSCF=.TRUE. MVOQ=0 $END
 $DATA
...molecule's name:  C6H6                                              
Dnh 2

C     6.0    -2.660620000   0.000000000   0.000000000
C     6.0     1.330310000  -2.304170000   0.000000000
H     1.0    -4.728470000   0.000000000   0.000000000
H     1.0    -2.364220000  -4.094990000   0.000000000
 $END
