&CONTROL
  calculation   = 'scf',
  pseudo_dir    = '/util/academic/espresso/6.2.1/pseudopotentials/upf_files/',
  outdir        = './',
  prefix        = 'x0',
  disk_io       = 'low',
/

&SYSTEM
  ibrav       = 0,
  nat         = 25,
  ntyp        = 4,
  nspin       = 1,
  nbnd        = 100
  ecutwfc     = 30,
  ecutrho     = 300,
  occupations = 'smearing',
  smearing    = 'gaussian',
  degauss     = 0.01,
  nosym       = true,
/

&ELECTRONS
  electron_maxstep = 300,
  conv_thr         = 1.D-4,
  mixing_beta      = 0.30,
/

ATOMIC_SPECIES
C  12.010     C.pbe-n-rrkjus_psl.0.1.UPF 
H  1.007      H.pbe-rrkjus_psl.0.1.UPF 
Ir 192.217    Ir.pbe-n-rrkjus_psl.0.2.3.UPF
N  14.006     N.pbe-n-rrkjus_psl.0.1.UPF

K_POINTS gamma

CELL_PARAMETERS  angstrom
        7.0652699470        0.0000000000         0.0000000000
        0.0000000000        7.0652699470         0.0000000000
        0.0000000000        0.0000000000         7.0652699470 

ATOMIC_POSITIONS (angstrom)
Ir       0.000850572   0.030198347   0.009745547
N        0.946277170  -1.462315083  -1.215813449
N       -1.726781417   0.014248677  -1.230685622
N        0.880309348   1.526130129  -1.076749790
C       -0.527998946   1.593455992   1.068472284
C        1.476241835  -0.392949950   1.254733206
C        1.905517822  -1.941296810  -0.479948249
C        2.221219337  -1.412275410   0.795645342
C       -1.039781655  -1.267026399   1.028618064
C        0.568514390   2.722334820  -0.719384544
C       -0.030871464   2.773911552   0.626326167
C       -2.529700351  -0.891254373  -0.786176938
C       -2.180514855  -1.709605841   0.366125130
H        1.791104403   0.209284336   2.156651834
H        2.931139614  -1.906605747   1.481636557
H        2.645286825  -2.751585523  -0.758640152
H        0.719479867   3.623015422  -1.370324257
H       -0.107418885   3.821471788   1.069611829
H       -0.990874599   1.599654776   2.045570418
H       -2.848569110  -2.474413648   0.833304279
H       -0.741208337  -1.732322429   2.007890516
H       -3.518573565  -0.949217164  -1.340957847
H        0.842489146  -1.946924675  -2.129887700
H        1.306242759   1.363178689  -1.970211616
H       -1.941346784   0.552337026  -2.029904934


