&CONTROL
  calculation   = 'scf',
  pseudo_dir    = '/util/academic/espresso/6.2.1/pseudopotentials/upf_files/',
  outdir        = './',
  prefix        = 'x0',
  disk_io       = 'low',
/

&SYSTEM
  ibrav       = 0,
  nat         = 25,
  ntyp        = 4,
  nspin       = 1,
  nbnd        = 100
  ecutwfc     = 30,
  ecutrho     = 300,
  occupations = 'smearing',
  smearing    = 'gaussian',
  degauss     = 0.01,
  nosym       = true,
/

&ELECTRONS
  electron_maxstep = 300,
  conv_thr         = 1.D-4,
  mixing_beta      = 0.30,
/

ATOMIC_SPECIES
C  12.010     C.pbe-n-rrkjus_psl.0.1.UPF 
H  1.007      H.pbe-rrkjus_psl.0.1.UPF 
Ir 192.217    Ir.pbe-n-rrkjus_psl.0.2.3.UPF
N  14.006     N.pbe-n-rrkjus_psl.0.1.UPF

K_POINTS gamma

CELL_PARAMETERS  angstrom
        7.0652699470        0.0000000000         0.0000000000
        0.0000000000        7.0652699470         0.0000000000
        0.0000000000        0.0000000000         7.0652699470 

ATOMIC_POSITIONS (angstrom)
Ir       0.005985694   0.028410966   0.007954744
N        0.960185229  -1.456825828  -1.217609157
N       -1.711520878   0.028245523  -1.218598733
N        0.837887674   1.529178712  -1.073070352
C       -0.541690164   1.580483944   1.071134168
C        1.470217200  -0.397796864   1.275188005
C        1.934329587  -1.932744594  -0.465570480
C        2.195063287  -1.411747925   0.810134217
C       -1.041327946  -1.268597121   1.029496176
C        0.565536660   2.733835366  -0.718872072
C       -0.041378918   2.784354671   0.643750326
C       -2.538218085  -0.899706866  -0.811434017
C       -2.177991928  -1.725194687   0.342747301
H        1.735174528   0.251607647   2.176983047
H        2.886831842  -1.875789778   1.478479091
H        2.576082920  -2.742239892  -0.821882579
H        0.708720502   3.675906027  -1.357742547
H       -0.163548513   3.771833307   1.035784827
H       -1.059656566   1.638812242   2.030433272
H       -2.840114609  -2.379637848   0.871661836
H       -0.838450477  -1.728586607   1.990595188
H       -3.489981797  -0.930736562  -1.348498724
H        0.903865001  -1.943259107  -2.088660242
H        1.256467594   1.312845938  -1.998148855
H       -1.929265088   0.532847615  -2.091076969


