&CONTROL
  calculation   = 'scf',
  pseudo_dir    = '/util/academic/espresso/6.2.1/pseudopotentials/upf_files/',
  outdir        = './',
  prefix        = 'x0',
  disk_io       = 'low',
/

&SYSTEM
  ibrav       = 0,
  nat         = 25,
  ntyp        = 4,
  nspin       = 1,
  nbnd        = 100
  ecutwfc     = 30,
  ecutrho     = 300,
  occupations = 'smearing',
  smearing    = 'gaussian',
  degauss     = 0.01,
  nosym       = true,
/

&ELECTRONS
  electron_maxstep = 300,
  conv_thr         = 1.D-4,
  mixing_beta      = 0.30,
/

ATOMIC_SPECIES
C  12.010     C.pbe-n-rrkjus_psl.0.1.UPF 
H  1.007      H.pbe-rrkjus_psl.0.1.UPF 
Ir 192.217    Ir.pbe-n-rrkjus_psl.0.2.3.UPF
N  14.006     N.pbe-n-rrkjus_psl.0.1.UPF

K_POINTS gamma

CELL_PARAMETERS  angstrom
        7.0652699470        0.0000000000         0.0000000000
        0.0000000000        7.0652699470         0.0000000000
        0.0000000000        0.0000000000         7.0652699470 

ATOMIC_POSITIONS (angstrom)
Ir       0.004301651   0.029305221   0.008411764
N        0.954932459  -1.458770272  -1.218082216
N       -1.717414474   0.024590610  -1.223776520
N        0.851704896   1.529097862  -1.073227216
C       -0.531736021   1.583735087   1.072232569
C        1.472679720  -0.397835598   1.267979964
C        1.923769562  -1.934709589  -0.470591905
C        2.203714439  -1.410683196   0.804005470
C       -1.047203836  -1.273477795   1.032597852
C        0.567092936   2.729022210  -0.719869387
C       -0.038154987   2.780001702   0.639430326
C       -2.534463333  -0.895820561  -0.802870687
C       -2.179273485  -1.720609550   0.350165359
H        1.757664546   0.249232714   2.178011371
H        2.902308585  -1.885701102   1.482201049
H        2.605054852  -2.746443133  -0.799519006
H        0.715241691   3.682366286  -1.372804174
H       -0.143422359   3.797594195   1.045259212
H       -1.031969212   1.629181063   2.028659441
H       -2.847444264  -2.409879897   0.866468925
H       -0.805345408  -1.730246535   1.995183790
H       -3.506949945  -0.932411864  -1.349339728
H        0.887035467  -1.946374178  -2.093218808
H        1.272713167   1.326196664  -1.985447316
H       -1.916208348   0.497315313  -2.082314316


