&CONTROL
  calculation   = 'scf',
  pseudo_dir    = '/util/academic/espresso/6.2.1/pseudopotentials/upf_files/',
  outdir        = './',
  prefix        = 'x0',
  disk_io       = 'low',
/

&SYSTEM
  ibrav       = 0,
  nat         = 25,
  ntyp        = 4,
  nspin       = 1,
  nbnd        = 100
  ecutwfc     = 30,
  ecutrho     = 300,
  occupations = 'smearing',
  smearing    = 'gaussian',
  degauss     = 0.01,
  nosym       = true,
/

&ELECTRONS
  electron_maxstep = 300,
  conv_thr         = 1.D-4,
  mixing_beta      = 0.30,
/

ATOMIC_SPECIES
C  12.010     C.pbe-n-rrkjus_psl.0.1.UPF 
H  1.007      H.pbe-rrkjus_psl.0.1.UPF 
Ir 192.217    Ir.pbe-n-rrkjus_psl.0.2.3.UPF
N  14.006     N.pbe-n-rrkjus_psl.0.1.UPF

K_POINTS gamma

CELL_PARAMETERS  angstrom
        7.0652699470        0.0000000000         0.0000000000
        0.0000000000        7.0652699470         0.0000000000
        0.0000000000        0.0000000000         7.0652699470 

ATOMIC_POSITIONS (angstrom)
Ir       0.008796952   0.025481095   0.008169236
N        1.007497120  -1.432785071  -1.199761524
N       -1.681195611   0.045657614  -1.195924486
N        0.827612518   1.514250944  -1.115088143
C       -0.589880878   1.586861174   1.073517161
C        1.438173017  -0.364252203   1.300207474
C        1.985236969  -1.916762265  -0.450401372
C        2.150631698  -1.430813951   0.864279564
C       -1.044574957  -1.251214920   0.983924787
C        0.528306347   2.703762693  -0.695570869
C       -0.045922547   2.788816185   0.624898200
C       -2.540551524  -0.910682977  -0.807288085
C       -2.150129985  -1.711485460   0.292240679
H        1.774378552   0.250338243   2.151146136
H        2.902888095  -1.986140824   1.511992092
H        2.485083135  -2.788061461  -0.933171522
H        0.672737116   3.557106260  -1.322860245
H       -0.330085253   3.779813241   1.124491852
H       -1.034097399   1.693871690   2.050142771
H       -2.831293622  -2.341715611   0.869018442
H       -0.935305217  -1.696626877   1.987245690
H       -3.472868488  -1.002608747  -1.412457931
H        0.928805681  -1.904718579  -2.142608056
H        1.138911185   1.359886997  -2.066885007
H       -1.914391376   0.478981908  -2.068391530


