&CONTROL
  calculation   = 'scf',
  pseudo_dir    = '/util/academic/espresso/6.2.1/pseudopotentials/upf_files/',
  outdir        = './',
  prefix        = 'x0',
  disk_io       = 'low',
/

&SYSTEM
  ibrav       = 0,
  nat         = 25,
  ntyp        = 4,
  nspin       = 1,
  nbnd        = 100
  ecutwfc     = 30,
  ecutrho     = 300,
  occupations = 'smearing',
  smearing    = 'gaussian',
  degauss     = 0.01,
  nosym       = true,
/

&ELECTRONS
  electron_maxstep = 300,
  conv_thr         = 1.D-4,
  mixing_beta      = 0.30,
/

ATOMIC_SPECIES
C  12.010     C.pbe-n-rrkjus_psl.0.1.UPF 
H  1.007      H.pbe-rrkjus_psl.0.1.UPF 
Ir 192.217    Ir.pbe-n-rrkjus_psl.0.2.3.UPF
N  14.006     N.pbe-n-rrkjus_psl.0.1.UPF

K_POINTS gamma

CELL_PARAMETERS  angstrom
        7.0652699470        0.0000000000         0.0000000000
        0.0000000000        7.0652699470         0.0000000000
        0.0000000000        0.0000000000         7.0652699470 

ATOMIC_POSITIONS (angstrom)
Ir       0.007695356   0.024374764   0.005791537
N        1.049128750  -1.405688316  -1.184550613
N       -1.674847861   0.042798507  -1.179287599
N        0.814947342   1.499190336  -1.124581122
C       -0.597944786   1.614857069   1.075620474
C        1.447390033  -0.357518500   1.291820601
C        2.000720164  -1.909541603  -0.454733426
C        2.141479498  -1.458146793   0.920843794
C       -1.072295440  -1.249814508   0.951610943
C        0.494346354   2.678841505  -0.664346914
C       -0.047856749   2.784942975   0.602181974
C       -2.526666359  -0.903054142  -0.814982963
C       -2.137324038  -1.698941736   0.293935317
H        1.858639111   0.275147984   2.165914211
H        2.824611473  -1.997907659   1.492631500
H        2.531623260  -2.783892097  -0.886981195
H        0.654268431   3.551667413  -1.393521114
H       -0.343339147   3.683581750   1.116264025
H       -0.991319002   1.671756201   2.090564897
H       -2.773675625  -2.293086263   0.821072163
H       -0.950626748  -1.622808447   2.011678622
H       -3.426736051  -1.100819435  -1.449042490
H        0.892937262  -1.931191463  -2.022310220
H        1.079809130   1.478372004  -2.139424098
H       -1.901218512   0.464635278  -2.108772456


