&CONTROL
  calculation   = 'scf',
  pseudo_dir    = '/util/academic/espresso/6.2.1/pseudopotentials/upf_files/',
  outdir        = './',
  prefix        = 'x0',
  disk_io       = 'low',
/

&SYSTEM
  ibrav       = 0,
  nat         = 25,
  ntyp        = 4,
  nspin       = 1,
  nbnd        = 100
  ecutwfc     = 30,
  ecutrho     = 300,
  occupations = 'smearing',
  smearing    = 'gaussian',
  degauss     = 0.01,
  nosym       = true,
/

&ELECTRONS
  electron_maxstep = 300,
  conv_thr         = 1.D-4,
  mixing_beta      = 0.30,
/

ATOMIC_SPECIES
C  12.010     C.pbe-n-rrkjus_psl.0.1.UPF 
H  1.007      H.pbe-rrkjus_psl.0.1.UPF 
Ir 192.217    Ir.pbe-n-rrkjus_psl.0.2.3.UPF
N  14.006     N.pbe-n-rrkjus_psl.0.1.UPF

K_POINTS gamma

CELL_PARAMETERS  angstrom
        7.0652699470        0.0000000000         0.0000000000
        0.0000000000        7.0652699470         0.0000000000
        0.0000000000        0.0000000000         7.0652699470 

ATOMIC_POSITIONS (angstrom)
Ir       0.006779952   0.024559193   0.005715787
N        1.070382070  -1.388714473  -1.172045250
N       -1.677227150   0.036991137  -1.173191755
N        0.809083536   1.493084367  -1.134430556
C       -0.592920663   1.627546817   1.076125961
C        1.455306459  -0.354630597   1.285431093
C        2.005110995  -1.910378604  -0.451628758
C        2.138022923  -1.474991805   0.945352647
C       -1.084690014  -1.250665823   0.945137396
C        0.495376530   2.674355118  -0.666968364
C       -0.057546914   2.783248442   0.597032743
C       -2.518629241  -0.899945089  -0.825489793
C       -2.142341691  -1.688400920   0.289342787
H        1.849431719   0.231225904   2.138502098
H        2.877334975  -2.004859924   1.537944423
H        2.535411709  -2.772143034  -0.854386858
H        0.622402308   3.474074341  -1.362055254
H       -0.310773915   3.639338961   1.090364530
H       -0.965115462   1.658147459   2.047041620
H       -2.800204363  -2.333352812   0.819704369
H       -0.945709493  -1.572399125   1.983053219
H       -3.381897671  -1.169218761  -1.464996205
H        0.859717602  -1.925076336  -2.010871936
H        1.045816000   1.541093327  -2.132941144
H       -1.888043477   0.469208973  -2.109741609


