&CONTROL
  calculation   = 'scf',
  pseudo_dir    = '/util/academic/espresso/6.2.1/pseudopotentials/upf_files/',
  outdir        = './',
  prefix        = 'x0',
  disk_io       = 'low',
/

&SYSTEM
  ibrav       = 0,
  nat         = 25,
  ntyp        = 4,
  nspin       = 1,
  nbnd        = 100
  ecutwfc     = 30,
  ecutrho     = 300,
  occupations = 'smearing',
  smearing    = 'gaussian',
  degauss     = 0.01,
  nosym       = true,
/

&ELECTRONS
  electron_maxstep = 300,
  conv_thr         = 1.D-4,
  mixing_beta      = 0.30,
/

ATOMIC_SPECIES
C  12.010     C.pbe-n-rrkjus_psl.0.1.UPF 
H  1.007      H.pbe-rrkjus_psl.0.1.UPF 
Ir 192.217    Ir.pbe-n-rrkjus_psl.0.2.3.UPF
N  14.006     N.pbe-n-rrkjus_psl.0.1.UPF

K_POINTS gamma

CELL_PARAMETERS  angstrom
        7.0652699470        0.0000000000         0.0000000000
        0.0000000000        7.0652699470         0.0000000000
        0.0000000000        0.0000000000         7.0652699470 

ATOMIC_POSITIONS (angstrom)
Ir       0.007476625   0.024414922   0.005612794
N        1.060071200  -1.397499785  -1.178741991
N       -1.675401080   0.040012134  -1.175782267
N        0.812230829   1.495856474  -1.129241114
C       -0.596053198   1.621626134   1.076174048
C        1.451245245  -0.356337851   1.288357320
C        2.003286256  -1.909608546  -0.454033270
C        2.139959077  -1.466364495   0.933684062
C       -1.078717724  -1.250325035   0.947397697
C        0.487483062   2.676334710  -0.661001025
C       -0.051937417   2.784617096   0.599245374
C       -2.522411979  -0.901120848  -0.819846319
C       -2.139122916  -1.694049313   0.292069189
H        1.858314816   0.256588978   2.153920221
H        2.847807301  -2.000377082   1.510726286
H        2.532395379  -2.778489692  -0.872909129
H        0.639905668   3.515708969  -1.381780074
H       -0.327596441   3.652181010   1.100465883
H       -0.972842815   1.665849300   2.062196892
H       -2.779667763  -2.304659039   0.817779910
H       -0.949043956  -1.597392782   1.999199982
H       -3.407419180  -1.137159464  -1.458853144
H        0.877694016  -1.929069411  -2.011168286
H        1.063011032   1.510764848  -2.139113216
H       -1.895727341   0.467537324  -2.114163281


