&CONTROL
  calculation   = 'scf',
  pseudo_dir    = '/util/academic/espresso/6.2.1/pseudopotentials/upf_files/',
  outdir        = './',
  prefix        = 'x0',
  disk_io       = 'low',
/

&SYSTEM
  ibrav       = 0,
  nat         = 25,
  ntyp        = 4,
  nspin       = 1,
  nbnd        = 100
  ecutwfc     = 30,
  ecutrho     = 300,
  occupations = 'smearing',
  smearing    = 'gaussian',
  degauss     = 0.01,
  nosym       = true,
/

&ELECTRONS
  electron_maxstep = 300,
  conv_thr         = 1.D-4,
  mixing_beta      = 0.30,
/

ATOMIC_SPECIES
C  12.010     C.pbe-n-rrkjus_psl.0.1.UPF 
H  1.007      H.pbe-rrkjus_psl.0.1.UPF 
Ir 192.217    Ir.pbe-n-rrkjus_psl.0.2.3.UPF
N  14.006     N.pbe-n-rrkjus_psl.0.1.UPF

K_POINTS gamma

CELL_PARAMETERS  angstrom
        7.0652699470        0.0000000000         0.0000000000
        0.0000000000        7.0652699470         0.0000000000
        0.0000000000        0.0000000000         7.0652699470 

ATOMIC_POSITIONS (angstrom)
Ir       0.008742193   0.024666352   0.007687777
N        1.017649311  -1.426891518  -1.196317381
N       -1.678172910   0.046399340  -1.191928320
N        0.824492691   1.510203883  -1.115987039
C       -0.594146116   1.592931574   1.074609729
C        1.431900889  -0.355643206   1.300083036
C        1.990420328  -1.914078057  -0.451200030
C        2.147265015  -1.436625576   0.877939445
C       -1.050584009  -1.250265694   0.974726881
C        0.519565199   2.695218127  -0.685966189
C       -0.044027247   2.786452320   0.618220176
C       -2.537356388  -0.909732601  -0.806770059
C       -2.144004245  -1.703688674   0.284557394
H        1.806287719   0.269481971   2.161698882
H        2.889403840  -1.997557591   1.507317159
H        2.489698911  -2.794356593  -0.930275658
H        0.673191479   3.573185825  -1.353083585
H       -0.347481985   3.773838913   1.136843776
H       -1.004780005   1.701726156   2.061506967
H       -2.829954103  -2.353274756   0.854681396
H       -0.942538279  -1.683797368   2.003153841
H       -3.470154812  -1.022674127  -1.425030266
H        0.922789616  -1.921790418  -2.111791670
H        1.124489241   1.385058252  -2.090462081
H       -1.909433133   0.466486945  -2.070662190


