&CONTROL
  calculation   = 'scf',
  pseudo_dir    = '/util/academic/espresso/6.2.1/pseudopotentials/upf_files/',
  outdir        = './',
  prefix        = 'x0',
  disk_io       = 'low',
/

&SYSTEM
  ibrav       = 0,
  nat         = 25,
  ntyp        = 4,
  nspin       = 1,
  nbnd        = 100
  ecutwfc     = 30,
  ecutrho     = 300,
  occupations = 'smearing',
  smearing    = 'gaussian',
  degauss     = 0.01,
  nosym       = true,
/

&ELECTRONS
  electron_maxstep = 300,
  conv_thr         = 1.D-4,
  mixing_beta      = 0.30,
/

ATOMIC_SPECIES
C  12.010     C.pbe-n-rrkjus_psl.0.1.UPF 
H  1.007      H.pbe-rrkjus_psl.0.1.UPF 
Ir 192.217    Ir.pbe-n-rrkjus_psl.0.2.3.UPF
N  14.006     N.pbe-n-rrkjus_psl.0.1.UPF

K_POINTS gamma

CELL_PARAMETERS  angstrom
        7.0652699470        0.0000000000         0.0000000000
        0.0000000000        7.0652699470         0.0000000000
        0.0000000000        0.0000000000         7.0652699470 

ATOMIC_POSITIONS (angstrom)
Ir       0.004982855   0.025401380   0.007757960
N        1.103155449  -1.356480270  -1.148908345
N       -1.688911296   0.022502290  -1.173572707
N        0.794789183   1.485566339  -1.157745066
C       -0.568528993   1.633618351   1.069036462
C        1.463359577  -0.366442733   1.285593793
C        2.010374497  -1.923135770  -0.424287685
C        2.164985866  -1.488629053   0.925796646
C       -1.093244377  -1.248221920   0.948696056
C        0.498819243   2.681982945  -0.672381206
C       -0.077000064   2.777205237   0.593847689
C       -2.505813803  -0.912041454  -0.853766118
C       -2.176572915  -1.676759268   0.277547136
H        1.782264459   0.148327686   2.155999965
H        2.928023100  -1.966946430   1.623901781
H        2.586498217  -2.781764452  -0.775701086
H        0.568909591   3.475638565  -1.388218864
H       -0.238130206   3.773885580   1.113165539
H       -1.035155137   1.615114721   2.118011164
H       -2.859692702  -2.463133959   0.755121850
H       -0.907190920  -1.524917952   1.971609833
H       -3.277877502  -1.256250066  -1.503308311
H        0.818873753  -1.832452403  -2.047126136
H        1.004551791   1.608116117  -2.148010847
H       -1.847095015   0.478051434  -2.048087229


