&CONTROL
  calculation   = 'scf',
  pseudo_dir    = '/util/academic/espresso/6.2.1/pseudopotentials/upf_files/',
  outdir        = './',
  prefix        = 'x0',
  disk_io       = 'low',
/

&SYSTEM
  ibrav       = 0,
  nat         = 25,
  ntyp        = 4,
  nspin       = 1,
  nbnd        = 100
  ecutwfc     = 30,
  ecutrho     = 300,
  occupations = 'smearing',
  smearing    = 'gaussian',
  degauss     = 0.01,
  nosym       = true,
/

&ELECTRONS
  electron_maxstep = 300,
  conv_thr         = 1.D-4,
  mixing_beta      = 0.30,
/

ATOMIC_SPECIES
C  12.010     C.pbe-n-rrkjus_psl.0.1.UPF 
H  1.007      H.pbe-rrkjus_psl.0.1.UPF 
Ir 192.217    Ir.pbe-n-rrkjus_psl.0.2.3.UPF
N  14.006     N.pbe-n-rrkjus_psl.0.1.UPF

K_POINTS gamma

CELL_PARAMETERS  angstrom
        7.0652699470        0.0000000000         0.0000000000
        0.0000000000        7.0652699470         0.0000000000
        0.0000000000        0.0000000000         7.0652699470 

ATOMIC_POSITIONS (angstrom)
Ir       0.005529869   0.025037412   0.007243464
N        1.097129249  -1.363494567  -1.152962456
N       -1.685436408   0.026531299  -1.172017609
N        0.799195236   1.486705294  -1.151565888
C       -0.574887169   1.635408976   1.070621603
C        1.454105645  -0.366493035   1.284982479
C        2.009605741  -1.918267712  -0.433145738
C        2.157468599  -1.483503107   0.930634268
C       -1.097197774  -1.250530607   0.945506177
C        0.501104830   2.680874672  -0.672826141
C       -0.071684612   2.777518048   0.594228923
C       -2.508221400  -0.905972768  -0.845968026
C       -2.163991554  -1.676842921   0.280198464
H        1.800224923   0.159888971   2.130891478
H        2.934581850  -1.988814436   1.614983603
H        2.569146547  -2.772930821  -0.793314721
H        0.578681408   3.440239621  -1.357749959
H       -0.259673028   3.731616946   1.107346079
H       -1.009637009   1.626991763   2.097212488
H       -2.859235519  -2.440338385   0.789809816
H       -0.919915347  -1.525926184   1.961159002
H       -3.296181689  -1.239347247  -1.485718273
H        0.821910793  -1.869761235  -2.048225822
H        1.009844015   1.601476754  -2.132255690
H       -1.855798791   0.471419122  -2.059244844


