&CONTROL
  calculation   = 'scf',
  pseudo_dir    = '/util/academic/espresso/6.2.1/pseudopotentials/upf_files/',
  outdir        = './',
  prefix        = 'x0',
  disk_io       = 'low',
/

&SYSTEM
  ibrav       = 0,
  nat         = 25,
  ntyp        = 4,
  nspin       = 1,
  nbnd        = 100
  ecutwfc     = 30,
  ecutrho     = 300,
  occupations = 'smearing',
  smearing    = 'gaussian',
  degauss     = 0.01,
  nosym       = true,
/

&ELECTRONS
  electron_maxstep = 300,
  conv_thr         = 1.D-4,
  mixing_beta      = 0.30,
/

ATOMIC_SPECIES
C  12.010     C.pbe-n-rrkjus_psl.0.1.UPF 
H  1.007      H.pbe-rrkjus_psl.0.1.UPF 
Ir 192.217    Ir.pbe-n-rrkjus_psl.0.2.3.UPF
N  14.006     N.pbe-n-rrkjus_psl.0.1.UPF

K_POINTS gamma

CELL_PARAMETERS  angstrom
        7.0652699470        0.0000000000         0.0000000000
        0.0000000000        7.0652699470         0.0000000000
        0.0000000000        0.0000000000         7.0652699470 

ATOMIC_POSITIONS (angstrom)
Ir       0.003802128   0.045601368   0.029403186
N        1.234765585  -1.350804114  -1.122509457
N       -1.643166867   0.054670611  -1.290274566
N        0.729629730   1.564998230  -1.182225736
C       -0.641666403   1.576458389   1.121316488
C        1.477852800  -0.397036055   1.332659757
C        2.026451091  -2.005153569  -0.324479350
C        2.154501398  -1.509037016   1.044596608
C       -1.100534662  -1.399825687   0.853338792
C        0.466613402   2.716569327  -0.715482169
C       -0.170641842   2.787385801   0.605980319
C       -2.433576083  -0.957184463  -1.025621183
C       -2.182312177  -1.777923335   0.099618850
H        1.829428221   0.110754734   2.280854668
H        2.904517538  -1.967628281   1.730175067
H        2.629194055  -2.797147381  -0.798952414
H        0.659581881   3.591284493  -1.430439844
H       -0.179279464   3.737130698   1.125739917
H       -1.248168766   1.560913040   2.054908860
H       -2.895406758  -2.539324311   0.391343142
H       -0.864052526  -1.773270065   1.839201806
H       -3.369040999  -1.115748224  -1.593087215
H        1.028123238  -1.666479808  -2.098352774
H        0.920551405   1.475148352  -2.137265626
H       -1.799069015   0.458387770  -2.185708564


