&CONTROL
  calculation   = 'scf',
  pseudo_dir    = '/util/academic/espresso/6.2.1/pseudopotentials/upf_files/',
  outdir        = './',
  prefix        = 'x0',
  disk_io       = 'low',
/

&SYSTEM
  ibrav       = 0,
  nat         = 25,
  ntyp        = 4,
  nspin       = 1,
  nbnd        = 100
  ecutwfc     = 30,
  ecutrho     = 300,
  occupations = 'smearing',
  smearing    = 'gaussian',
  degauss     = 0.01,
  nosym       = true,
/

&ELECTRONS
  electron_maxstep = 300,
  conv_thr         = 1.D-4,
  mixing_beta      = 0.30,
/

ATOMIC_SPECIES
C  12.010     C.pbe-n-rrkjus_psl.0.1.UPF 
H  1.007      H.pbe-rrkjus_psl.0.1.UPF 
Ir 192.217    Ir.pbe-n-rrkjus_psl.0.2.3.UPF
N  14.006     N.pbe-n-rrkjus_psl.0.1.UPF

K_POINTS gamma

CELL_PARAMETERS  angstrom
        7.0652699470        0.0000000000         0.0000000000
        0.0000000000        7.0652699470         0.0000000000
        0.0000000000        0.0000000000         7.0652699470 

ATOMIC_POSITIONS (angstrom)
Ir      -0.007701407   0.027059670   0.001978121
N        0.924439210  -1.534376364  -1.169530420
N       -1.750170119  -0.036680439  -1.141095623
N        1.012616368   1.526153525  -1.134248411
C       -0.511578826   1.581982008   1.054692562
C        1.522805907  -0.315550520   1.121727489
C        1.952192066  -1.961082598  -0.543321587
C        2.280162887  -1.363655837   0.718486918
C       -1.051664802  -1.153356102   1.092896002
C        0.588727232   2.649483393  -0.628191801
C       -0.052462401   2.824398982   0.617486705
C       -2.571591336  -0.929525815  -0.713214489
C       -2.213700759  -1.632316587   0.480888350
H        1.691709670   0.186021036   2.063278380
H        3.046934309  -1.821923971   1.317369445
H        2.315369553  -2.856690725  -0.993167996
H        0.692915864   3.637902723  -1.227419369
H       -0.140188226   3.721172367   1.231072419
H       -1.005464027   1.508846874   2.023349531
H       -2.573425053  -2.702737395   0.514328351
H       -0.724615874  -1.693211580   1.959832496
H       -3.529846010  -1.077947805  -1.190991147
H        0.670712774  -1.987281170  -1.985768563
H        1.293556647   1.538357207  -2.101193144
H       -2.185936847   0.580322481  -1.784399520


