&CONTROL
  calculation   = 'scf',
  pseudo_dir    = '/util/academic/espresso/6.2.1/pseudopotentials/upf_files/',
  outdir        = './',
  prefix        = 'x0',
  disk_io       = 'low',
/

&SYSTEM
  ibrav       = 0,
  nat         = 25,
  ntyp        = 4,
  nspin       = 1,
  nbnd        = 100
  ecutwfc     = 30,
  ecutrho     = 300,
  occupations = 'smearing',
  smearing    = 'gaussian',
  degauss     = 0.01,
  nosym       = true,
/

&ELECTRONS
  electron_maxstep = 300,
  conv_thr         = 1.D-4,
  mixing_beta      = 0.30,
/

ATOMIC_SPECIES
C  12.010     C.pbe-n-rrkjus_psl.0.1.UPF 
H  1.007      H.pbe-rrkjus_psl.0.1.UPF 
Ir 192.217    Ir.pbe-n-rrkjus_psl.0.2.3.UPF
N  14.006     N.pbe-n-rrkjus_psl.0.1.UPF

K_POINTS gamma

CELL_PARAMETERS  angstrom
        7.0652699470        0.0000000000         0.0000000000
        0.0000000000        7.0652699470         0.0000000000
        0.0000000000        0.0000000000         7.0652699470 

ATOMIC_POSITIONS (angstrom)
Ir       0.000200832   0.005628909  -0.007758920
N        0.952557557  -1.550780337  -1.139596582
N       -1.801949803  -0.054444019  -1.125205879
N        0.919560113   1.566336889  -1.138893398
C       -0.491794261   1.578316691   1.087674211
C        1.574587448  -0.383184348   1.078774672
C        2.039285981  -1.960338766  -0.562777018
C        2.344447128  -1.300517602   0.612032972
C       -1.133295515  -1.206646469   1.092466271
C        0.657949965   2.749617024  -0.627104632
C       -0.049407289   2.828935650   0.617604886
C       -2.711687023  -0.807974499  -0.622722283
C       -2.342105429  -1.512255354   0.595899492
H        1.817273906   0.170791804   2.015445299
H        3.156584085  -1.571148778   1.306272432
H        2.746511750  -2.715667584  -0.919976743
H        0.947690759   3.586554877  -1.153963312
H       -0.246335955   3.774531936   1.138022624
H       -1.152383804   1.541827989   1.992657292
H       -2.281395953  -2.724269137   1.069710160
H       -0.804661633  -1.578105444   2.092052095
H       -3.562287024  -0.895292501  -1.288468709
H        0.617089221  -2.150032300  -1.932012997
H        1.246872821   1.651315187  -2.137196402
H       -2.163365881   0.543454621  -1.909982354


