&CONTROL
  calculation   = 'scf',
  pseudo_dir    = '/util/academic/espresso/6.2.1/pseudopotentials/upf_files/',
  outdir        = './',
  prefix        = 'x0',
  disk_io       = 'low',
/

&SYSTEM
  ibrav       = 0,
  nat         = 25,
  ntyp        = 4,
  nspin       = 1,
  nbnd        = 100
  ecutwfc     = 30,
  ecutrho     = 300,
  occupations = 'smearing',
  smearing    = 'gaussian',
  degauss     = 0.01,
  nosym       = true,
/

&ELECTRONS
  electron_maxstep = 300,
  conv_thr         = 1.D-4,
  mixing_beta      = 0.30,
/

ATOMIC_SPECIES
C  12.010     C.pbe-n-rrkjus_psl.0.1.UPF 
H  1.007      H.pbe-rrkjus_psl.0.1.UPF 
Ir 192.217    Ir.pbe-n-rrkjus_psl.0.2.3.UPF
N  14.006     N.pbe-n-rrkjus_psl.0.1.UPF

K_POINTS gamma

CELL_PARAMETERS  angstrom
        7.0652699470        0.0000000000         0.0000000000
        0.0000000000        7.0652699470         0.0000000000
        0.0000000000        0.0000000000         7.0652699470 

ATOMIC_POSITIONS (angstrom)
Ir      -0.003358884   0.031451930   0.013872846
N        1.134805168  -1.304050153  -1.105367349
N       -1.663645860   0.020516625  -1.209474456
N        0.756777704   1.527036540  -1.216196884
C       -0.563951172   1.606581675   1.062174584
C        1.533193904  -0.383164325   1.271724230
C        2.015406724  -1.986335941  -0.352702585
C        2.222940440  -1.508883027   0.933442751
C       -1.079197071  -1.276867815   0.931208319
C        0.529076719   2.708601868  -0.696323404
C       -0.074033106   2.769113775   0.616282052
C       -2.532485628  -0.974011842  -0.871719424
C       -2.248883780  -1.668708257   0.281910831
H        1.766665442   0.119863974   2.184546263
H        2.931390861  -1.959758300   1.623658640
H        2.623412124  -2.804789377  -0.700750918
H        0.530875534   3.534149503  -1.287150355
H       -0.077330507   3.743542124   1.028991309
H       -1.131002980   1.557124356   1.950305524
H       -2.794551937  -2.685234000   0.401323449
H       -0.854470972  -1.646542896   1.940294396
H       -3.238007853  -1.227107137  -1.651681505
H        0.929923827  -1.518385803  -2.128558912
H        0.993717648   1.455351824  -2.195778158
H       -1.849247247   0.553061352  -2.107393415


