&CONTROL
  calculation   = 'scf',
  pseudo_dir    = '/util/academic/espresso/6.2.1/pseudopotentials/upf_files/',
  outdir        = './',
  prefix        = 'x0',
  disk_io       = 'low',
/

&SYSTEM
  ibrav       = 0,
  nat         = 25,
  ntyp        = 4,
  nspin       = 1,
  nbnd        = 100
  ecutwfc     = 30,
  ecutrho     = 300,
  occupations = 'smearing',
  smearing    = 'gaussian',
  degauss     = 0.01,
  nosym       = true,
/

&ELECTRONS
  electron_maxstep = 300,
  conv_thr         = 1.D-4,
  mixing_beta      = 0.30,
/

ATOMIC_SPECIES
C  12.010     C.pbe-n-rrkjus_psl.0.1.UPF 
H  1.007      H.pbe-rrkjus_psl.0.1.UPF 
Ir 192.217    Ir.pbe-n-rrkjus_psl.0.2.3.UPF
N  14.006     N.pbe-n-rrkjus_psl.0.1.UPF

K_POINTS gamma

CELL_PARAMETERS  angstrom
        7.0652699470        0.0000000000         0.0000000000
        0.0000000000        7.0652699470         0.0000000000
        0.0000000000        0.0000000000         7.0652699470 

ATOMIC_POSITIONS (angstrom)
Ir       0.005485510   0.024474285   0.006553899
N        1.089464545  -1.371078606  -1.158188437
N       -1.682233694   0.030497281  -1.171094175
N        0.802910429   1.488705355  -1.145446321
C       -0.581591809   1.635044838   1.073105231
C        1.454666396  -0.361171506   1.286494184
C        2.008443817  -1.914375016  -0.440700717
C        2.150340751  -1.479207000   0.935924432
C       -1.093526492  -1.250564288   0.944989503
C        0.502752931   2.677878569  -0.673346606
C       -0.067270695   2.779144332   0.594879801
C       -2.511255153  -0.901824891  -0.838386135
C       -2.154139765  -1.678818040   0.283354251
H        1.817980386   0.178743880   2.121135561
H        2.927018731  -2.002008878   1.596019068
H        2.553951884  -2.767773196  -0.812641510
H        0.590441785   3.425974887  -1.340918867
H       -0.277961157   3.686953781   1.097883713
H       -0.986206921   1.638685920   2.071584499
H       -2.847080995  -2.408317770   0.811242183
H       -0.931001777  -1.534383787   1.960123912
H       -3.322066941  -1.219557791  -1.475075516
H        0.830665647  -1.897231154  -2.040562623
H        1.018349640   1.587857860  -2.124537017
H       -1.866544388   0.469602567  -2.077103290


