&CONTROL
  calculation   = 'scf',
  pseudo_dir    = '/util/academic/espresso/6.2.1/pseudopotentials/upf_files/',
  outdir        = './',
  prefix        = 'x0',
  disk_io       = 'low',
/

&SYSTEM
  ibrav       = 0,
  nat         = 25,
  ntyp        = 4,
  nspin       = 1,
  nbnd        = 100
  ecutwfc     = 30,
  ecutrho     = 300,
  occupations = 'smearing',
  smearing    = 'gaussian',
  degauss     = 0.01,
  nosym       = true,
/

&ELECTRONS
  electron_maxstep = 300,
  conv_thr         = 1.D-4,
  mixing_beta      = 0.30,
/

ATOMIC_SPECIES
C  12.010     C.pbe-n-rrkjus_psl.0.1.UPF 
H  1.007      H.pbe-rrkjus_psl.0.1.UPF 
Ir 192.217    Ir.pbe-n-rrkjus_psl.0.2.3.UPF
N  14.006     N.pbe-n-rrkjus_psl.0.1.UPF

K_POINTS gamma

CELL_PARAMETERS  angstrom
        7.0652699470        0.0000000000         0.0000000000
        0.0000000000        7.0652699470         0.0000000000
        0.0000000000        0.0000000000         7.0652699470 

ATOMIC_POSITIONS (angstrom)
Ir       0.002074078   0.047116341   0.030344918
N        1.213780460  -1.355208782  -1.134452472
N       -1.679594534   0.039897928  -1.310820889
N        0.729296961   1.545608168  -1.192849063
C       -0.604333313   1.591332874   1.113109812
C        1.462905054  -0.365217015   1.387002487
C        2.003100042  -2.015811294  -0.339251530
C        2.223001159  -1.513528749   1.027057743
C       -1.113662875  -1.391213641   0.866138605
C        0.474161109   2.711524433  -0.734631024
C       -0.136262098   2.757185149   0.602182765
C       -2.453541203  -0.977660786  -1.014934158
C       -2.215062129  -1.733946343   0.129345972
H        1.819244411   0.297847896   2.173221545
H        2.892975146  -1.924398292   1.725482150
H        2.697089464  -2.763120372  -0.787927066
H        0.731470690   3.472451572  -1.369030040
H       -0.135079585   3.712533407   1.104454383
H       -1.122506507   1.479911499   2.055354838
H       -2.795787459  -2.603855816   0.482527356
H       -1.024572558  -1.867148408   1.877882034
H       -3.342034776  -1.173038958  -1.613628359
H        1.288378468  -1.646270808  -2.123053264
H        0.999942775   1.524732370  -2.187572144
H       -1.779940807   0.472770972  -2.265285143


