&CONTROL
  calculation   = 'scf',
  pseudo_dir    = '/util/academic/espresso/6.2.1/pseudopotentials/upf_files/',
  outdir        = './',
  prefix        = 'x0',
  disk_io       = 'low',
/

&SYSTEM
  ibrav       = 0,
  nat         = 25,
  ntyp        = 4,
  nspin       = 1,
  nbnd        = 100
  ecutwfc     = 30,
  ecutrho     = 300,
  occupations = 'smearing',
  smearing    = 'gaussian',
  degauss     = 0.01,
  nosym       = true,
/

&ELECTRONS
  electron_maxstep = 300,
  conv_thr         = 1.D-4,
  mixing_beta      = 0.30,
/

ATOMIC_SPECIES
C  12.010     C.pbe-n-rrkjus_psl.0.1.UPF 
H  1.007      H.pbe-rrkjus_psl.0.1.UPF 
Ir 192.217    Ir.pbe-n-rrkjus_psl.0.2.3.UPF
N  14.006     N.pbe-n-rrkjus_psl.0.1.UPF

K_POINTS gamma

CELL_PARAMETERS  angstrom
        7.0652699470        0.0000000000         0.0000000000
        0.0000000000        7.0652699470         0.0000000000
        0.0000000000        0.0000000000         7.0652699470 

ATOMIC_POSITIONS (alat)
Ir   0.0000000   0.0000000  -0.0009950
N   0.1348243   -0.2162295  -0.1597207
N   -0.2546725   -0.0086465  -0.1597207
N   0.1198482   0.2248761  -0.1597207
C   -0.0681418   0.2260635  0.1519064
C   0.2298483   -0.0540192  0.1519064
C   0.2914581   -0.2765542  -0.0857929
C   0.3491176   -0.1916714  0.0872069
C   -0.1617065   -0.1720444  0.1519064
C   0.0937742   0.3906871  -0.0857929
C   -0.0085673   0.3981801  0.0872069
C   -0.3852323   -0.1141329  -0.0857929
C   -0.3405517   -0.2065087  0.0872069
H   0.2658625   0.0152294  0.2851214
H   0.4774595   -0.2367482  0.1583521
H   0.3734012   -0.3877941  -0.1545206
H   0.1491380   0.5172725  -0.1545206
H   -0.0337001   0.5318664  0.1583521
H   -0.1461204   0.2226284  0.2851214
H   -0.4437594   -0.2951182  0.1583521
H   -0.1197421   -0.2378579  0.2851214
H   -0.5225405   -0.1294784  -0.1545206
H   0.0944550   -0.2782045  -0.2822228
H   0.1937039   0.2209031  -0.2822228
H   -0.2881588   0.0573014  -0.2822228

