&CONTROL
  calculation   = 'scf',
  pseudo_dir    = '/util/academic/espresso/6.2.1/pseudopotentials/upf_files/',
  outdir        = './',
  prefix        = 'x0',
  disk_io       = 'low',
/

&SYSTEM
  ibrav       = 0,
  nat         = 25,
  ntyp        = 4,
  nspin       = 1,
  nbnd        = 100
  ecutwfc     = 30,
  ecutrho     = 300,
  occupations = 'smearing',
  smearing    = 'gaussian',
  degauss     = 0.01,
  nosym       = true,
/

&ELECTRONS
  electron_maxstep = 300,
  conv_thr         = 1.D-4,
  mixing_beta      = 0.30,
/

ATOMIC_SPECIES
C  12.010     C.pbe-n-rrkjus_psl.0.1.UPF 
H  1.007      H.pbe-rrkjus_psl.0.1.UPF 
Ir 192.217    Ir.pbe-n-rrkjus_psl.0.2.3.UPF
N  14.006     N.pbe-n-rrkjus_psl.0.1.UPF

K_POINTS gamma

CELL_PARAMETERS  angstrom
        7.0652699470        0.0000000000         0.0000000000
        0.0000000000        7.0652699470         0.0000000000
        0.0000000000        0.0000000000         7.0652699470 

ATOMIC_POSITIONS (angstrom)
Ir       0.007267353   0.027466794   0.007749101
N        0.965883623  -1.454380364  -1.215544242
N       -1.705721498   0.031451217  -1.213117453
N        0.834216948   1.531016393  -1.079588408
C       -0.551432014   1.577944261   1.070729495
C        1.466663939  -0.395790857   1.282695967
C        1.944652041  -1.931022811  -0.460506144
C        2.186160940  -1.413726088   0.817421555
C       -1.037452687  -1.264374849   1.025236526
C        0.562933157   2.739605511  -0.716691991
C       -0.044675691   2.788572123   0.646270038
C       -2.542352236  -0.904171268  -0.819653000
C       -2.176172481  -1.728305276   0.335536166
H        1.709850389   0.242652997   2.169625692
H        2.875245086  -1.869361633   1.476424550
H        2.546469739  -2.740282259  -0.844652259
H        0.699436177   3.647953851  -1.333939750
H       -0.186526871   3.748854728   1.033102613
H       -1.090557351   1.644556614   2.035373542
H       -2.834212469  -2.356148464   0.872850892
H       -0.870391428  -1.727490030   1.991196823
H       -3.472781696  -0.933597788  -1.348110858
H        0.916133924  -1.939930149  -2.097178058
H        1.237669718   1.305223881  -2.008385510
H       -1.944332390   0.567527500  -2.096678797


