&CONTROL
  calculation   = 'scf',
  pseudo_dir    = '/util/academic/espresso/6.2.1/pseudopotentials/upf_files/',
  outdir        = './',
  prefix        = 'x0',
  disk_io       = 'low',
/

&SYSTEM
  ibrav       = 0,
  nat         = 25,
  ntyp        = 4,
  nspin       = 1,
  nbnd        = 100
  ecutwfc     = 30,
  ecutrho     = 300,
  occupations = 'smearing',
  smearing    = 'gaussian',
  degauss     = 0.01,
  nosym       = true,
/

&ELECTRONS
  electron_maxstep = 300,
  conv_thr         = 1.D-4,
  mixing_beta      = 0.30,
/

ATOMIC_SPECIES
C  12.010     C.pbe-n-rrkjus_psl.0.1.UPF 
H  1.007      H.pbe-rrkjus_psl.0.1.UPF 
Ir 192.217    Ir.pbe-n-rrkjus_psl.0.2.3.UPF
N  14.006     N.pbe-n-rrkjus_psl.0.1.UPF

K_POINTS gamma

CELL_PARAMETERS  angstrom
        7.0652699470        0.0000000000         0.0000000000
        0.0000000000        7.0652699470         0.0000000000
        0.0000000000        0.0000000000         7.0652699470 

ATOMIC_POSITIONS (angstrom)
Ir      -0.009430786   0.031629825   0.011200818
N        0.920793680  -1.422213854  -1.229492902
N       -1.728847947  -0.017271441  -1.229469024
N        0.963334756   1.519743957  -1.092721496
C       -0.489442258   1.613997270   1.068307189
C        1.501272980  -0.363780451   1.182476523
C        1.895066939  -1.977448303  -0.500147931
C        2.252543787  -1.435340197   0.787187491
C       -1.038448572  -1.239819163   1.025403064
C        0.565086433   2.670905058  -0.675907298
C       -0.034271171   2.800797678   0.618654389
C       -2.544327403  -0.914334912  -0.735925766
C       -2.171102366  -1.659817618   0.421086203
H        1.807196221   0.121316926   2.132182003
H        3.001296909  -1.948066984   1.387392241
H        2.546341129  -2.816850084  -0.782835078
H        0.765712614   3.498852448  -1.482610031
H       -0.135019668   3.733180697   1.184217879
H       -0.941434446   1.470654492   2.071443746
H       -2.623558865  -2.657961775   0.512117352
H       -0.632616693  -1.686240781   1.909039548
H       -3.477972506  -1.133717294  -1.275970858
H        0.797128995  -1.900175348  -2.099508751
H        1.415780916   1.530929336  -2.030147891
H       -2.123783643   0.655251371  -1.850860735


