&CONTROL
  calculation   = 'scf',
  pseudo_dir    = '/util/academic/espresso/6.2.1/pseudopotentials/upf_files/',
  outdir        = './',
  prefix        = 'x0',
  disk_io       = 'low',
/

&SYSTEM
  ibrav       = 0,
  nat         = 25,
  ntyp        = 4,
  nspin       = 1,
  nbnd        = 100
  ecutwfc     = 30,
  ecutrho     = 300,
  occupations = 'smearing',
  smearing    = 'gaussian',
  degauss     = 0.01,
  nosym       = true,
/

&ELECTRONS
  electron_maxstep = 300,
  conv_thr         = 1.D-4,
  mixing_beta      = 0.30,
/

ATOMIC_SPECIES
C  12.010     C.pbe-n-rrkjus_psl.0.1.UPF 
H  1.007      H.pbe-rrkjus_psl.0.1.UPF 
Ir 192.217    Ir.pbe-n-rrkjus_psl.0.2.3.UPF
N  14.006     N.pbe-n-rrkjus_psl.0.1.UPF

K_POINTS gamma

CELL_PARAMETERS  angstrom
        7.0652699470        0.0000000000         0.0000000000
        0.0000000000        7.0652699470         0.0000000000
        0.0000000000        0.0000000000         7.0652699470 

ATOMIC_POSITIONS (angstrom)
Ir       0.007939162   0.024245040   0.006415891
N        1.038287855  -1.413398100  -1.189094317
N       -1.675187052   0.044829703  -1.183232900
N        0.817843213   1.502668374  -1.120584502
C       -0.598360252   1.607404036   1.075469500
C        1.444366868  -0.358112198   1.296106209
C        1.997824951  -1.910425927  -0.453973667
C        2.142820393  -1.450368901   0.906964648
C       -1.065208344  -1.249624248   0.957993636
C        0.502054604   2.682567286  -0.669651629
C       -0.045136274   2.784827091   0.606484074
C       -2.530688865  -0.905591089  -0.810812983
C       -2.137961706  -1.697658686   0.285991401
H        1.849737182   0.283701181   2.171484277
H        2.843475823  -1.998990989   1.492294854
H        2.508042631  -2.789640855  -0.895807202
H        0.664701362   3.574351728  -1.392508698
H       -0.353716116   3.720872650   1.131068825
H       -1.004869030   1.679291524   2.079862183
H       -2.785077180  -2.301845318   0.832567907
H       -0.950067534  -1.646646799   2.017347323
H       -3.438738265  -1.061791575  -1.434836759
H        0.905248636  -1.932214640  -2.045369237
H        1.095664898   1.445430837  -2.130744018
H       -1.904519156   0.461691217  -2.095978819


