&CONTROL
  calculation   = 'scf',
  pseudo_dir    = '/util/academic/espresso/6.2.1/pseudopotentials/upf_files/',
  outdir        = './',
  prefix        = 'x0',
  disk_io       = 'low',
/

&SYSTEM
  ibrav       = 0,
  nat         = 25,
  ntyp        = 4,
  nspin       = 1,
  nbnd        = 100
  ecutwfc     = 30,
  ecutrho     = 300,
  occupations = 'smearing',
  smearing    = 'gaussian',
  degauss     = 0.01,
  nosym       = true,
/

&ELECTRONS
  electron_maxstep = 300,
  conv_thr         = 1.D-4,
  mixing_beta      = 0.30,
/

ATOMIC_SPECIES
C  12.010     C.pbe-n-rrkjus_psl.0.1.UPF 
H  1.007      H.pbe-rrkjus_psl.0.1.UPF 
Ir 192.217    Ir.pbe-n-rrkjus_psl.0.2.3.UPF
N  14.006     N.pbe-n-rrkjus_psl.0.1.UPF

K_POINTS gamma

CELL_PARAMETERS  angstrom
        7.0652699470        0.0000000000         0.0000000000
        0.0000000000        7.0652699470         0.0000000000
        0.0000000000        0.0000000000         7.0652699470 

ATOMIC_POSITIONS (angstrom)
Ir       0.006019460   0.024677057   0.006274846
N        1.080195249  -1.379698032  -1.164734957
N       -1.679698571   0.033864100  -1.171431484
N        0.805887281   1.490803153  -1.139684844
C       -0.588082467   1.632218078   1.075210483
C        1.454718783  -0.357472993   1.286443516
C        2.006696876  -1.911889249  -0.446963798
C        2.143614239  -1.476479707   0.940995099
C       -1.089701226  -1.250712751   0.944719639
C        0.503596919   2.672226253  -0.673524796
C       -0.063822346   2.780326808   0.595082420
C       -2.515006092  -0.899993559  -0.831525838
C       -2.147266554  -1.682959741   0.286490673
H        1.834886303   0.203673070   2.125455811
H        2.906233044  -2.006852389   1.568857823
H        2.542274966  -2.767764899  -0.833434380
H        0.604998363   3.439485141  -1.344280586
H       -0.294595156   3.652253348   1.090335282
H       -0.970167704   1.649075764   2.051536226
H       -2.825820468  -2.370803794   0.819964606
H       -0.939904444  -1.550509532   1.968459112
H       -3.352262022  -1.196536991  -1.469213504
H        0.843799057  -1.915130953  -2.026355787
H        1.030301639   1.567371523  -2.125956199
H       -1.878066726   0.469524069  -2.095923525


