&CONTROL
  calculation   = 'scf',
  pseudo_dir    = '/util/academic/espresso/6.2.1/pseudopotentials/upf_files/',
  outdir        = './',
  prefix        = 'x0',
  disk_io       = 'low',
/

&SYSTEM
  ibrav       = 0,
  nat         = 25,
  ntyp        = 4,
  nspin       = 1,
  nbnd        = 100
  ecutwfc     = 30,
  ecutrho     = 300,
  occupations = 'smearing',
  smearing    = 'gaussian',
  degauss     = 0.01,
  nosym       = true,
/

&ELECTRONS
  electron_maxstep = 300,
  conv_thr         = 1.D-4,
  mixing_beta      = 0.30,
/

ATOMIC_SPECIES
C  12.010     C.pbe-n-rrkjus_psl.0.1.UPF 
H  1.007      H.pbe-rrkjus_psl.0.1.UPF 
Ir 192.217    Ir.pbe-n-rrkjus_psl.0.2.3.UPF
N  14.006     N.pbe-n-rrkjus_psl.0.1.UPF

K_POINTS gamma

CELL_PARAMETERS  angstrom
        7.0652699470        0.0000000000         0.0000000000
        0.0000000000        7.0652699470         0.0000000000
        0.0000000000        0.0000000000         7.0652699470 

ATOMIC_POSITIONS (angstrom)
Ir       0.002416376   0.046274309   0.031165130
N        1.228109749  -1.354867278  -1.125609009
N       -1.658303307   0.052907651  -1.296486927
N        0.727000475   1.567892753  -1.181814915
C       -0.632729319   1.581455832   1.117615067
C        1.471106068  -0.387927619   1.349956100
C        2.019213275  -2.015330420  -0.333105513
C        2.174302731  -1.505288941   1.038462808
C       -1.104209325  -1.395512045   0.853538562
C        0.471114835   2.706359903  -0.723440640
C       -0.162172197   2.776307219   0.606405412
C       -2.436818160  -0.961860980  -1.020758914
C       -2.181349594  -1.779580808   0.087510936
H        1.861268463   0.212820184   2.290567234
H        2.956068595  -1.976247826   1.754803847
H        2.636099428  -2.752462591  -0.807015056
H        0.710584283   3.574832935  -1.455839741
H       -0.159474043   3.751157098   1.126020528
H       -1.204230708   1.515842029   2.066571704
H       -2.845790684  -2.531357437   0.423306210
H       -0.919485077  -1.786191257   1.832512643
H       -3.350258715  -1.107912228  -1.592730986
H        1.111768343  -1.651955707  -2.083919583
H        0.952327223   1.469052951  -2.181048201
H       -1.787964347   0.455192297  -2.219556262


