&CONTROL
  calculation   = 'scf',
  pseudo_dir    = '/util/academic/espresso/6.2.1/pseudopotentials/upf_files/',
  outdir        = './',
  prefix        = 'x0',
  disk_io       = 'low',
/

&SYSTEM
  ibrav       = 0,
  nat         = 25,
  ntyp        = 4,
  nspin       = 1,
  nbnd        = 100
  ecutwfc     = 30,
  ecutrho     = 300,
  occupations = 'smearing',
  smearing    = 'gaussian',
  degauss     = 0.01,
  nosym       = true,
/

&ELECTRONS
  electron_maxstep = 300,
  conv_thr         = 1.D-4,
  mixing_beta      = 0.30,
/

ATOMIC_SPECIES
C  12.010     C.pbe-n-rrkjus_psl.0.1.UPF 
H  1.007      H.pbe-rrkjus_psl.0.1.UPF 
Ir 192.217    Ir.pbe-n-rrkjus_psl.0.2.3.UPF
N  14.006     N.pbe-n-rrkjus_psl.0.1.UPF

K_POINTS gamma

CELL_PARAMETERS  angstrom
        7.0652699470        0.0000000000         0.0000000000
        0.0000000000        7.0652699470         0.0000000000
        0.0000000000        0.0000000000         7.0652699470 

ATOMIC_POSITIONS (angstrom)
Ir      -0.000914796   0.039567133   0.018807291
N        1.136655345  -1.342783898  -1.132048561
N       -1.675999342   0.035764466  -1.222360331
N        0.743773785   1.529704176  -1.209119389
C       -0.589990459   1.585755817   1.052263835
C        1.548302157  -0.385188453   1.259406594
C        1.991814851  -2.007118784  -0.338156799
C        2.247936449  -1.500678651   0.994745108
C       -1.109881251  -1.313776756   0.920302486
C        0.507126662   2.665183315  -0.702595665
C       -0.053521371   2.771324682   0.587833996
C       -2.520270120  -0.979898830  -0.939328540
C       -2.242093423  -1.655129904   0.288940823
H        1.701253518   0.143304979   2.218239148
H        2.978165430  -2.035265711   1.604742344
H        2.575503687  -2.856284869  -0.771938960
H        0.616013870   3.690404282  -1.257982557
H       -0.062447198   3.720430209   1.166233582
H       -1.266431872   1.570188969   1.978751916
H       -2.756324209  -2.561579585   0.516781854
H       -0.842168108  -1.880624210   1.860635380
H       -3.355721918  -1.161351229  -1.663878820
H        1.179530774  -1.423596304  -2.151858106
H        1.015058615   1.394579171  -2.174978648
H       -1.820576152   0.524052401  -2.129783843


