&CONTROL
  calculation   = 'scf',
  pseudo_dir    = '/util/academic/espresso/6.2.1/pseudopotentials/upf_files/',
  outdir        = './',
  prefix        = 'x0',
  disk_io       = 'low',
/

&SYSTEM
  ibrav       = 0,
  nat         = 25,
  ntyp        = 4,
  nspin       = 1,
  nbnd        = 100
  ecutwfc     = 30,
  ecutrho     = 300,
  occupations = 'smearing',
  smearing    = 'gaussian',
  degauss     = 0.01,
  nosym       = true,
/

&ELECTRONS
  electron_maxstep = 300,
  conv_thr         = 1.D-4,
  mixing_beta      = 0.30,
/

ATOMIC_SPECIES
C  12.010     C.pbe-n-rrkjus_psl.0.1.UPF 
H  1.007      H.pbe-rrkjus_psl.0.1.UPF 
Ir 192.217    Ir.pbe-n-rrkjus_psl.0.2.3.UPF
N  14.006     N.pbe-n-rrkjus_psl.0.1.UPF

K_POINTS gamma

CELL_PARAMETERS  angstrom
        7.0652699470        0.0000000000         0.0000000000
        0.0000000000        7.0652699470         0.0000000000
        0.0000000000        0.0000000000         7.0652699470 

ATOMIC_POSITIONS (angstrom)
Ir      -0.000329553   0.004751409  -0.008033529
N        0.955564920  -1.547105589  -1.135956113
N       -1.802224091  -0.059582842  -1.123434734
N        0.908105431   1.570158148  -1.136225208
C       -0.492407456   1.573929040   1.084470980
C        1.586494817  -0.387948288   1.076482452
C        2.044963020  -1.955176428  -0.566054335
C        2.371938377  -1.309119622   0.611235372
C       -1.137186619  -1.211888693   1.089768775
C        0.660964941   2.753681239  -0.626961579
C       -0.044460799   2.830486336   0.614630760
C       -2.714545098  -0.805342169  -0.618306821
C       -2.359061724  -1.499308960   0.596705514
H        1.824131686   0.165266457   2.014091469
H        3.128720331  -1.531001386   1.307417931
H        2.749765075  -2.722375373  -0.943899700
H        0.959514205   3.594255956  -1.124094323
H       -0.250598032   3.776266060   1.126542313
H       -1.146894618   1.548038406   2.002150499
H       -2.386597056  -2.646570637   1.103968383
H       -0.804429871  -1.588137841   2.087883936
H       -3.579944262  -0.901969206  -1.250677366
H        0.598007321  -2.137649425  -1.946070139
H        1.263485028   1.647849171  -2.127695209
H       -2.153532553   0.524626539  -1.919216327


