&CONTROL
  calculation   = 'scf',
  pseudo_dir    = '/util/academic/espresso/6.2.1/pseudopotentials/upf_files/',
  outdir        = './',
  prefix        = 'x0',
  disk_io       = 'low',
/

&SYSTEM
  ibrav       = 0,
  nat         = 25,
  ntyp        = 4,
  nspin       = 1,
  nbnd        = 100
  ecutwfc     = 30,
  ecutrho     = 300,
  occupations = 'smearing',
  smearing    = 'gaussian',
  degauss     = 0.01,
  nosym       = true,
/

&ELECTRONS
  electron_maxstep = 300,
  conv_thr         = 1.D-4,
  mixing_beta      = 0.30,
/

ATOMIC_SPECIES
C  12.010     C.pbe-n-rrkjus_psl.0.1.UPF 
H  1.007      H.pbe-rrkjus_psl.0.1.UPF 
Ir 192.217    Ir.pbe-n-rrkjus_psl.0.2.3.UPF
N  14.006     N.pbe-n-rrkjus_psl.0.1.UPF

K_POINTS gamma

CELL_PARAMETERS  angstrom
        7.0652699470        0.0000000000         0.0000000000
        0.0000000000        7.0652699470         0.0000000000
        0.0000000000        0.0000000000         7.0652699470 

ATOMIC_POSITIONS (angstrom)
Ir      -0.001775876   0.017613499  -0.003407340
N        0.927895344  -1.561276784  -1.162934949
N       -1.777069987  -0.024200834  -1.116876860
N        0.982118647   1.549158774  -1.152613049
C       -0.483847609   1.579790960   1.055161862
C        1.534817890  -0.325954522   1.098152306
C        2.000387621  -1.985788149  -0.537964539
C        2.329552170  -1.354714576   0.651724844
C       -1.103567397  -1.189498846   1.104623426
C        0.623725710   2.703934900  -0.621617673
C       -0.080350459   2.801476845   0.639974478
C       -2.672119936  -0.846580096  -0.672571847
C       -2.306152314  -1.574118143   0.580370560
H        1.779832035   0.172438883   2.039735739
H        3.080041973  -1.678557649   1.320116226
H        2.661705554  -2.822697642  -0.866016281
H        0.824016216   3.504195845  -1.313919975
H       -0.164424480   3.740963096   1.175052510
H       -1.116392987   1.518517047   1.951471769
H       -2.164091218  -2.579707346   0.506388909
H       -0.805617381  -1.590455180   2.088431030
H       -3.496912017  -0.939657909  -1.372138148
H        0.684903070  -2.121739223  -1.972007214
H        1.192559606   1.604059110  -2.164374529
H       -2.106765186   0.619057889  -1.861379861


