&CONTROL
  calculation   = 'scf',
  pseudo_dir    = '/util/academic/espresso/6.2.1/pseudopotentials/upf_files/',
  outdir        = './',
  prefix        = 'x0',
  disk_io       = 'low',
/

&SYSTEM
  ibrav       = 0,
  nat         = 25,
  ntyp        = 4,
  nspin       = 1,
  nbnd        = 100
  ecutwfc     = 30,
  ecutrho     = 300,
  occupations = 'smearing',
  smearing    = 'gaussian',
  degauss     = 0.01,
  nosym       = true,
/

&ELECTRONS
  electron_maxstep = 300,
  conv_thr         = 1.D-4,
  mixing_beta      = 0.30,
/

ATOMIC_SPECIES
C  12.010     C.pbe-n-rrkjus_psl.0.1.UPF 
H  1.007      H.pbe-rrkjus_psl.0.1.UPF 
Ir 192.217    Ir.pbe-n-rrkjus_psl.0.2.3.UPF
N  14.006     N.pbe-n-rrkjus_psl.0.1.UPF

K_POINTS gamma

CELL_PARAMETERS  angstrom
        7.0652699470        0.0000000000         0.0000000000
        0.0000000000        7.0652699470         0.0000000000
        0.0000000000        0.0000000000         7.0652699470 

ATOMIC_POSITIONS (angstrom)
Ir      -0.003993105   0.022430053  -0.001727589
N        0.927150209  -1.553402522  -1.161335783
N       -1.768681258  -0.039562138  -1.106957204
N        1.004444604   1.541275885  -1.145014540
C       -0.491687001   1.585830045   1.043426741
C        1.521478369  -0.300522725   1.106710472
C        1.978549110  -1.970831785  -0.542980377
C        2.290672707  -1.357652502   0.696890400
C       -1.068198668  -1.160135517   1.095013073
C        0.607850800   2.674682312  -0.623667336
C       -0.073106351   2.798898859   0.638732332
C       -2.622961191  -0.878630888  -0.700529970
C       -2.270672127  -1.608970401   0.543170239
H        1.789260767   0.183683067   2.095150528
H        3.097214725  -1.754993194   1.349024002
H        2.490987352  -2.900374114  -0.963442445
H        0.721700758   3.548602616  -1.218385946
H       -0.116994751   3.735326314   1.185893047
H       -1.067635976   1.512163534   1.991222551
H       -2.423965276  -2.641122854   0.289738548
H       -0.770298326  -1.661504153   2.064320860
H       -3.520011990  -1.042413240  -1.304432614
H        0.690492345  -2.106495597  -2.008092220
H        1.230980002   1.564063825  -2.156505053
H       -2.098077052   0.592537446  -1.889624582


