&CONTROL
  calculation   = 'scf',
  pseudo_dir    = '/util/academic/espresso/6.2.1/pseudopotentials/upf_files/',
  outdir        = './',
  prefix        = 'x0',
  disk_io       = 'low',
/

&SYSTEM
  ibrav       = 0,
  nat         = 25,
  ntyp        = 4,
  nspin       = 1,
  nbnd        = 100
  ecutwfc     = 30,
  ecutrho     = 300,
  occupations = 'smearing',
  smearing    = 'gaussian',
  degauss     = 0.01,
  nosym       = true,
/

&ELECTRONS
  electron_maxstep = 300,
  conv_thr         = 1.D-4,
  mixing_beta      = 0.30,
/

ATOMIC_SPECIES
C  12.010     C.pbe-n-rrkjus_psl.0.1.UPF 
H  1.007      H.pbe-rrkjus_psl.0.1.UPF 
Ir 192.217    Ir.pbe-n-rrkjus_psl.0.2.3.UPF
N  14.006     N.pbe-n-rrkjus_psl.0.1.UPF

K_POINTS gamma

CELL_PARAMETERS  angstrom
        7.0652699470        0.0000000000         0.0000000000
        0.0000000000        7.0652699470         0.0000000000
        0.0000000000        0.0000000000         7.0652699470 

ATOMIC_POSITIONS (angstrom)
Ir      -0.000628132   0.040622601   0.020392058
N        1.139478818  -1.342211320  -1.135696092
N       -1.677322993   0.033668308  -1.231608461
N        0.742574326   1.525476945  -1.209376083
C       -0.593734289   1.579922283   1.053713258
C        1.546367800  -0.382508288   1.261362236
C        1.987129009  -2.008283499  -0.339147901
C        2.250069814  -1.502682321   1.003765402
C       -1.114529976  -1.319097816   0.921055047
C        0.501679909   2.667643556  -0.704107134
C       -0.049764755   2.773229302   0.585212168
C       -2.513608450  -0.975239303  -0.952476285
C       -2.242318337  -1.656873216   0.286702298
H        1.688853689   0.153839202   2.172626375
H        2.984273361  -2.045029224   1.613414965
H        2.560445038  -2.856174522  -0.778072949
H        0.633056068   3.665116373  -1.243966958
H       -0.066316635   3.695540543   1.175433581
H       -1.263957870   1.578233079   1.960676912
H       -2.758148411  -2.567066283   0.531173933
H       -0.839854152  -1.923663871   1.858144246
H       -3.364181657  -1.170598074  -1.635140135
H        1.224618962  -1.430163066  -2.172926564
H        1.025372115   1.420836122  -2.155892248
H       -1.824204760   0.533925448  -2.162624129


