&CONTROL
  calculation   = 'scf',
  pseudo_dir    = '/util/academic/espresso/6.2.1/pseudopotentials/upf_files/',
  outdir        = './',
  prefix        = 'x0',
  disk_io       = 'low',
/

&SYSTEM
  ibrav       = 0,
  nat         = 25,
  ntyp        = 4,
  nspin       = 1,
  nbnd        = 100
  ecutwfc     = 30,
  ecutrho     = 300,
  occupations = 'smearing',
  smearing    = 'gaussian',
  degauss     = 0.01,
  nosym       = true,
/

&ELECTRONS
  electron_maxstep = 300,
  conv_thr         = 1.D-4,
  mixing_beta      = 0.30,
/

ATOMIC_SPECIES
C  12.010     C.pbe-n-rrkjus_psl.0.1.UPF 
H  1.007      H.pbe-rrkjus_psl.0.1.UPF 
Ir 192.217    Ir.pbe-n-rrkjus_psl.0.2.3.UPF
N  14.006     N.pbe-n-rrkjus_psl.0.1.UPF

K_POINTS gamma

CELL_PARAMETERS  angstrom
        7.0652699470        0.0000000000         0.0000000000
        0.0000000000        7.0652699470         0.0000000000
        0.0000000000        0.0000000000         7.0652699470 

ATOMIC_POSITIONS (angstrom)
Ir       0.003748469   0.042748545   0.025210931
N        1.232605635  -1.331453571  -1.108190331
N       -1.622054473   0.058727439  -1.323728254
N        0.739152558   1.548244280  -1.181846540
C       -0.651561307   1.576178222   1.119673338
C        1.498964016  -0.373792549   1.338052855
C        2.057222492  -1.981437243  -0.299312777
C        2.127091032  -1.546538992   1.047294139
C       -1.084025718  -1.395405686   0.858362515
C        0.455771100   2.751538377  -0.687245269
C       -0.193269188   2.784618115   0.607060405
C       -2.433824345  -0.957322358  -1.034260520
C       -2.183263654  -1.771363726   0.133679076
H        1.708131499  -0.003667613   2.383258989
H        2.886686072  -2.060068873   1.659617744
H        2.597295841  -2.895139790  -0.683874677
H        0.470577413   3.590392344  -1.421714615
H       -0.166198500   3.774503445   1.101882791
H       -1.307474705   1.677881027   1.995686793
H       -2.891793121  -2.564084373   0.302205830
H       -0.827247318  -1.770061270   1.846933146
H       -3.324543634  -1.190026481  -1.597900444
H        0.941573582  -1.696144474  -1.982740736
H        0.943605527   1.488251946  -2.226105824
H       -1.757309888   0.551382642  -2.227542286


