&CONTROL
  calculation   = 'scf',
  pseudo_dir    = '/util/academic/espresso/6.2.1/pseudopotentials/upf_files/',
  outdir        = './',
  prefix        = 'x0',
  disk_io       = 'low',
/

&SYSTEM
  ibrav       = 0,
  nat         = 25,
  ntyp        = 4,
  nspin       = 1,
  nbnd        = 100
  ecutwfc     = 30,
  ecutrho     = 300,
  occupations = 'smearing',
  smearing    = 'gaussian',
  degauss     = 0.01,
  nosym       = true,
/

&ELECTRONS
  electron_maxstep = 300,
  conv_thr         = 1.D-4,
  mixing_beta      = 0.30,
/

ATOMIC_SPECIES
C  12.010     C.pbe-n-rrkjus_psl.0.1.UPF 
H  1.007      H.pbe-rrkjus_psl.0.1.UPF 
Ir 192.217    Ir.pbe-n-rrkjus_psl.0.2.3.UPF
N  14.006     N.pbe-n-rrkjus_psl.0.1.UPF

K_POINTS gamma

CELL_PARAMETERS  angstrom
        7.0652699470        0.0000000000         0.0000000000
        0.0000000000        7.0652699470         0.0000000000
        0.0000000000        0.0000000000         7.0652699470 

ATOMIC_POSITIONS (angstrom)
Ir      -0.010922057   0.031376865   0.006369559
N        0.924228579  -1.483476445  -1.194370334
N       -1.731856950  -0.030561686  -1.175274010
N        1.008495524   1.504228946  -1.116803965
C       -0.524938856   1.582507669   1.073675424
C        1.531133012  -0.348543414   1.143972047
C        1.927347503  -1.958177701  -0.528662049
C        2.265399803  -1.381270595   0.749020822
C       -1.045946297  -1.168049605   1.065186276
C        0.575087529   2.658105542  -0.650683388
C       -0.058879077   2.822657627   0.628552997
C       -2.548170785  -0.949109495  -0.716824151
C       -2.160993134  -1.651424019   0.426741974
H        1.666342473   0.188820481   2.081472730
H        3.013780789  -1.889005470   1.319914735
H        2.349451985  -2.883957460  -0.960619235
H        0.716369137   3.493844642  -1.239561291
H       -0.155724647   3.722806263   1.196065511
H       -0.982789650   1.516257631   2.086123454
H       -2.455664996  -2.693223365   0.422428272
H       -0.645805849  -1.728949188   1.951465808
H       -3.523688128  -1.110585487  -1.157223314
H        0.668346314  -1.969570711  -2.108889732
H        1.366562200   1.535274113  -2.085158249
H       -2.249699311   0.656224446  -1.814860543


