&CONTROL
  calculation   = 'scf',
  pseudo_dir    = '/util/academic/espresso/6.2.1/pseudopotentials/upf_files/',
  outdir        = './',
  prefix        = 'x0',
  disk_io       = 'low',
/

&SYSTEM
  ibrav       = 0,
  nat         = 25,
  ntyp        = 4,
  nspin       = 1,
  nbnd        = 100
  ecutwfc     = 30,
  ecutrho     = 300,
  occupations = 'smearing',
  smearing    = 'gaussian',
  degauss     = 0.01,
  nosym       = true,
/

&ELECTRONS
  electron_maxstep = 300,
  conv_thr         = 1.D-4,
  mixing_beta      = 0.30,
/

ATOMIC_SPECIES
C  12.010     C.pbe-n-rrkjus_psl.0.1.UPF 
H  1.007      H.pbe-rrkjus_psl.0.1.UPF 
Ir 192.217    Ir.pbe-n-rrkjus_psl.0.2.3.UPF
N  14.006     N.pbe-n-rrkjus_psl.0.1.UPF

K_POINTS gamma

CELL_PARAMETERS  angstrom
        7.0652699470        0.0000000000         0.0000000000
        0.0000000000        7.0652699470         0.0000000000
        0.0000000000        0.0000000000         7.0652699470 

ATOMIC_POSITIONS (angstrom)
Ir       0.009517903   0.026350345   0.007072012
N        0.988516933  -1.442412346  -1.205995700
N       -1.689493185   0.041844894  -1.201728794
N        0.829653931   1.521249830  -1.097602375
C       -0.577112637   1.579227491   1.071604824
C        1.451151544  -0.378883994   1.298383384
C        1.971901484  -1.922553030  -0.450833162
C        2.161471175  -1.421351480   0.842126970
C       -1.036657977  -1.254025910   1.002761860
C        0.544506600   2.721593633  -0.710697684
C       -0.052560327   2.796395305   0.638205695
C       -2.545089721  -0.909473482  -0.810809223
C       -2.163073030  -1.723485946   0.310209370
H        1.705047399   0.205715875   2.144976819
H        2.898529251  -1.935797946   1.503718373
H        2.489774723  -2.762870041  -0.911028324
H        0.674113904   3.546653232  -1.282540450
H       -0.274434363   3.757078556   1.079688598
H       -1.110883026   1.665754171   2.042932377
H       -2.828272494  -2.329231303   0.877007180
H       -0.947912823  -1.717608259   2.014468465
H       -3.462354099  -0.965533057  -1.377963395
H        0.932506081  -1.904902033  -2.155156087
H        1.174717357   1.322378787  -2.034065332
H       -1.929961160   0.523081837  -2.082056754


