&CONTROL
  calculation   = 'scf',
  pseudo_dir    = '/util/academic/espresso/6.2.1/pseudopotentials/upf_files/',
  outdir        = './',
  prefix        = 'x0',
  disk_io       = 'low',
/

&SYSTEM
  ibrav       = 0,
  nat         = 25,
  ntyp        = 4,
  nspin       = 1,
  nbnd        = 100
  ecutwfc     = 30,
  ecutrho     = 300,
  occupations = 'smearing',
  smearing    = 'gaussian',
  degauss     = 0.01,
  nosym       = true,
/

&ELECTRONS
  electron_maxstep = 300,
  conv_thr         = 1.D-4,
  mixing_beta      = 0.30,
/

ATOMIC_SPECIES
C  12.010     C.pbe-n-rrkjus_psl.0.1.UPF 
H  1.007      H.pbe-rrkjus_psl.0.1.UPF 
Ir 192.217    Ir.pbe-n-rrkjus_psl.0.2.3.UPF
N  14.006     N.pbe-n-rrkjus_psl.0.1.UPF

K_POINTS gamma

CELL_PARAMETERS  angstrom
        7.0652699470        0.0000000000         0.0000000000
        0.0000000000        7.0652699470         0.0000000000
        0.0000000000        0.0000000000         7.0652699470 

ATOMIC_POSITIONS (angstrom)
Ir       0.001543372   0.046131623   0.030332128
N        1.165148813  -1.343159774  -1.149294802
N       -1.691148664   0.014546014  -1.302971562
N        0.738205298   1.497165195  -1.209947514
C       -0.604474517   1.580621113   1.063667160
C        1.513210926  -0.371325946   1.278164445
C        1.968024453  -2.000150990  -0.344121893
C        2.229302743  -1.520923568   1.022043096
C       -1.104154939  -1.375340408   0.911438112
C        0.470140768   2.701441589  -0.705984048
C       -0.059419558   2.761062202   0.581854177
C       -2.467731515  -0.945269641  -1.010515241
C       -2.250598161  -1.681320057   0.240383923
H        1.701761076   0.349023558   2.161505363
H        2.977991807  -1.998940196   1.700299519
H        2.603317575  -2.826515198  -0.731115050
H        0.764097197   3.564781972  -1.314837108
H       -0.101300075   3.660909688   1.199456911
H       -1.250037271   1.557022420   2.033451484
H       -2.733809387  -2.616786917   0.486068565
H       -0.861699569  -1.993167299   1.834347743
H       -3.401460596  -1.221006109  -1.519497964
H        1.400686559  -1.526126701  -2.104586764
H        1.126109778   1.568404157  -2.197409889
H       -1.825942418   0.484353784  -2.148577601


