&CONTROL
  calculation   = 'scf',
  pseudo_dir    = '/util/academic/espresso/6.2.1/pseudopotentials/upf_files/',
  outdir        = './',
  prefix        = 'x0',
  disk_io       = 'low',
/

&SYSTEM
  ibrav       = 0,
  nat         = 25,
  ntyp        = 4,
  nspin       = 1,
  nbnd        = 100
  ecutwfc     = 30,
  ecutrho     = 300,
  occupations = 'smearing',
  smearing    = 'gaussian',
  degauss     = 0.01,
  nosym       = true,
/

&ELECTRONS
  electron_maxstep = 300,
  conv_thr         = 1.D-4,
  mixing_beta      = 0.30,
/

ATOMIC_SPECIES
C  12.010     C.pbe-n-rrkjus_psl.0.1.UPF 
H  1.007      H.pbe-rrkjus_psl.0.1.UPF 
Ir 192.217    Ir.pbe-n-rrkjus_psl.0.2.3.UPF
N  14.006     N.pbe-n-rrkjus_psl.0.1.UPF

K_POINTS gamma

CELL_PARAMETERS  angstrom
        7.0652699470        0.0000000000         0.0000000000
        0.0000000000        7.0652699470         0.0000000000
        0.0000000000        0.0000000000         7.0652699470 

ATOMIC_POSITIONS (angstrom)
Ir      -0.003323735   0.021535813  -0.002470613
N        0.926974535  -1.555785785  -1.162630787
N       -1.772646979  -0.037118135  -1.100244665
N        1.000092132   1.544143051  -1.146816964
C       -0.488129637   1.586144198   1.043878977
C        1.525271189  -0.304060729   1.106510449
C        1.986096824  -1.976011185  -0.541411629
C        2.301461753  -1.356961201   0.682588432
C       -1.076043710  -1.165880678   1.096160376
C        0.612199016   2.683255911  -0.623432494
C       -0.076755542   2.790859774   0.642880753
C       -2.635880651  -0.868804687  -0.694831757
C       -2.281364350  -1.601578004   0.554907879
H        1.788108006   0.184693332   2.088443921
H        3.093478100  -1.731900578   1.344594340
H        2.543037192  -2.891430359  -0.937416890
H        0.747709397   3.526916956  -1.235074913
H       -0.126406621   3.738917248   1.185681083
H       -1.083163940   1.513870697   1.982753484
H       -2.403934391  -2.654730061   0.266910686
H       -0.779106027  -1.646707036   2.082781216
H       -3.510133450  -1.013340350  -1.322218856
H        0.696174679  -2.109797067  -1.982450715
H        1.220412248   1.573814875  -2.172415638
H       -2.111677842   0.617899849  -1.900227696


