&CONTROL
  calculation   = 'scf',
  pseudo_dir    = '/util/academic/espresso/6.2.1/pseudopotentials/upf_files/',
  outdir        = './',
  prefix        = 'x0',
  disk_io       = 'low',
/

&SYSTEM
  ibrav       = 0,
  nat         = 25,
  ntyp        = 4,
  nspin       = 1,
  nbnd        = 100
  ecutwfc     = 30,
  ecutrho     = 300,
  occupations = 'smearing',
  smearing    = 'gaussian',
  degauss     = 0.01,
  nosym       = true,
/

&ELECTRONS
  electron_maxstep = 300,
  conv_thr         = 1.D-4,
  mixing_beta      = 0.30,
/

ATOMIC_SPECIES
C  12.010     C.pbe-n-rrkjus_psl.0.1.UPF 
H  1.007      H.pbe-rrkjus_psl.0.1.UPF 
Ir 192.217    Ir.pbe-n-rrkjus_psl.0.2.3.UPF
N  14.006     N.pbe-n-rrkjus_psl.0.1.UPF

K_POINTS gamma

CELL_PARAMETERS  angstrom
        7.0652699470        0.0000000000         0.0000000000
        0.0000000000        7.0652699470         0.0000000000
        0.0000000000        0.0000000000         7.0652699470 

ATOMIC_POSITIONS (angstrom)
Ir       0.009214806   0.025781097   0.007587548
N        0.997794503  -1.437755014  -1.202906414
N       -1.684945791   0.044290920  -1.199024439
N        0.828706305   1.517781986  -1.106146359
C       -0.584070790   1.582440906   1.072494394
C        1.444796072  -0.371756840   1.299913407
C        1.979140315  -1.919444788  -0.450112269
C        2.155383274  -1.425487933   0.852357294
C       -1.039780774  -1.252162501   0.993285385
C        0.536790646   2.713140990  -0.704160536
C       -0.048860983   2.792509082   0.631871184
C       -2.543201113  -0.910361879  -0.808685060
C       -2.156635455  -1.718057154   0.300995474
H        1.739607900   0.227862235   2.143558566
H        2.905817566  -1.964938082   1.511035764
H        2.484726767  -2.776509587  -0.926109302
H        0.672201626   3.544270954  -1.295977432
H       -0.304710032   3.772625870   1.104143256
H       -1.070325253   1.682134713   2.045324275
H       -2.829683839  -2.332541695   0.875733830
H       -0.966177498  -1.707642081   2.019997814
H       -3.468829145  -0.982999865  -1.395786159
H        0.933732457  -1.877750050  -2.164961518
H        1.155648603   1.339065977  -2.047796030
H       -1.921484813   0.498955476  -2.073640863


