&CONTROL
  calculation   = 'scf',
  pseudo_dir    = '/util/academic/espresso/6.2.1/pseudopotentials/upf_files/',
  outdir        = './',
  prefix        = 'x0',
  disk_io       = 'low',
/

&SYSTEM
  ibrav       = 0,
  nat         = 25,
  ntyp        = 4,
  nspin       = 1,
  nbnd        = 100
  ecutwfc     = 30,
  ecutrho     = 300,
  occupations = 'smearing',
  smearing    = 'gaussian',
  degauss     = 0.01,
  nosym       = true,
/

&ELECTRONS
  electron_maxstep = 300,
  conv_thr         = 1.D-4,
  mixing_beta      = 0.30,
/

ATOMIC_SPECIES
C  12.010     C.pbe-n-rrkjus_psl.0.1.UPF 
H  1.007      H.pbe-rrkjus_psl.0.1.UPF 
Ir 192.217    Ir.pbe-n-rrkjus_psl.0.2.3.UPF
N  14.006     N.pbe-n-rrkjus_psl.0.1.UPF

K_POINTS gamma

CELL_PARAMETERS  angstrom
        7.0652699470        0.0000000000         0.0000000000
        0.0000000000        7.0652699470         0.0000000000
        0.0000000000        0.0000000000         7.0652699470 

ATOMIC_POSITIONS (angstrom)
Ir       0.000747505   0.045712079   0.029012338
N        1.159622832  -1.342109464  -1.147965690
N       -1.690159174   0.018486068  -1.290433697
N        0.736542196   1.499153135  -1.205629149
C       -0.604738320   1.575711397   1.062450288
C        1.519532383  -0.372352510   1.263667340
C        1.968825836  -2.002453847  -0.344504827
C        2.237297504  -1.518083396   1.023830300
C       -1.098666464  -1.372711449   0.916170935
C        0.474469704   2.698782102  -0.706843472
C       -0.050331651   2.765880779   0.582395574
C       -2.474923054  -0.947647967  -1.004910945
C       -2.250019555  -1.675463564   0.251801399
H        1.691215448   0.318066505   2.151981278
H        2.963431067  -1.997286926   1.666192970
H        2.591352159  -2.830632564  -0.741655144
H        0.735071114   3.542472777  -1.270289441
H       -0.095370314   3.646058809   1.196004303
H       -1.251426131   1.572543243   1.994367646
H       -2.741622459  -2.619893125   0.508875292
H       -0.862772376  -2.000042222   1.801655147
H       -3.392557637  -1.215557998  -1.519886836
H        1.386454139  -1.506452988  -2.125443602
H        1.115040150   1.551396521  -2.200027420
H       -1.824716306   0.490109180  -2.148678296


