&CONTROL
  calculation   = 'scf',
  pseudo_dir    = '/util/academic/espresso/6.2.1/pseudopotentials/upf_files/',
  outdir        = './',
  prefix        = 'x0',
  disk_io       = 'low',
/

&SYSTEM
  ibrav       = 0,
  nat         = 25,
  ntyp        = 4,
  nspin       = 1,
  nbnd        = 100
  ecutwfc     = 30,
  ecutrho     = 300,
  occupations = 'smearing',
  smearing    = 'gaussian',
  degauss     = 0.01,
  nosym       = true,
/

&ELECTRONS
  electron_maxstep = 300,
  conv_thr         = 1.D-4,
  mixing_beta      = 0.30,
/

ATOMIC_SPECIES
C  12.010     C.pbe-n-rrkjus_psl.0.1.UPF 
H  1.007      H.pbe-rrkjus_psl.0.1.UPF 
Ir 192.217    Ir.pbe-n-rrkjus_psl.0.2.3.UPF
N  14.006     N.pbe-n-rrkjus_psl.0.1.UPF

K_POINTS gamma

CELL_PARAMETERS  angstrom
        7.0652699470        0.0000000000         0.0000000000
        0.0000000000        7.0652699470         0.0000000000
        0.0000000000        0.0000000000         7.0652699470 

ATOMIC_POSITIONS (angstrom)
Ir      -0.000028398   0.044021237   0.025823621
N        1.150105157  -1.341185308  -1.143507406
N       -1.685161121   0.025097714  -1.264519139
N        0.738521732   1.509253989  -1.206806038
C       -0.603444913   1.566530044   1.060435603
C        1.532902018  -0.375151928   1.264522020
C        1.974356431  -2.006786149  -0.343228554
C        2.249006125  -1.512526730   1.022613030
C       -1.107050638  -1.351273772   0.915666312
C        0.485068521   2.688430577  -0.708062832
C       -0.042618381   2.773299556   0.583251219
C       -2.490894480  -0.957347294  -0.988269893
C       -2.246369757  -1.665505801   0.270471422
H        1.676641795   0.234786236   2.122560410
H        2.941412420  -1.998097648   1.608845360
H        2.564840679  -2.832395224  -0.759398001
H        0.683422830   3.543111596  -1.215682282
H       -0.082413050   3.636146552   1.185054655
H       -1.239615482   1.605355066   1.906802453
H       -2.759481234  -2.615305274   0.543354912
H       -0.854748611  -1.995285759   1.798742379
H       -3.375521838  -1.198734981  -1.546275145
H        1.339699987  -1.470857435  -2.173924391
H        1.078324778   1.504034032  -2.173267490
H       -1.826963185   0.519976356  -2.178778659


