&CONTROL
  calculation   = 'scf',
  pseudo_dir    = '/util/academic/espresso/6.2.1/pseudopotentials/upf_files/',
  outdir        = './',
  prefix        = 'x0',
  disk_io       = 'low',
/

&SYSTEM
  ibrav       = 0,
  nat         = 25,
  ntyp        = 4,
  nspin       = 1,
  nbnd        = 100
  ecutwfc     = 30,
  ecutrho     = 300,
  occupations = 'smearing',
  smearing    = 'gaussian',
  degauss     = 0.01,
  nosym       = true,
/

&ELECTRONS
  electron_maxstep = 300,
  conv_thr         = 1.D-4,
  mixing_beta      = 0.30,
/

ATOMIC_SPECIES
C  12.010     C.pbe-n-rrkjus_psl.0.1.UPF 
H  1.007      H.pbe-rrkjus_psl.0.1.UPF 
Ir 192.217    Ir.pbe-n-rrkjus_psl.0.2.3.UPF
N  14.006     N.pbe-n-rrkjus_psl.0.1.UPF

K_POINTS gamma

CELL_PARAMETERS  angstrom
        7.0652699470        0.0000000000         0.0000000000
        0.0000000000        7.0652699470         0.0000000000
        0.0000000000        0.0000000000         7.0652699470 

ATOMIC_POSITIONS (angstrom)
Ir      -0.001577644   0.001836319  -0.007700813
N        0.959140722  -1.535991385  -1.130842671
N       -1.801599073  -0.068768606  -1.120330878
N        0.872726284   1.582035734  -1.133369390
C       -0.482434432   1.586132893   1.075648504
C        1.609558962  -0.389345296   1.074399982
C        2.056701094  -1.948390473  -0.581718795
C        2.442885790  -1.337237966   0.614271827
C       -1.142370001  -1.219194490   1.082295532
C        0.663354853   2.756140895  -0.618867008
C       -0.032368734   2.828996130   0.607964472
C       -2.720907404  -0.804298265  -0.609882586
C       -2.399830377  -1.477599951   0.605825894
H        1.845213368   0.131298166   2.000128222
H        3.195802791  -1.557683273   1.151878709
H        2.717796924  -2.738206529  -1.017347817
H        1.016692562   3.664308580  -1.097927860
H       -0.255098791   3.777655153   1.122533337
H       -1.101742306   1.563867226   2.011966344
H       -2.788087673  -2.304380455   1.117245646
H       -0.820093090  -1.627331060   2.048909392
H       -3.647469753  -0.922117347  -1.147865337
H        0.574232825  -2.032043629  -1.947189351
H        1.306224079   1.614751114  -2.052392345
H       -2.098918630   0.452633275  -1.933543316


