&CONTROL
  calculation   = 'scf',
  pseudo_dir    = '/util/academic/espresso/6.2.1/pseudopotentials/upf_files/',
  outdir        = './',
  prefix        = 'x0',
  disk_io       = 'low',
/

&SYSTEM
  ibrav       = 0,
  nat         = 25,
  ntyp        = 4,
  nspin       = 1,
  nbnd        = 100
  ecutwfc     = 30,
  ecutrho     = 300,
  occupations = 'smearing',
  smearing    = 'gaussian',
  degauss     = 0.01,
  nosym       = true,
/

&ELECTRONS
  electron_maxstep = 300,
  conv_thr         = 1.D-4,
  mixing_beta      = 0.30,
/

ATOMIC_SPECIES
C  12.010     C.pbe-n-rrkjus_psl.0.1.UPF 
H  1.007      H.pbe-rrkjus_psl.0.1.UPF 
Ir 192.217    Ir.pbe-n-rrkjus_psl.0.2.3.UPF
N  14.006     N.pbe-n-rrkjus_psl.0.1.UPF

K_POINTS gamma

CELL_PARAMETERS  angstrom
        7.0652699470        0.0000000000         0.0000000000
        0.0000000000        7.0652699470         0.0000000000
        0.0000000000        0.0000000000         7.0652699470 

ATOMIC_POSITIONS (angstrom)
Ir       0.008496073   0.027190751   0.007136600
N        0.972416819  -1.450844899  -1.212687222
N       -1.700074153   0.035116737  -1.208576086
N        0.832217338   1.527934896  -1.084045250
C       -0.560655915   1.576999362   1.070554064
C        1.462213999  -0.391415391   1.289418022
C        1.954486589  -1.928582939  -0.456252405
C        2.177343621  -1.415797385   0.825052546
C       -1.035463922  -1.260253611   1.019136235
C        0.557487744   2.734235195  -0.716615754
C       -0.047679836   2.792387180   0.646089371
C       -2.544762808  -0.906222296  -0.816650304
C       -2.173157723  -1.728870893   0.327643133
H        1.683786275   0.225981244   2.159794229
H        2.870901025  -1.867741347   1.478297595
H        2.520674649  -2.742594083  -0.868004396
H        0.689136879   3.608589769  -1.307870493
H       -0.213034546   3.738217193   1.039881312
H       -1.122097249   1.646736065   2.038901511
H       -2.833022817  -2.342188482   0.872154884
H       -0.899741980  -1.726007172   1.996851587
H       -3.461522137  -0.940320893  -1.352446739
H        0.924431529  -1.934125292  -2.115703108
H        1.216991234   1.304675592  -2.016827616
H       -1.945843897   0.569425332  -2.086894414


