&CONTROL
  calculation   = 'scf',
  pseudo_dir    = '/util/academic/espresso/6.2.1/pseudopotentials/upf_files/',
  outdir        = './',
  prefix        = 'x0',
  disk_io       = 'low',
/

&SYSTEM
  ibrav       = 0,
  nat         = 25,
  ntyp        = 4,
  nspin       = 1,
  nbnd        = 100
  ecutwfc     = 30,
  ecutrho     = 300,
  occupations = 'smearing',
  smearing    = 'gaussian',
  degauss     = 0.01,
  nosym       = true,
/

&ELECTRONS
  electron_maxstep = 300,
  conv_thr         = 1.D-4,
  mixing_beta      = 0.30,
/

ATOMIC_SPECIES
C  12.010     C.pbe-n-rrkjus_psl.0.1.UPF 
H  1.007      H.pbe-rrkjus_psl.0.1.UPF 
Ir 192.217    Ir.pbe-n-rrkjus_psl.0.2.3.UPF
N  14.006     N.pbe-n-rrkjus_psl.0.1.UPF

K_POINTS gamma

CELL_PARAMETERS  angstrom
        7.0652699470        0.0000000000         0.0000000000
        0.0000000000        7.0652699470         0.0000000000
        0.0000000000        0.0000000000         7.0652699470 

ATOMIC_POSITIONS (angstrom)
Ir       0.009551799   0.027074681   0.006612169
N        0.979652793  -1.446963620  -1.208943930
N       -1.694947259   0.038510246  -1.204409908
N        0.830403343   1.524499756  -1.089719044
C       -0.569543972   1.577262602   1.071259328
C        1.456657583  -0.385755700   1.295230123
C        1.963308780  -1.925873070  -0.452535567
C        2.168573191  -1.418378298   0.833545597
C       -1.035554000  -1.256926302   1.011943210
C        0.551039357   2.728360802  -0.714414965
C       -0.050580724   2.794771000   0.643700857
C       -2.546049528  -0.908218793  -0.813195348
C       -2.169069548  -1.727371154   0.319573030
H        1.692871368   0.215238210   2.147733860
H        2.884336256  -1.901921366   1.491765323
H        2.501181521  -2.750699482  -0.890402875
H        0.679676175   3.570067639  -1.287416446
H       -0.243210483   3.742435520   1.056878790
H       -1.152155330   1.644805191   2.037977124
H       -2.830323798  -2.334707030   0.875399663
H       -0.926064163  -1.723410765   2.006034581
H       -3.458834065  -0.951244197  -1.362258400
H        0.929295901  -1.923477871  -2.136914172
H        1.195237696   1.310472675  -2.024236620
H       -1.938768500   0.547534428  -2.087699536


