&CONTROL
  calculation   = 'scf',
  pseudo_dir    = '/util/academic/espresso/6.2.1/pseudopotentials/upf_files/',
  outdir        = './',
  prefix        = 'x0',
  disk_io       = 'low',
/

&SYSTEM
  ibrav       = 0,
  nat         = 25,
  ntyp        = 4,
  nspin       = 1,
  nbnd        = 100
  ecutwfc     = 30,
  ecutrho     = 300,
  occupations = 'smearing',
  smearing    = 'gaussian',
  degauss     = 0.01,
  nosym       = true,
/

&ELECTRONS
  electron_maxstep = 300,
  conv_thr         = 1.D-4,
  mixing_beta      = 0.30,
/

ATOMIC_SPECIES
C  12.010     C.pbe-n-rrkjus_psl.0.1.UPF 
H  1.007      H.pbe-rrkjus_psl.0.1.UPF 
Ir 192.217    Ir.pbe-n-rrkjus_psl.0.2.3.UPF
N  14.006     N.pbe-n-rrkjus_psl.0.1.UPF

K_POINTS gamma

CELL_PARAMETERS  angstrom
        7.0652699470        0.0000000000         0.0000000000
        0.0000000000        7.0652699470         0.0000000000
        0.0000000000        0.0000000000         7.0652699470 

ATOMIC_POSITIONS (angstrom)
Ir       0.000729515   0.006765783  -0.007310443
N        0.949079195  -1.554348970  -1.143904915
N       -1.801258134  -0.047965836  -1.127236293
N        0.930910464   1.562883194  -1.142189226
C       -0.492106550   1.578311171   1.085824986
C        1.560602447  -0.375447528   1.082605333
C        2.033793878  -1.965412296  -0.559452358
C        2.318435644  -1.293749161   0.615050670
C       -1.127768623  -1.199720501   1.095630366
C        0.654107344   2.743896222  -0.625924347
C       -0.054426096   2.826555818   0.620984789
C       -2.708072169  -0.811495587  -0.627684568
C       -2.323932825  -1.528561685   0.596112333
H        1.810076504   0.172676172   2.014044191
H        3.180498897  -1.615271424   1.299061301
H        2.739235810  -2.712369742  -0.898485183
H        0.939191975   3.588008687  -1.193519871
H       -0.239331016   3.770727314   1.147289577
H       -1.152569726   1.536661619   1.980138029
H       -2.195801371  -2.774948821   1.018826103
H       -0.806864389  -1.569453055   2.091276689
H       -3.547466658  -0.890544429  -1.323406094
H        0.638445973  -2.151725976  -1.915629537
H        1.229785507   1.651016527  -2.137434945
H       -2.167467605   0.557804412  -1.895956134


