&CONTROL
  calculation   = 'scf',
  pseudo_dir    = '/util/academic/espresso/6.2.1/pseudopotentials/upf_files/',
  outdir        = './',
  prefix        = 'x0',
  disk_io       = 'low',
/

&SYSTEM
  ibrav       = 0,
  nat         = 25,
  ntyp        = 4,
  nspin       = 1,
  nbnd        = 100
  ecutwfc     = 30,
  ecutrho     = 300,
  occupations = 'smearing',
  smearing    = 'gaussian',
  degauss     = 0.01,
  nosym       = true,
/

&ELECTRONS
  electron_maxstep = 300,
  conv_thr         = 1.D-4,
  mixing_beta      = 0.30,
/

ATOMIC_SPECIES
C  12.010     C.pbe-n-rrkjus_psl.0.1.UPF 
H  1.007      H.pbe-rrkjus_psl.0.1.UPF 
Ir 192.217    Ir.pbe-n-rrkjus_psl.0.2.3.UPF
N  14.006     N.pbe-n-rrkjus_psl.0.1.UPF

K_POINTS gamma

CELL_PARAMETERS  angstrom
        7.0652699470        0.0000000000         0.0000000000
        0.0000000000        7.0652699470         0.0000000000
        0.0000000000        0.0000000000         7.0652699470 

ATOMIC_POSITIONS (angstrom)
Ir       0.008087052   0.024216375   0.007156254
N        1.027566571  -1.420527447  -1.192816212
N       -1.676515419   0.046000098  -1.187506379
N        0.820833019   1.506274670  -1.117656557
C       -0.597331133   1.599837604   1.075254297
C        1.442071167  -0.357866327   1.300813482
C        1.994220859  -1.912017293  -0.452489047
C        2.144374471  -1.443208451   0.892476057
C       -1.058011445  -1.249831752   0.965956861
C        0.510342244   2.687932271  -0.676953243
C       -0.044071854   2.785095592   0.612006646
C       -2.534406605  -0.908056436  -0.807841486
C       -2.139362601  -1.695750119   0.277753085
H        1.831626617   0.281376275   2.169585463
H        2.867323693  -2.000650926   1.499271123
H        2.497096876  -2.794768984  -0.917431011
H        0.670633361   3.580969182  -1.378157082
H       -0.355804443   3.753186677   1.138960240
H       -0.983972502   1.705231056   2.080167882
H       -2.807315225  -2.324933601   0.846508423
H       -0.947607661  -1.667309320   2.014383678
H       -3.459062513  -1.042720916  -1.432412482
H        0.914766877  -1.930204437  -2.077198757
H        1.110159816   1.413766716  -2.113390410
H       -1.906949375   0.461277318  -2.081170040


