&CONTROL
  calculation   = 'scf',
  pseudo_dir    = '/util/academic/espresso/6.2.1/pseudopotentials/upf_files/',
  outdir        = './',
  prefix        = 'x0',
  disk_io       = 'low',
/

&SYSTEM
  ibrav       = 0,
  nat         = 25,
  ntyp        = 4,
  nspin       = 1,
  nbnd        = 100
  ecutwfc     = 30,
  ecutrho     = 300,
  occupations = 'smearing',
  smearing    = 'gaussian',
  degauss     = 0.01,
  nosym       = true,
/

&ELECTRONS
  electron_maxstep = 300,
  conv_thr         = 1.D-4,
  mixing_beta      = 0.30,
/

ATOMIC_SPECIES
C  12.010     C.pbe-n-rrkjus_psl.0.1.UPF 
H  1.007      H.pbe-rrkjus_psl.0.1.UPF 
Ir 192.217    Ir.pbe-n-rrkjus_psl.0.2.3.UPF
N  14.006     N.pbe-n-rrkjus_psl.0.1.UPF

K_POINTS gamma

CELL_PARAMETERS  angstrom
        7.0652699470        0.0000000000         0.0000000000
        0.0000000000        7.0652699470         0.0000000000
        0.0000000000        0.0000000000         7.0652699470 

ATOMIC_POSITIONS (angstrom)
Ir      -0.011184371   0.030749772   0.006010841
N        0.924264934  -1.497595306  -1.187805159
N       -1.736130963  -0.032214695  -1.165424128
N        1.009363812   1.510458824  -1.120058020
C       -0.524134748   1.583020944   1.070740768
C        1.528554923  -0.339664891   1.138761808
C        1.932814957  -1.958093744  -0.532561449
C        2.268882563  -1.375029842   0.742560636
C       -1.048115261  -1.161783843   1.074711466
C        0.576723996   2.654167280  -0.642993493
C       -0.051375709   2.826267350   0.619391497
C       -2.547626109  -0.954597183  -0.714810992
C       -2.158523342  -1.655578494   0.427300505
H        1.650862992   0.193369953   2.075154791
H        3.008160700  -1.866572111   1.308367807
H        2.319034386  -2.867618871  -0.972680572
H        0.711415040   3.544918452  -1.235028382
H       -0.154937378   3.718200587   1.212337362
H       -0.986052875   1.513076843   2.070981879
H       -2.453438954  -2.679121803   0.414065953
H       -0.665707323  -1.721799646   1.948453588
H       -3.531767252  -1.102621872  -1.157400127
H        0.648143776  -1.959754331  -2.078713641
H        1.360327330   1.532425380  -2.107479977
H       -2.246303716   0.642593468  -1.807508173


