&CONTROL
  calculation   = 'scf',
  pseudo_dir    = '/util/academic/espresso/6.2.1/pseudopotentials/upf_files/',
  outdir        = './',
  prefix        = 'x0',
  disk_io       = 'low',
/

&SYSTEM
  ibrav       = 0,
  nat         = 25,
  ntyp        = 4,
  nspin       = 1,
  nbnd        = 100
  ecutwfc     = 30,
  ecutrho     = 300,
  occupations = 'smearing',
  smearing    = 'gaussian',
  degauss     = 0.01,
  nosym       = true,
/

&ELECTRONS
  electron_maxstep = 300,
  conv_thr         = 1.D-4,
  mixing_beta      = 0.30,
/

ATOMIC_SPECIES
C  12.010     C.pbe-n-rrkjus_psl.0.1.UPF 
H  1.007      H.pbe-rrkjus_psl.0.1.UPF 
Ir 192.217    Ir.pbe-n-rrkjus_psl.0.2.3.UPF
N  14.006     N.pbe-n-rrkjus_psl.0.1.UPF

K_POINTS gamma

CELL_PARAMETERS  angstrom
        7.0652699470        0.0000000000         0.0000000000
        0.0000000000        7.0652699470         0.0000000000
        0.0000000000        0.0000000000         7.0652699470 

ATOMIC_POSITIONS (angstrom)
Ir       0.004216855   0.025589355   0.007833430
N        1.108031805  -1.349966620  -1.146060919
N       -1.692067605   0.018475087  -1.175801776
N        0.790114691   1.485514479  -1.164486099
C       -0.562649956   1.629640155   1.068789723
C        1.472432769  -0.367637082   1.284517681
C        2.011208687  -1.929066401  -0.414821839
C        2.173015633  -1.494130044   0.921481194
C       -1.089498649  -1.245811936   0.951880663
C        0.503446585   2.684187366  -0.667960752
C       -0.082748169   2.779085607   0.593750049
C       -2.506912971  -0.914763758  -0.853027282
C       -2.190816862  -1.678376982   0.275366557
H        1.802564264   0.148558540   2.186082250
H        2.910067027  -1.938863237   1.622908330
H        2.604052370  -2.792013807  -0.759994579
H        0.560100170   3.518028274  -1.420311825
H       -0.212683744   3.804259809   1.111254385
H       -1.058190980   1.603679203   2.126344382
H       -2.848636105  -2.476477285   0.708556912
H       -0.893469116  -1.530717003   1.988336749
H       -3.267794819  -1.270552448  -1.528640009
H        0.821972505  -1.787646218  -2.039252029
H        1.001785572   1.607307924  -2.168005709
H       -1.840841453   0.490693627  -2.047160595


