&CONTROL
  calculation   = 'scf',
  pseudo_dir    = '/util/academic/espresso/6.2.1/pseudopotentials/upf_files/',
  outdir        = './',
  prefix        = 'x0',
  disk_io       = 'low',
/

&SYSTEM
  ibrav       = 0,
  nat         = 25,
  ntyp        = 4,
  nspin       = 1,
  nbnd        = 100
  ecutwfc     = 30,
  ecutrho     = 300,
  occupations = 'smearing',
  smearing    = 'gaussian',
  degauss     = 0.01,
  nosym       = true,
/

&ELECTRONS
  electron_maxstep = 300,
  conv_thr         = 1.D-4,
  mixing_beta      = 0.30,
/

ATOMIC_SPECIES
C  12.010     C.pbe-n-rrkjus_psl.0.1.UPF 
H  1.007      H.pbe-rrkjus_psl.0.1.UPF 
Ir 192.217    Ir.pbe-n-rrkjus_psl.0.2.3.UPF
N  14.006     N.pbe-n-rrkjus_psl.0.1.UPF

K_POINTS gamma

CELL_PARAMETERS  angstrom
        7.0652699470        0.0000000000         0.0000000000
        0.0000000000        7.0652699470         0.0000000000
        0.0000000000        0.0000000000         7.0652699470 

ATOMIC_POSITIONS (angstrom)
Ir      -0.010533531   0.029871190   0.004980736
N        0.924502558  -1.511210860  -1.182135615
N       -1.740695865  -0.033546507  -1.156792721
N        1.010591295   1.516354828  -1.124389723
C       -0.521133288   1.582374560   1.065368647
C        1.526366369  -0.330881789   1.133330491
C        1.938993300  -1.958706867  -0.536699813
C        2.272808663  -1.370118620   0.735068639
C       -1.050022061  -1.157623308   1.083594938
C        0.579652746   2.650784069  -0.636392613
C       -0.043499565   2.827197287   0.609759245
C       -2.546050811  -0.959955195  -0.714181805
C       -2.178467643  -1.646465854   0.445620649
H        1.658877497   0.189340300   2.063615609
H        3.012075070  -1.847744821   1.303783181
H        2.301315603  -2.854333200  -0.981230073
H        0.706948616   3.593764856  -1.235530253
H       -0.152211328   3.717897851   1.224881960
H       -0.990200937   1.510867103   2.054009613
H       -2.490507804  -2.686180125   0.437646275
H       -0.686925812  -1.711717708   1.945649872
H       -3.535655611  -1.094212575  -1.163499595
H        0.630937078  -1.946345203  -2.044643031
H        1.338603417   1.533900218  -2.107639805
H       -2.231889090   0.622010518  -1.796762213


