&CONTROL
  calculation   = 'scf',
  pseudo_dir    = '/util/academic/espresso/6.2.1/pseudopotentials/upf_files/',
  outdir        = './',
  prefix        = 'x0',
  disk_io       = 'low',
/

&SYSTEM
  ibrav       = 0,
  nat         = 25,
  ntyp        = 4,
  nspin       = 1,
  nbnd        = 100
  ecutwfc     = 30,
  ecutrho     = 300,
  occupations = 'smearing',
  smearing    = 'gaussian',
  degauss     = 0.01,
  nosym       = true,
/

&ELECTRONS
  electron_maxstep = 300,
  conv_thr         = 1.D-4,
  mixing_beta      = 0.30,
/

ATOMIC_SPECIES
C  12.010     C.pbe-n-rrkjus_psl.0.1.UPF 
H  1.007      H.pbe-rrkjus_psl.0.1.UPF 
Ir 192.217    Ir.pbe-n-rrkjus_psl.0.2.3.UPF
N  14.006     N.pbe-n-rrkjus_psl.0.1.UPF

K_POINTS gamma

CELL_PARAMETERS  angstrom
        7.0652699470        0.0000000000         0.0000000000
        0.0000000000        7.0652699470         0.0000000000
        0.0000000000        0.0000000000         7.0652699470 

ATOMIC_POSITIONS (angstrom)
Ir       0.003349707   0.047107905   0.032490262
N        1.176400125  -1.344839366  -1.148528231
N       -1.689260414   0.006838991  -1.325854980
N        0.737425832   1.491676983  -1.206338433
C       -0.604648013   1.590040105   1.069241481
C        1.499785822  -0.366701279   1.309122606
C        1.970560065  -1.994938754  -0.340267586
C        2.211330706  -1.526402057   1.017704896
C       -1.114624070  -1.379647585   0.903908786
C        0.464838948   2.705919920  -0.708297561
C       -0.079624128   2.752839526   0.583762149
C       -2.458262111  -0.946479996  -1.016837699
C       -2.248367974  -1.692212428   0.213734656
H        1.723928130   0.372705759   2.154573382
H        2.979810395  -1.986588037   1.744106469
H        2.663050040  -2.833115284  -0.719024711
H        0.803533692   3.594609846  -1.388983637
H       -0.111800015   3.687272691   1.188135853
H       -1.214978857   1.533644186   2.071641474
H       -2.732385313  -2.615618547   0.434953851
H       -0.867805389  -1.953133416   1.874816704
H       -3.405629320  -1.219222405  -1.538185057
H        1.413627649  -1.569273083  -2.101839828
H        1.094041625   1.600427519  -2.199698906
H       -1.826570956   0.486832540  -2.217979908


