&CONTROL
  calculation   = 'scf',
  pseudo_dir    = '/util/academic/espresso/6.2.1/pseudopotentials/upf_files/',
  outdir        = './',
  prefix        = 'x0',
  disk_io       = 'low',
/

&SYSTEM
  ibrav       = 0,
  nat         = 25,
  ntyp        = 4,
  nspin       = 1,
  nbnd        = 100
  ecutwfc     = 30,
  ecutrho     = 300,
  occupations = 'smearing',
  smearing    = 'gaussian',
  degauss     = 0.01,
  nosym       = true,
/

&ELECTRONS
  electron_maxstep = 300,
  conv_thr         = 1.D-4,
  mixing_beta      = 0.30,
/

ATOMIC_SPECIES
C  12.010     C.pbe-n-rrkjus_psl.0.1.UPF 
H  1.007      H.pbe-rrkjus_psl.0.1.UPF 
Ir 192.217    Ir.pbe-n-rrkjus_psl.0.2.3.UPF
N  14.006     N.pbe-n-rrkjus_psl.0.1.UPF

K_POINTS gamma

CELL_PARAMETERS  angstrom
        7.0652699470        0.0000000000         0.0000000000
        0.0000000000        7.0652699470         0.0000000000
        0.0000000000        0.0000000000         7.0652699470 

ATOMIC_POSITIONS (angstrom)
Ir      -0.006405380   0.031668407   0.012172803
N        0.924731281  -1.434662814  -1.222611546
N       -1.730495394  -0.011798611  -1.237320264
N        0.938289630   1.521057019  -1.084561593
C       -0.508642656   1.613004058   1.067904972
C        1.487313296  -0.370213183   1.214605160
C        1.889862771  -1.970521707  -0.493561843
C        2.253788029  -1.426416348   0.791472112
C       -1.036306147  -1.265898084   1.016970345
C        0.566017860   2.696142132  -0.696834706
C       -0.024674344   2.787317169   0.609768780
C       -2.538786508  -0.898856444  -0.752574869
C       -2.177210005  -1.678411518   0.407177105
H        1.834133355   0.090971697   2.129970598
H        2.954118705  -1.925145037   1.408799649
H        2.595637749  -2.745379520  -0.729601039
H        0.741996086   3.467005358  -1.405179037
H       -0.073852545   3.713209573   1.118101980
H       -0.929231122   1.506379146   2.036462409
H       -2.718727810  -2.577961459   0.629228904
H       -0.652599791  -1.690143355   1.942511753
H       -3.442672230  -1.046343711  -1.268493400
H        0.782309763  -1.918782252  -2.153095863
H        1.413332080   1.477698843  -2.040512247
H       -2.068020016   0.694561707  -1.966715027


