&CONTROL
  calculation   = 'scf',
  pseudo_dir    = '/util/academic/espresso/6.2.1/pseudopotentials/upf_files/',
  outdir        = './',
  prefix        = 'x0',
  disk_io       = 'low',
/

&SYSTEM
  ibrav       = 0,
  nat         = 25,
  ntyp        = 4,
  nspin       = 1,
  nbnd        = 100
  ecutwfc     = 30,
  ecutrho     = 300,
  occupations = 'smearing',
  smearing    = 'gaussian',
  degauss     = 0.01,
  nosym       = true,
/

&ELECTRONS
  electron_maxstep = 300,
  conv_thr         = 1.D-4,
  mixing_beta      = 0.30,
/

ATOMIC_SPECIES
C  12.010     C.pbe-n-rrkjus_psl.0.1.UPF 
H  1.007      H.pbe-rrkjus_psl.0.1.UPF 
Ir 192.217    Ir.pbe-n-rrkjus_psl.0.2.3.UPF
N  14.006     N.pbe-n-rrkjus_psl.0.1.UPF

K_POINTS gamma

CELL_PARAMETERS  angstrom
        7.0652699470        0.0000000000         0.0000000000
        0.0000000000        7.0652699470         0.0000000000
        0.0000000000        0.0000000000         7.0652699470 

ATOMIC_POSITIONS (angstrom)
Ir       0.002576878   0.029726398   0.009064070
N        0.950342195  -1.460694522  -1.217253235
N       -1.722618993   0.019790141  -1.227922521
N        0.865905059   1.527875647  -1.074527103
C       -0.530181927   1.588452055   1.070205141
C        1.474593658  -0.396307273   1.261213686
C        1.913967426  -1.937645142  -0.475401104
C        2.212460160  -1.411043483   0.799173032
C       -1.042896821  -1.269927503   1.030934461
C        0.568048058   2.725064444  -0.719969508
C       -0.034646270   2.776101966   0.633572856
C       -2.531453675  -0.893125128  -0.794317865
C       -2.180071386  -1.715452562   0.357959896
H        1.776457841   0.234487737   2.171033231
H        2.918157223  -1.896923738   1.484230657
H        2.629310170  -2.750410534  -0.778060353
H        0.718732400   3.663768906  -1.376715482
H       -0.124875341   3.816167637   1.057652370
H       -1.008835057   1.615705811   2.033422875
H       -2.851534016  -2.442979598   0.854344613
H       -0.772308495  -1.732285449   2.002510760
H       -3.517621099  -0.938921623  -1.347467115
H        0.866260524  -1.948704334  -2.108954177
H        1.288575458   1.343329155  -1.974464861
H       -1.925434007   0.520273270  -2.048895827


