&CONTROL
  calculation   = 'scf',
  pseudo_dir    = '/util/academic/espresso/6.2.1/pseudopotentials/upf_files/',
  outdir        = './',
  prefix        = 'x0',
  disk_io       = 'low',
/

&SYSTEM
  ibrav       = 0,
  nat         = 25,
  ntyp        = 4,
  nspin       = 1,
  nbnd        = 100
  ecutwfc     = 30,
  ecutrho     = 300,
  occupations = 'smearing',
  smearing    = 'gaussian',
  degauss     = 0.01,
  nosym       = true,
/

&ELECTRONS
  electron_maxstep = 300,
  conv_thr         = 1.D-4,
  mixing_beta      = 0.30,
/

ATOMIC_SPECIES
C  12.010     C.pbe-n-rrkjus_psl.0.1.UPF 
H  1.007      H.pbe-rrkjus_psl.0.1.UPF 
Ir 192.217    Ir.pbe-n-rrkjus_psl.0.2.3.UPF
N  14.006     N.pbe-n-rrkjus_psl.0.1.UPF

K_POINTS gamma

CELL_PARAMETERS  angstrom
        7.0652699470        0.0000000000         0.0000000000
        0.0000000000        7.0652699470         0.0000000000
        0.0000000000        0.0000000000         7.0652699470 

ATOMIC_POSITIONS (angstrom)
Ir      -0.000911366   0.001179719  -0.007221586
N        0.959078499  -1.530595591  -1.130630762
N       -1.800373895  -0.069791060  -1.119696311
N        0.860899268   1.586338476  -1.133707361
C       -0.482051368   1.589390350   1.074194813
C        1.614677383  -0.386927712   1.073780349
C        2.056912521  -1.950061508  -0.590484645
C        2.455868843  -1.343899800   0.613682316
C       -1.142662393  -1.218704090   1.079085597
C        0.663161981   2.756844156  -0.615231154
C       -0.041640212   2.823797244   0.609714128
C       -2.721839928  -0.804853132  -0.608532447
C       -2.407128375  -1.471792673   0.609331757
H        1.854673559   0.120506751   1.999093823
H        3.288057045  -1.608997495   1.125656292
H        2.693362618  -2.740598690  -1.043207278
H        1.034348169   3.677347195  -1.098071965
H       -0.251850565   3.773945622   1.122813402
H       -1.080936689   1.566649550   2.013995650
H       -2.933601230  -2.196857779   1.111912699
H       -0.828868603  -1.643380996   2.033540335
H       -3.668266517  -0.923728822  -1.123384165
H        0.605057720  -2.011512756  -1.960033383
H        1.322583900   1.598436980  -2.026098284
H       -2.077316509   0.432425597  -1.945927140


