&CONTROL
  calculation   = 'scf',
  pseudo_dir    = '/util/academic/espresso/6.2.1/pseudopotentials/upf_files/',
  outdir        = './',
  prefix        = 'x0',
  disk_io       = 'low',
/

&SYSTEM
  ibrav       = 0,
  nat         = 25,
  ntyp        = 4,
  nspin       = 1,
  nbnd        = 100
  ecutwfc     = 30,
  ecutrho     = 300,
  occupations = 'smearing',
  smearing    = 'gaussian',
  degauss     = 0.01,
  nosym       = true,
/

&ELECTRONS
  electron_maxstep = 300,
  conv_thr         = 1.D-4,
  mixing_beta      = 0.30,
/

ATOMIC_SPECIES
C  12.010     C.pbe-n-rrkjus_psl.0.1.UPF 
H  1.007      H.pbe-rrkjus_psl.0.1.UPF 
Ir 192.217    Ir.pbe-n-rrkjus_psl.0.2.3.UPF
N  14.006     N.pbe-n-rrkjus_psl.0.1.UPF

K_POINTS gamma

CELL_PARAMETERS  angstrom
        7.0652699470        0.0000000000         0.0000000000
        0.0000000000        7.0652699470         0.0000000000
        0.0000000000        0.0000000000         7.0652699470 

ATOMIC_POSITIONS (angstrom)
Ir      -0.002236472   0.030496262   0.012376497
N        1.130772122  -1.309311026  -1.113495270
N       -1.668963696   0.018880118  -1.202211243
N        0.761584279   1.517982356  -1.209639120
C       -0.560608113   1.608793317   1.066596090
C        1.526000259  -0.379682539   1.274998346
C        2.016119301  -1.977789042  -0.358898534
C        2.216411841  -1.508934801   0.925829154
C       -1.077461765  -1.268126753   0.934319165
C        0.527011023   2.706417502  -0.688767175
C       -0.075462926   2.772933911   0.618981613
C       -2.528923025  -0.964658521  -0.864109049
C       -2.251509103  -1.676622756   0.280573495
H        1.778445043   0.123147259   2.178472274
H        2.927795967  -1.949294334   1.633434944
H        2.629707022  -2.802882727  -0.698979284
H        0.527630394   3.540740216  -1.323119346
H       -0.091252167   3.753942755   1.019095731
H       -1.111625155   1.561698222   1.960441918
H       -2.796052383  -2.640586461   0.429807084
H       -0.851849767  -1.625781215   1.976700557
H       -3.242269940  -1.245254537  -1.650685448
H        0.902185606  -1.547266170  -2.111790378
H        0.992496958   1.483964645  -2.194699159
H       -1.859775734   0.562991762  -2.115746040


