&CONTROL
  calculation   = 'scf',
  pseudo_dir    = '/util/academic/espresso/6.2.1/pseudopotentials/upf_files/',
  outdir        = './',
  prefix        = 'x0',
  disk_io       = 'low',
/

&SYSTEM
  ibrav       = 0,
  nat         = 25,
  ntyp        = 4,
  nspin       = 1,
  nbnd        = 100
  ecutwfc     = 30,
  ecutrho     = 300,
  occupations = 'smearing',
  smearing    = 'gaussian',
  degauss     = 0.01,
  nosym       = true,
/

&ELECTRONS
  electron_maxstep = 300,
  conv_thr         = 1.D-4,
  mixing_beta      = 0.30,
/

ATOMIC_SPECIES
C  12.010     C.pbe-n-rrkjus_psl.0.1.UPF 
H  1.007      H.pbe-rrkjus_psl.0.1.UPF 
Ir 192.217    Ir.pbe-n-rrkjus_psl.0.2.3.UPF
N  14.006     N.pbe-n-rrkjus_psl.0.1.UPF

K_POINTS gamma

CELL_PARAMETERS  angstrom
        7.0652699470        0.0000000000         0.0000000000
        0.0000000000        7.0652699470         0.0000000000
        0.0000000000        0.0000000000         7.0652699470 

ATOMIC_POSITIONS (angstrom)
Ir       0.002780834   0.046769486   0.031171189
N        1.189137303  -1.348129932  -1.143195186
N       -1.690420848   0.018010074  -1.323866676
N        0.735274695   1.505261216  -1.204736235
C       -0.604803501   1.594522921   1.081264533
C        1.487172684  -0.362365646   1.341462462
C        1.972968486  -1.996533883  -0.338152466
C        2.232642068  -1.518471456   1.016892361
C       -1.122500710  -1.384210634   0.901371792
C        0.466099055   2.708863364  -0.716415979
C       -0.099719379   2.748302664   0.590418821
C       -2.455557931  -0.957872292  -1.017048042
C       -2.239854872  -1.703647653   0.184732971
H        1.747658224   0.348289859   2.127467966
H        2.937156735  -1.953293288   1.739929983
H        2.731410240  -2.830106621  -0.703978729
H        0.801047878   3.566377439  -1.406092777
H       -0.120295189   3.691508042   1.150093834
H       -1.168911235   1.519067813   2.066484004
H       -2.750254036  -2.632744380   0.469737430
H       -0.899147589  -1.927814795   1.911598880
H       -3.380178800  -1.201523406  -1.573078499
H        1.403017220  -1.612601344  -2.133651915
H        1.048059656   1.599763826  -2.161888272
H       -1.799065600   0.462615479  -2.204976297


