&CONTROL
  calculation   = 'scf',
  pseudo_dir    = '/util/academic/espresso/6.2.1/pseudopotentials/upf_files/',
  outdir        = './',
  prefix        = 'x0',
  disk_io       = 'low',
/

&SYSTEM
  ibrav       = 0,
  nat         = 25,
  ntyp        = 4,
  nspin       = 1,
  nbnd        = 100
  ecutwfc     = 30,
  ecutrho     = 300,
  occupations = 'smearing',
  smearing    = 'gaussian',
  degauss     = 0.01,
  nosym       = true,
/

&ELECTRONS
  electron_maxstep = 300,
  conv_thr         = 1.D-4,
  mixing_beta      = 0.30,
/

ATOMIC_SPECIES
C  12.010     C.pbe-n-rrkjus_psl.0.1.UPF 
H  1.007      H.pbe-rrkjus_psl.0.1.UPF 
Ir 192.217    Ir.pbe-n-rrkjus_psl.0.2.3.UPF
N  14.006     N.pbe-n-rrkjus_psl.0.1.UPF

K_POINTS gamma

CELL_PARAMETERS  angstrom
        7.0652699470        0.0000000000         0.0000000000
        0.0000000000        7.0652699470         0.0000000000
        0.0000000000        0.0000000000         7.0652699470 

ATOMIC_POSITIONS (angstrom)
Ir       0.002500526   0.046616945   0.031412284
N        1.170862014  -1.344080513  -1.149566702
N       -1.690799772   0.010534600  -1.314700739
N        0.737699309   1.493538664  -1.207752665
C       -0.604291378   1.585550377   1.065758535
C        1.506683555  -0.369386610   1.293339068
C        1.968663608  -1.997603579  -0.342841330
C        2.220610059  -1.523695983   1.019705143
C       -1.109430734  -1.377623609   0.907174695
C        0.466927917   2.703681867  -0.706336483
C       -0.069159377   2.756477998   0.582221189
C       -2.461946488  -0.944790422  -1.014480985
C       -2.250012090  -1.686963372   0.227590326
H        1.712923400   0.367588112   2.162247954
H        2.984875506  -1.995945600   1.727819480
H        2.613110810  -2.819038167  -0.719560903
H        0.788426672   3.585279769  -1.357158563
H       -0.106688766   3.676023293   1.197398113
H       -1.238160658   1.543785466   2.060054431
H       -2.729981777  -2.614278985   0.460951886
H       -0.862883219  -1.977759813   1.859801461
H       -3.406601739  -1.222431028  -1.526157712
H        1.409814954  -1.547115930  -2.096146859
H        1.113020314   1.587982444  -2.205240491
H       -1.824988867   0.481804832  -2.177451167


