&CONTROL
  calculation   = 'scf',
  pseudo_dir    = '/util/academic/espresso/6.2.1/pseudopotentials/upf_files/',
  outdir        = './',
  prefix        = 'x0',
  disk_io       = 'low',
/

&SYSTEM
  ibrav       = 0,
  nat         = 25,
  ntyp        = 4,
  nspin       = 1,
  nbnd        = 100
  ecutwfc     = 30,
  ecutrho     = 300,
  occupations = 'smearing',
  smearing    = 'gaussian',
  degauss     = 0.01,
  nosym       = true,
/

&ELECTRONS
  electron_maxstep = 300,
  conv_thr         = 1.D-4,
  mixing_beta      = 0.30,
/

ATOMIC_SPECIES
C  12.010     C.pbe-n-rrkjus_psl.0.1.UPF 
H  1.007      H.pbe-rrkjus_psl.0.1.UPF 
Ir 192.217    Ir.pbe-n-rrkjus_psl.0.2.3.UPF
N  14.006     N.pbe-n-rrkjus_psl.0.1.UPF

K_POINTS gamma

CELL_PARAMETERS  angstrom
        7.0652699470        0.0000000000         0.0000000000
        0.0000000000        7.0652699470         0.0000000000
        0.0000000000        0.0000000000         7.0652699470 

ATOMIC_POSITIONS (angstrom)
Ir      -0.002229807   0.035395486   0.015964716
N        1.133403878  -1.321370163  -1.126171341
N       -1.670207240   0.035320336  -1.215410308
N        0.748798220   1.532937380  -1.209991979
C       -0.576015755   1.599684892   1.052632089
C        1.546136779  -0.388211974   1.261638470
C        2.005900791  -2.000911081  -0.339617780
C        2.237950343  -1.502377640   0.964565919
C       -1.092838837  -1.297554964   0.925672753
C        0.521137110   2.678781711  -0.699645878
C       -0.066085701   2.766558471   0.602512481
C       -2.534851975  -0.985916044  -0.901726377
C       -2.243889247  -1.654245541   0.288437921
H        1.736091414   0.133400344   2.243721149
H        2.946672490  -1.993230686   1.597104905
H        2.605155623  -2.830946266  -0.732891001
H        0.562689251   3.639563926  -1.266872783
H       -0.058907601   3.751010648   1.102313603
H       -1.221226651   1.555024898   1.982211722
H       -2.777455338  -2.627860290   0.454223441
H       -0.857863573  -1.737485582   1.858870901
H       -3.270798912  -1.179990809  -1.656187744
H        1.044942394  -1.442487281  -2.115044956
H        1.003108327   1.389807942  -2.212359555
H       -1.819676473   0.505682416  -2.054217141


