&CONTROL
  calculation   = 'scf',
  pseudo_dir    = '/util/academic/espresso/6.2.1/pseudopotentials/upf_files/',
  outdir        = './',
  prefix        = 'x0',
  disk_io       = 'low',
/

&SYSTEM
  ibrav       = 0,
  nat         = 25,
  ntyp        = 4,
  nspin       = 1,
  nbnd        = 100
  ecutwfc     = 30,
  ecutrho     = 300,
  occupations = 'smearing',
  smearing    = 'gaussian',
  degauss     = 0.01,
  nosym       = true,
/

&ELECTRONS
  electron_maxstep = 300,
  conv_thr         = 1.D-4,
  mixing_beta      = 0.30,
/

ATOMIC_SPECIES
C  12.010     C.pbe-n-rrkjus_psl.0.1.UPF 
H  1.007      H.pbe-rrkjus_psl.0.1.UPF 
Ir 192.217    Ir.pbe-n-rrkjus_psl.0.2.3.UPF
N  14.006     N.pbe-n-rrkjus_psl.0.1.UPF

K_POINTS gamma

CELL_PARAMETERS  angstrom
        7.0652699470        0.0000000000         0.0000000000
        0.0000000000        7.0652699470         0.0000000000
        0.0000000000        0.0000000000         7.0652699470 

ATOMIC_POSITIONS (angstrom)
Ir       0.003495450   0.043368691   0.025932203
N        1.237416801  -1.338484872  -1.115414522
N       -1.622864345   0.062140799  -1.308168682
N        0.738096205   1.548513237  -1.172328644
C       -0.649840264   1.573250011   1.122810729
C        1.495375773  -0.384784095   1.330119662
C        2.047943297  -1.986037986  -0.305696298
C        2.130318604  -1.536474593   1.046793038
C       -1.089201284  -1.398726241   0.853898095
C        0.452260511   2.749869723  -0.693190270
C       -0.182683608   2.794685482   0.604474045
C       -2.432112725  -0.954888531  -1.033169591
C       -2.180806260  -1.773402122   0.124168112
H        1.760092917   0.013584573   2.351152504
H        2.873607621  -2.015957540   1.664737166
H        2.613763462  -2.885727937  -0.724812243
H        0.522778059   3.565862043  -1.350261484
H       -0.156686273   3.754040785   1.093456672
H       -1.295188827   1.649422244   2.011036341
H       -2.930739549  -2.565431545   0.327077715
H       -0.826137900  -1.788509514   1.856307765
H       -3.361319260  -1.179835682  -1.582494047
H        0.944228933  -1.682409360  -2.030977321
H        0.931097857   1.480330258  -2.218978176
H       -1.772789257   0.521626947  -2.237807093


