&CONTROL
  calculation   = 'scf',
  pseudo_dir    = '/util/academic/espresso/6.2.1/pseudopotentials/upf_files/',
  outdir        = './',
  prefix        = 'x0',
  disk_io       = 'low',
/

&SYSTEM
  ibrav       = 0,
  nat         = 25,
  ntyp        = 4,
  nspin       = 1,
  nbnd        = 100
  ecutwfc     = 30,
  ecutrho     = 300,
  occupations = 'smearing',
  smearing    = 'gaussian',
  degauss     = 0.01,
  nosym       = true,
/

&ELECTRONS
  electron_maxstep = 300,
  conv_thr         = 1.D-4,
  mixing_beta      = 0.30,
/

ATOMIC_SPECIES
C  12.010     C.pbe-n-rrkjus_psl.0.1.UPF 
H  1.007      H.pbe-rrkjus_psl.0.1.UPF 
Ir 192.217    Ir.pbe-n-rrkjus_psl.0.2.3.UPF
N  14.006     N.pbe-n-rrkjus_psl.0.1.UPF

K_POINTS gamma

CELL_PARAMETERS  angstrom
        7.0652699470        0.0000000000         0.0000000000
        0.0000000000        7.0652699470         0.0000000000
        0.0000000000        0.0000000000         7.0652699470 

ATOMIC_POSITIONS (angstrom)
Ir      -0.001900493   0.002760211  -0.008201272
N        0.958975616  -1.540449268  -1.131495654
N       -1.801949698  -0.067066028  -1.120937844
N        0.884825902   1.577613139  -1.133386314
C       -0.482695416   1.583694710   1.077190689
C        1.603826862  -0.390954433   1.074922791
C        2.057440256  -1.947233899  -0.573261957
C        2.423870846  -1.329032430   0.613891438
C       -1.141276166  -1.218555315   1.085103548
C        0.663600057   2.755750438  -0.622267592
C       -0.035717224   2.829790288   0.609923876
C       -2.718997677  -0.804144119  -0.611737758
C       -2.388340396  -1.483400117   0.602137926
H        1.837676385   0.143561910   2.004725747
H        3.132247833  -1.520232917   1.213048149
H        2.735947195  -2.735961898  -0.993442019
H        0.996420582   3.639906709  -1.099209910
H       -0.254952826   3.777779560   1.119258684
H       -1.117742600   1.561729050   2.005613048
H       -2.644135071  -2.426512440   1.123572080
H       -0.812239392  -1.613067917   2.064913519
H       -3.623818721  -0.917254079  -1.178007520
H        0.576364278  -2.077157414  -1.952829810
H        1.292523112   1.628662877  -2.081620567
H       -2.119631812   0.476291848  -1.927481387


