&CONTROL
  calculation   = 'scf',
  pseudo_dir    = '/util/academic/espresso/6.2.1/pseudopotentials/upf_files/',
  outdir        = './',
  prefix        = 'x0',
  disk_io       = 'low',
/

&SYSTEM
  ibrav       = 0,
  nat         = 25,
  ntyp        = 4,
  nspin       = 1,
  nbnd        = 100
  ecutwfc     = 30,
  ecutrho     = 300,
  occupations = 'smearing',
  smearing    = 'gaussian',
  degauss     = 0.01,
  nosym       = true,
/

&ELECTRONS
  electron_maxstep = 300,
  conv_thr         = 1.D-4,
  mixing_beta      = 0.30,
/

ATOMIC_SPECIES
C  12.010     C.pbe-n-rrkjus_psl.0.1.UPF 
H  1.007      H.pbe-rrkjus_psl.0.1.UPF 
Ir 192.217    Ir.pbe-n-rrkjus_psl.0.2.3.UPF
N  14.006     N.pbe-n-rrkjus_psl.0.1.UPF

K_POINTS gamma

CELL_PARAMETERS  angstrom
        7.0652699470        0.0000000000         0.0000000000
        0.0000000000        7.0652699470         0.0000000000
        0.0000000000        0.0000000000         7.0652699470 

ATOMIC_POSITIONS (angstrom)
Ir      -0.010919756   0.031569095   0.007037265
N        0.923410103  -1.469659732  -1.201189589
N       -1.729180912  -0.028696167  -1.185352719
N        1.002837610   1.507339443  -1.114313224
C       -0.525519948   1.582082051   1.077748828
C        1.532764002  -0.357373234   1.150078577
C        1.921548961  -1.959503854  -0.524308802
C        2.261599456  -1.389423125   0.755573023
C       -1.044452758  -1.176627277   1.056400059
C        0.573266314   2.660915746  -0.657260915
C       -0.053844525   2.823285846   0.627352772
C       -2.548644889  -0.943740576  -0.719130432
C       -2.163019805  -1.648726575   0.426410741
H        1.685884148   0.182899179   2.091687972
H        3.023313587  -1.912222625   1.336038469
H        2.386661207  -2.897095191  -0.942438163
H        0.722855571   3.456700827  -1.257228572
H       -0.159236002   3.732313670   1.192776001
H       -0.975441332   1.500938462   2.094818906
H       -2.463754322  -2.711540029   0.440922217
H       -0.630537668  -1.731500486   1.951975189
H       -3.514799106  -1.118138066  -1.163041401
H        0.691453745  -1.971833752  -2.127390360
H        1.371086831   1.537241350  -2.060118503
H       -2.241939167   0.660620793  -1.816379265


