&CONTROL
  calculation   = 'scf',
  pseudo_dir    = '/util/academic/espresso/6.2.1/pseudopotentials/upf_files/',
  outdir        = './',
  prefix        = 'x0',
  disk_io       = 'low',
/

&SYSTEM
  ibrav       = 0,
  nat         = 25,
  ntyp        = 4,
  nspin       = 1,
  nbnd        = 100
  ecutwfc     = 30,
  ecutrho     = 300,
  occupations = 'smearing',
  smearing    = 'gaussian',
  degauss     = 0.01,
  nosym       = true,
/

&ELECTRONS
  electron_maxstep = 300,
  conv_thr         = 1.D-4,
  mixing_beta      = 0.30,
/

ATOMIC_SPECIES
C  12.010     C.pbe-n-rrkjus_psl.0.1.UPF 
H  1.007      H.pbe-rrkjus_psl.0.1.UPF 
Ir 192.217    Ir.pbe-n-rrkjus_psl.0.2.3.UPF
N  14.006     N.pbe-n-rrkjus_psl.0.1.UPF

K_POINTS gamma

CELL_PARAMETERS  angstrom
        7.0652699470        0.0000000000         0.0000000000
        0.0000000000        7.0652699470         0.0000000000
        0.0000000000        0.0000000000         7.0652699470 

ATOMIC_POSITIONS (angstrom)
Ir       0.002419388   0.046691235   0.031051113
N        1.195391371  -1.349828862  -1.140132700
N       -1.689173602   0.023839619  -1.321345630
N        0.734016673   1.514330369  -1.203037817
C       -0.605266612   1.595181593   1.089289116
C        1.480786640  -0.360905653   1.356500170
C        1.980034992  -2.002508342  -0.338838660
C        2.241145549  -1.512923069   1.017735734
C       -1.121039085  -1.386818388   0.890448587
C        0.468054096   2.710528426  -0.721818536
C       -0.109758346   2.748646252   0.594611464
C       -2.456979970  -0.965764882  -1.015611711
C       -2.234370792  -1.709765657   0.170395628
H        1.761031299   0.329306184   2.119472978
H        2.909434442  -1.934658002   1.726946321
H        2.709355613  -2.787129319  -0.723124647
H        0.783488670   3.534638926  -1.392677307
H       -0.125488722   3.689028272   1.125628744
H       -1.151651552   1.515828905   2.056027979
H       -2.763710217  -2.637827648   0.482527053
H       -0.926729919  -1.926020632   1.929778928
H       -3.359071782  -1.188096839  -1.595453541
H        1.385415573  -1.628904061  -2.145071754
H        1.027056522   1.588892270  -2.146543729
H       -1.789949256   0.459882435  -2.212584675


