&CONTROL
  calculation   = 'scf',
  pseudo_dir    = '/util/academic/espresso/6.2.1/pseudopotentials/upf_files/',
  outdir        = './',
  prefix        = 'x0',
  disk_io       = 'low',
/

&SYSTEM
  ibrav       = 0,
  nat         = 25,
  ntyp        = 4,
  nspin       = 1,
  nbnd        = 100
  ecutwfc     = 30,
  ecutrho     = 300,
  occupations = 'smearing',
  smearing    = 'gaussian',
  degauss     = 0.01,
  nosym       = true,
/

&ELECTRONS
  electron_maxstep = 300,
  conv_thr         = 1.D-4,
  mixing_beta      = 0.30,
/

ATOMIC_SPECIES
C  12.010     C.pbe-n-rrkjus_psl.0.1.UPF 
H  1.007      H.pbe-rrkjus_psl.0.1.UPF 
Ir 192.217    Ir.pbe-n-rrkjus_psl.0.2.3.UPF
N  14.006     N.pbe-n-rrkjus_psl.0.1.UPF

K_POINTS gamma

CELL_PARAMETERS  angstrom
        7.0652699470        0.0000000000         0.0000000000
        0.0000000000        7.0652699470         0.0000000000
        0.0000000000        0.0000000000         7.0652699470 

ATOMIC_POSITIONS (angstrom)
Ir      -0.008371665   0.031829929   0.011533936
N        0.920867131  -1.425297536  -1.228129879
N       -1.728887331  -0.015727617  -1.235009499
N        0.954785651   1.521144108  -1.088843078
C       -0.496041892   1.615064562   1.067662715
C        1.495887964  -0.365223411   1.192853095
C        1.890656336  -1.980393905  -0.494345225
C        2.254877525  -1.432145416   0.788883076
C       -1.037462570  -1.253501598   1.020029766
C        0.565037346   2.678027115  -0.681938072
C       -0.030860420   2.795863034   0.616123002
C       -2.542721516  -0.908445558  -0.741163773
C       -2.173020912  -1.665481054   0.417569427
H        1.828211698   0.106663503   2.134034152
H        2.982838050  -1.939846585   1.391377385
H        2.564034372  -2.785186445  -0.755589168
H        0.762592535   3.495985560  -1.470734622
H       -0.126430093   3.736522733   1.170900614
H       -0.933383141   1.479140354   2.054017638
H       -2.653863763  -2.628705891   0.546444197
H       -0.639524784  -1.681306869   1.911115539
H       -3.460123665  -1.103999760  -1.269136060
H        0.795554080  -1.909894691  -2.115161115
H        1.420730287   1.524740561  -2.028807566
H       -2.105716682   0.672717390  -1.888311089


