&CONTROL
  calculation   = 'scf',
  pseudo_dir    = '/util/academic/espresso/6.2.1/pseudopotentials/upf_files/',
  outdir        = './',
  prefix        = 'x0',
  disk_io       = 'low',
/

&SYSTEM
  ibrav       = 0,
  nat         = 25,
  ntyp        = 4,
  nspin       = 1,
  nbnd        = 100
  ecutwfc     = 30,
  ecutrho     = 300,
  occupations = 'smearing',
  smearing    = 'gaussian',
  degauss     = 0.01,
  nosym       = true,
/

&ELECTRONS
  electron_maxstep = 300,
  conv_thr         = 1.D-4,
  mixing_beta      = 0.30,
/

ATOMIC_SPECIES
C  12.010     C.pbe-n-rrkjus_psl.0.1.UPF 
H  1.007      H.pbe-rrkjus_psl.0.1.UPF 
Ir 192.217    Ir.pbe-n-rrkjus_psl.0.2.3.UPF
N  14.006     N.pbe-n-rrkjus_psl.0.1.UPF

K_POINTS gamma

CELL_PARAMETERS  angstrom
        7.0652699470        0.0000000000         0.0000000000
        0.0000000000        7.0652699470         0.0000000000
        0.0000000000        0.0000000000         7.0652699470 

ATOMIC_POSITIONS (angstrom)
Ir      -0.000038986   0.007957680  -0.006872533
N        0.944156098  -1.557763953  -1.148581288
N       -1.801432300  -0.040507491  -1.129463719
N        0.940673160   1.559578569  -1.145929259
C       -0.483165934   1.578468921   1.089445397
C        1.557520114  -0.370524037   1.083160963
C        2.026846727  -1.970101771  -0.556025664
C        2.322010560  -1.305408727   0.617848335
C       -1.121883444  -1.191310818   1.099076037
C        0.648470534   2.736973864  -0.624209192
C       -0.060649918   2.823277931   0.624442197
C       -2.704962180  -0.816163845  -0.633465822
C       -2.322018723  -1.525774106   0.598336797
H        1.801229561   0.171666420   2.011109717
H        3.191222587  -1.658492065   1.280845847
H        2.729229332  -2.715513758  -0.881016362
H        0.929339570   3.590178525  -1.236671305
H       -0.230993957   3.764876680   1.154155282
H       -1.150073744   1.532129353   1.966363346
H       -2.132864661  -2.798277253   0.952672490
H       -0.811193640  -1.562968125   2.086853151
H       -3.536107054  -0.888930374  -1.352743573
H        0.656719673  -2.147239815  -1.904371641
H        1.212466311   1.647113763  -2.132008596
H       -2.167741357   0.568423516  -1.878937424


