&CONTROL
  calculation   = 'scf',
  pseudo_dir    = '/util/academic/espresso/6.2.1/pseudopotentials/upf_files/',
  outdir        = './',
  prefix        = 'x0',
  disk_io       = 'low',
/

&SYSTEM
  ibrav       = 0,
  nat         = 25,
  ntyp        = 4,
  nspin       = 1,
  nbnd        = 100
  ecutwfc     = 30,
  ecutrho     = 300,
  occupations = 'smearing',
  smearing    = 'gaussian',
  degauss     = 0.01,
  nosym       = true,
/

&ELECTRONS
  electron_maxstep = 300,
  conv_thr         = 1.D-4,
  mixing_beta      = 0.30,
/

ATOMIC_SPECIES
C  12.010     C.pbe-n-rrkjus_psl.0.1.UPF 
H  1.007      H.pbe-rrkjus_psl.0.1.UPF 
Ir 192.217    Ir.pbe-n-rrkjus_psl.0.2.3.UPF
N  14.006     N.pbe-n-rrkjus_psl.0.1.UPF

K_POINTS gamma

CELL_PARAMETERS  angstrom
        7.0652699470        0.0000000000         0.0000000000
        0.0000000000        7.0652699470         0.0000000000
        0.0000000000        0.0000000000         7.0652699470 

ATOMIC_POSITIONS (angstrom)
Ir      -0.005608476   0.024493453   0.000050284
N        0.925550443  -1.547180692  -1.160439312
N       -1.759976507  -0.039632044  -1.123581347
N        1.010524648   1.534425427  -1.140918080
C       -0.501108018   1.583695523   1.047040481
C        1.519458821  -0.302900653   1.111950137
C        1.964743225  -1.964125270  -0.544642438
C        2.285520614  -1.359777215   0.704959501
C       -1.056465933  -1.153433738   1.094290970
C        0.598515737   2.658790081  -0.624567799
C       -0.063281378   2.814041148   0.628329754
C       -2.597401467  -0.901889450  -0.709015360
C       -2.245092088  -1.621741393   0.514710894
H        1.739080650   0.187981863   2.084669343
H        3.084750858  -1.794804390   1.341526951
H        2.388415635  -2.886694579  -0.991903675
H        0.669853107   3.592376216  -1.197629175
H       -0.127945138   3.725519936   1.215928765
H       -1.033761826   1.509649910   2.005000526
H       -2.486811214  -2.653054661   0.377083631
H       -0.751272741  -1.680264897   2.009456728
H       -3.522765254  -1.060420719  -1.239308987
H        0.682623222  -2.060353678  -2.009491360
H        1.256501148   1.548174469  -2.116700560
H       -2.143202201   0.575111640  -1.819317047


