&CONTROL
  calculation   = 'scf',
  pseudo_dir    = '/util/academic/espresso/6.2.1/pseudopotentials/upf_files/',
  outdir        = './',
  prefix        = 'x0',
  disk_io       = 'low',
/

&SYSTEM
  ibrav       = 0,
  nat         = 25,
  ntyp        = 4,
  nspin       = 1,
  nbnd        = 100
  ecutwfc     = 30,
  ecutrho     = 300,
  occupations = 'smearing',
  smearing    = 'gaussian',
  degauss     = 0.01,
  nosym       = true,
/

&ELECTRONS
  electron_maxstep = 300,
  conv_thr         = 1.D-4,
  mixing_beta      = 0.30,
/

ATOMIC_SPECIES
C  12.010     C.pbe-n-rrkjus_psl.0.1.UPF 
H  1.007      H.pbe-rrkjus_psl.0.1.UPF 
Ir 192.217    Ir.pbe-n-rrkjus_psl.0.2.3.UPF
N  14.006     N.pbe-n-rrkjus_psl.0.1.UPF

K_POINTS gamma

CELL_PARAMETERS  angstrom
        7.0652699470        0.0000000000         0.0000000000
        0.0000000000        7.0652699470         0.0000000000
        0.0000000000        0.0000000000         7.0652699470 

ATOMIC_POSITIONS (angstrom)
Ir       0.003334492   0.044357092   0.027540044
N        1.238532794  -1.344871935  -1.118889983
N       -1.630083454   0.057850051  -1.293127529
N        0.734041935   1.557443936  -1.178450959
C       -0.646782760   1.573441080   1.123429188
C        1.487183272  -0.395321618   1.326323868
C        2.036959453  -1.994293265  -0.314491378
C        2.141057414  -1.519803672   1.048357057
C       -1.095121101  -1.400245460   0.852442656
C        0.461198759   2.734503555  -0.706133484
C       -0.175203506   2.796271806   0.604594723
C       -2.431427691  -0.954507633  -1.029871569
C       -2.180624790  -1.775216394   0.112387633
H        1.793278279   0.037922587   2.294814985
H        2.866402654  -1.974022939   1.688108227
H        2.622130636  -2.847916589  -0.763852786
H        0.588090522   3.572548760  -1.357821061
H       -0.162244404   3.735620232   1.099988888
H       -1.277028999   1.608336484   2.034117248
H       -2.932312092  -2.557979408   0.359476681
H       -0.814513155  -1.780655722   1.862828635
H       -3.380897356  -1.154825422  -1.583411516
H        0.969738974  -1.677002038  -2.083572361
H        0.917272437   1.477933189  -2.162715422
H       -1.786590729   0.485256826  -2.216551179


