&CONTROL
  calculation   = 'scf',
  pseudo_dir    = '/util/academic/espresso/6.2.1/pseudopotentials/upf_files/',
  outdir        = './',
  prefix        = 'x0',
  disk_io       = 'low',
/

&SYSTEM
  ibrav       = 0,
  nat         = 25,
  ntyp        = 4,
  nspin       = 1,
  nbnd        = 100
  ecutwfc     = 30,
  ecutrho     = 300,
  occupations = 'smearing',
  smearing    = 'gaussian',
  degauss     = 0.01,
  nosym       = true,
/

&ELECTRONS
  electron_maxstep = 300,
  conv_thr         = 1.D-4,
  mixing_beta      = 0.30,
/

ATOMIC_SPECIES
C  12.010     C.pbe-n-rrkjus_psl.0.1.UPF 
H  1.007      H.pbe-rrkjus_psl.0.1.UPF 
Ir 192.217    Ir.pbe-n-rrkjus_psl.0.2.3.UPF
N  14.006     N.pbe-n-rrkjus_psl.0.1.UPF

K_POINTS gamma

CELL_PARAMETERS  angstrom
        7.0652699470        0.0000000000         0.0000000000
        0.0000000000        7.0652699470         0.0000000000
        0.0000000000        0.0000000000         7.0652699470 

ATOMIC_POSITIONS (angstrom)
Ir      -0.010667254   0.031620781   0.007993025
N        0.922650913  -1.456341227  -1.208368543
N       -1.727550798  -0.026439287  -1.195497063
N        0.996610212   1.510261081  -1.111158722
C       -0.525272849   1.582062669   1.082881706
C        1.528831776  -0.356745001   1.149140657
C        1.916067510  -1.962005255  -0.519735628
C        2.258396297  -1.399558639   0.762422764
C       -1.042900650  -1.187126462   1.048596270
C        0.571583370   2.662211054  -0.662060270
C       -0.048901629   2.821572618   0.626032962
C       -2.548410754  -0.938289051  -0.721682108
C       -2.164345854  -1.647742032   0.426213428
H        1.709050613   0.174935176   2.103867547
H        3.031985198  -1.932466078   1.352713420
H        2.426476597  -2.901720858  -0.917512314
H        0.732969052   3.444458162  -1.294058391
H       -0.155945713   3.724636985   1.195840371
H       -0.968512204   1.487331694   2.099715548
H       -2.494792901  -2.716868983   0.439339055
H       -0.620772251  -1.728471398   1.947943376
H       -3.506257666  -1.124789232  -1.175345885
H        0.717628010  -1.964051333  -2.131527590
H        1.376655870   1.538351097  -2.038873543
H       -2.223474154   0.656800651  -1.813275252


