&CONTROL
  calculation   = 'scf',
  pseudo_dir    = '/util/academic/espresso/6.2.1/pseudopotentials/upf_files/',
  outdir        = './',
  prefix        = 'x0',
  disk_io       = 'low',
/

&SYSTEM
  ibrav       = 0,
  nat         = 25,
  ntyp        = 4,
  nspin       = 1,
  nbnd        = 100
  ecutwfc     = 30,
  ecutrho     = 300,
  occupations = 'smearing',
  smearing    = 'gaussian',
  degauss     = 0.01,
  nosym       = true,
/

&ELECTRONS
  electron_maxstep = 300,
  conv_thr         = 1.D-4,
  mixing_beta      = 0.30,
/

ATOMIC_SPECIES
C  12.010     C.pbe-n-rrkjus_psl.0.1.UPF 
H  1.007      H.pbe-rrkjus_psl.0.1.UPF 
Ir 192.217    Ir.pbe-n-rrkjus_psl.0.2.3.UPF
N  14.006     N.pbe-n-rrkjus_psl.0.1.UPF

K_POINTS gamma

CELL_PARAMETERS  angstrom
        7.0652699470        0.0000000000         0.0000000000
        0.0000000000        7.0652699470         0.0000000000
        0.0000000000        0.0000000000         7.0652699470 

ATOMIC_POSITIONS (angstrom)
Ir      -0.000237685   0.042888827   0.024026881
N        1.146122185  -1.341329381  -1.141050362
N       -1.682185938   0.028095675  -1.252466473
N        0.739934130   1.514858553  -1.208096438
C       -0.601007953   1.570146722   1.058555021
C        1.538534573  -0.377048783   1.264465659
C        1.978339338  -2.008254940  -0.341965048
C        2.251393527  -1.509260140   1.018450935
C       -1.110502229  -1.340435862   0.916059937
C        0.490570493   2.680769039  -0.707235039
C       -0.044215948   2.774828792   0.583224584
C       -2.498863578  -0.963483437  -0.977434988
C       -2.244521491  -1.661891122   0.277519802
H        1.675474246   0.197035379   2.120343437
H        2.947283411  -2.008964789   1.598895926
H        2.552796075  -2.832486740  -0.766915010
H        0.664980077   3.578199628  -1.215769128
H       -0.076407198   3.647842043   1.181969617
H       -1.245882809   1.596286620   1.918285319
H       -2.761479167  -2.597721901   0.546430948
H       -0.846652837  -1.981458837   1.826558070
H       -3.371128951  -1.189412112  -1.571994385
H        1.306429550  -1.454933791  -2.186478435
H        1.057501217   1.476729417  -2.156398131
H       -1.827610348   0.532126188  -2.187657356


