&CONTROL
  calculation   = 'scf',
  pseudo_dir    = '/util/academic/espresso/6.2.1/pseudopotentials/upf_files/',
  outdir        = './',
  prefix        = 'x0',
  disk_io       = 'low',
/

&SYSTEM
  ibrav       = 0,
  nat         = 25,
  ntyp        = 4,
  nspin       = 1,
  nbnd        = 100
  ecutwfc     = 30,
  ecutrho     = 300,
  occupations = 'smearing',
  smearing    = 'gaussian',
  degauss     = 0.01,
  nosym       = true,
/

&ELECTRONS
  electron_maxstep = 300,
  conv_thr         = 1.D-4,
  mixing_beta      = 0.30,
/

ATOMIC_SPECIES
C  12.010     C.pbe-n-rrkjus_psl.0.1.UPF 
H  1.007      H.pbe-rrkjus_psl.0.1.UPF 
Ir 192.217    Ir.pbe-n-rrkjus_psl.0.2.3.UPF
N  14.006     N.pbe-n-rrkjus_psl.0.1.UPF

K_POINTS gamma

CELL_PARAMETERS  angstrom
        7.0652699470        0.0000000000         0.0000000000
        0.0000000000        7.0652699470         0.0000000000
        0.0000000000        0.0000000000         7.0652699470 

ATOMIC_POSITIONS (angstrom)
Ir      -0.001022391   0.038058577   0.017666415
N        1.135420182  -1.335548444  -1.132282570
N       -1.680699287   0.040231122  -1.220319329
N        0.745384832   1.532174644  -1.208700190
C       -0.586466303   1.591344655   1.052393730
C        1.549163223  -0.387523294   1.258611766
C        1.996928359  -2.005872336  -0.337597050
C        2.245475347  -1.500334794   0.985241080
C       -1.104203589  -1.308869924   0.921299380
C        0.512562825   2.665999749  -0.701217879
C       -0.057417218   2.769006326   0.591885019
C       -2.526096891  -0.983742362  -0.926254629
C       -2.242122176  -1.654340144   0.289959720
H        1.715252137   0.132200106   2.263320223
H        2.968603865  -2.022404005   1.598362881
H        2.588461874  -2.851873682  -0.761544685
H        0.598241708   3.693925621  -1.266591931
H       -0.059394484   3.738908129   1.150770547
H       -1.260166817   1.563065921   1.989096550
H       -2.757929507  -2.562136996   0.505206903
H       -0.846970713  -1.832468633   1.857762043
H       -3.327549629  -1.165614391  -1.665478397
H        1.134226798  -1.423059486  -2.129741335
H        1.006354710   1.371574122  -2.197898835
H       -1.816777720   0.511011119  -2.091602623


