&CONTROL
  calculation   = 'scf',
  pseudo_dir    = '/util/academic/espresso/6.2.1/pseudopotentials/upf_files/',
  outdir        = './',
  prefix        = 'x0',
  disk_io       = 'low',
/

&SYSTEM
  ibrav       = 0,
  nat         = 25,
  ntyp        = 4,
  nspin       = 1,
  nbnd        = 100
  ecutwfc     = 30,
  ecutrho     = 300,
  occupations = 'smearing',
  smearing    = 'gaussian',
  degauss     = 0.01,
  nosym       = true,
/

&ELECTRONS
  electron_maxstep = 300,
  conv_thr         = 1.D-4,
  mixing_beta      = 0.30,
/

ATOMIC_SPECIES
C  12.010     C.pbe-n-rrkjus_psl.0.1.UPF 
H  1.007      H.pbe-rrkjus_psl.0.1.UPF 
Ir 192.217    Ir.pbe-n-rrkjus_psl.0.2.3.UPF
N  14.006     N.pbe-n-rrkjus_psl.0.1.UPF

K_POINTS gamma

CELL_PARAMETERS  angstrom
        7.0652699470        0.0000000000         0.0000000000
        0.0000000000        7.0652699470         0.0000000000
        0.0000000000        0.0000000000         7.0652699470 

ATOMIC_POSITIONS (angstrom)
Ir       0.000216556   0.044921916   0.027484265
N        1.154555799  -1.341503709  -1.145920216
N       -1.688040361   0.021877102  -1.277401795
N        0.737253844   1.503840654  -1.205836224
C       -0.604599573   1.570811755   1.061611060
C        1.526413063  -0.373813678   1.263992728
C        1.971013574  -2.004819184  -0.344161121
C        2.244093419  -1.515462210   1.024250227
C       -1.103036792  -1.362207735   0.915950800
C        0.479568120   2.694551109  -0.707858924
C       -0.041907510   2.769695668   0.583669513
C       -2.482840964  -0.951932939  -0.997510791
C       -2.248440793  -1.670170220   0.261863108
H        1.682340687   0.277686281   2.136366487
H        2.948424495  -1.995338031   1.632943250
H        2.578096524  -2.832291460  -0.751083169
H        0.706814487   3.531196308  -1.234266262
H       -0.088979389   3.636162995   1.190133575
H       -1.245863432   1.588879425   1.948967955
H       -2.750926345  -2.620431739   0.528211790
H       -0.863955676  -2.001961503   1.768056014
H       -3.383017801  -1.207786760  -1.528642019
H        1.366349865  -1.488182334  -2.151446977
H        1.098474569   1.529370412  -2.190546909
H       -1.825614569   0.503992204  -2.162439500


