&CONTROL
  calculation   = 'scf',
  pseudo_dir    = '/util/academic/espresso/6.2.1/pseudopotentials/upf_files/',
  outdir        = './',
  prefix        = 'x0',
  disk_io       = 'low',
/

&SYSTEM
  ibrav       = 0,
  nat         = 25,
  ntyp        = 4,
  nspin       = 1,
  nbnd        = 100
  ecutwfc     = 30,
  ecutrho     = 300,
  occupations = 'smearing',
  smearing    = 'gaussian',
  degauss     = 0.01,
  nosym       = true,
/

&ELECTRONS
  electron_maxstep = 300,
  conv_thr         = 1.D-4,
  mixing_beta      = 0.30,
/

ATOMIC_SPECIES
C  12.010     C.pbe-n-rrkjus_psl.0.1.UPF 
H  1.007      H.pbe-rrkjus_psl.0.1.UPF 
Ir 192.217    Ir.pbe-n-rrkjus_psl.0.2.3.UPF
N  14.006     N.pbe-n-rrkjus_psl.0.1.UPF

K_POINTS gamma

CELL_PARAMETERS  angstrom
        7.0652699470        0.0000000000         0.0000000000
        0.0000000000        7.0652699470         0.0000000000
        0.0000000000        0.0000000000         7.0652699470 

ATOMIC_POSITIONS (angstrom)
Ir      -0.001662017   0.036649064   0.016760706
N        1.134105007  -1.328398589  -1.130394551
N       -1.675126566   0.038879512  -1.218779925
N        0.746851329   1.533212105  -1.208902649
C       -0.580902363   1.595657388   1.051720033
C        1.548249461  -0.388557382   1.259441286
C        2.001513754  -2.003865576  -0.337984632
C        2.241963733  -1.500994051   0.975157141
C       -1.098573446  -1.303566341   0.923339856
C        0.517096721   2.670679327  -0.700245390
C       -0.061906266   2.767290669   0.596958465
C       -2.531338515  -0.985859910  -0.913650811
C       -2.242957557  -1.653988623   0.289733437
H        1.725931957   0.134841423   2.258095868
H        2.957142209  -2.007818307   1.595504728
H        2.598032686  -2.842890928  -0.747929488
H        0.579844746   3.675664173  -1.269089523
H       -0.058242831   3.749028496   1.128904989
H       -1.245076541   1.557898522   1.990108561
H       -2.763633653  -2.568731563   0.497255633
H       -0.853109044  -1.783202300   1.854918031
H       -3.297846996  -1.171528067  -1.661810799
H        1.089026051  -1.429167071  -2.116005434
H        1.005355318   1.377485673  -2.208726797
H       -1.816065112   0.502807531  -2.062570032


