&CONTROL
  calculation   = 'scf',
  pseudo_dir    = '/util/academic/espresso/6.2.1/pseudopotentials/upf_files/',
  outdir        = './',
  prefix        = 'x0',
  disk_io       = 'low',
/

&SYSTEM
  ibrav       = 0,
  nat         = 25,
  ntyp        = 4,
  nspin       = 1,
  nbnd        = 100
  ecutwfc     = 30,
  ecutrho     = 300,
  occupations = 'smearing',
  smearing    = 'gaussian',
  degauss     = 0.01,
  nosym       = true,
/

&ELECTRONS
  electron_maxstep = 300,
  conv_thr         = 1.D-4,
  mixing_beta      = 0.30,
/

ATOMIC_SPECIES
C  12.010     C.pbe-n-rrkjus_psl.0.1.UPF 
H  1.007      H.pbe-rrkjus_psl.0.1.UPF 
Ir 192.217    Ir.pbe-n-rrkjus_psl.0.2.3.UPF
N  14.006     N.pbe-n-rrkjus_psl.0.1.UPF

K_POINTS gamma

CELL_PARAMETERS  angstrom
        7.0652699470        0.0000000000         0.0000000000
        0.0000000000        7.0652699470         0.0000000000
        0.0000000000        0.0000000000         7.0652699470 

ATOMIC_POSITIONS (angstrom)
Ir      -0.000410346   0.041721790   0.022201974
N        1.142617360  -1.341723924  -1.138511568
N       -1.679455792   0.030993651  -1.241493145
N        0.741328994   1.520377486  -1.209053466
C       -0.597576980   1.574632348   1.056084949
C        1.543089240  -0.379603130   1.263361597
C        1.982690368  -2.008822737  -0.340520458
C        2.251506727  -1.505785534   1.011963540
C       -1.113031830  -1.329716414   0.917760924
C        0.496125269   2.673243335  -0.705728455
C       -0.046613672   2.774603169   0.583798457
C       -2.506452217  -0.969631760  -0.965325047
C       -2.243122622  -1.659098427   0.282954752
H        1.679703896   0.170124792   2.137280506
H        2.964192250  -2.026474574   1.602385890
H        2.543397070  -2.833859285  -0.773703364
H        0.649010797   3.623994108  -1.227877089
H       -0.071019119   3.669348903   1.179766175
H       -1.255625515   1.587086663   1.938504836
H       -2.762612203  -2.575802573   0.546444934
H       -0.841350863  -1.957773268   1.847043866
H       -3.368303027  -1.180023838  -1.602951819
H        1.267534506  -1.441021440  -2.185868017
H        1.039283163   1.448672710  -2.148853128
H       -1.826720437   0.537073794  -2.182765184


