&CONTROL
  calculation   = 'scf',
  pseudo_dir    = '/util/academic/espresso/6.2.1/pseudopotentials/upf_files/',
  outdir        = './',
  prefix        = 'x0',
  disk_io       = 'low',
/

&SYSTEM
  ibrav       = 0,
  nat         = 25,
  ntyp        = 4,
  nspin       = 1,
  nbnd        = 100
  ecutwfc     = 30,
  ecutrho     = 300,
  occupations = 'smearing',
  smearing    = 'gaussian',
  degauss     = 0.01,
  nosym       = true,
/

&ELECTRONS
  electron_maxstep = 300,
  conv_thr         = 1.D-4,
  mixing_beta      = 0.30,
/

ATOMIC_SPECIES
C  12.010     C.pbe-n-rrkjus_psl.0.1.UPF 
H  1.007      H.pbe-rrkjus_psl.0.1.UPF 
Ir 192.217    Ir.pbe-n-rrkjus_psl.0.2.3.UPF
N  14.006     N.pbe-n-rrkjus_psl.0.1.UPF

K_POINTS gamma

CELL_PARAMETERS  angstrom
        7.0652699470        0.0000000000         0.0000000000
        0.0000000000        7.0652699470         0.0000000000
        0.0000000000        0.0000000000         7.0652699470 

ATOMIC_POSITIONS (angstrom)
Ir      -0.000500670   0.009291798  -0.006248122
N        0.939704732  -1.560581901  -1.152875920
N       -1.800836432  -0.032209024  -1.131371589
N        0.950206158   1.556512620  -1.149402823
C       -0.483142110   1.574419285   1.083215946
C        1.553325338  -0.363452222   1.085055940
C        2.019905809  -1.974159933  -0.552235526
C        2.328000931  -1.319277845   0.623215452
C       -1.114376033  -1.181350935   1.102795116
C        0.642942868   2.729563651  -0.622475291
C       -0.066289872   2.819240148   0.628032480
C       -2.700759506  -0.821729927  -0.640041324
C       -2.318728330  -1.526446167   0.600874529
H        1.793028592   0.168945671   2.008486106
H        3.180073646  -1.660505665   1.300865550
H        2.719482336  -2.726968755  -0.868816838
H        0.916500612   3.585125176  -1.276536497
H       -0.220084564   3.757804132   1.159146835
H       -1.144494854   1.528333281   1.954134779
H       -2.092354442  -2.793989800   0.873889277
H       -0.814827299  -1.559425917   2.081436388
H       -3.525747083  -0.891098283  -1.374123673
H        0.669788949  -2.141757965  -1.905652591
H        1.198421428   1.640457661  -2.126153160
H       -2.164025345   0.577719730  -1.862249535


