&CONTROL
  calculation   = 'scf',
  pseudo_dir    = '/util/academic/espresso/6.2.1/pseudopotentials/upf_files/',
  outdir        = './',
  prefix        = 'x0',
  disk_io       = 'low',
/

&SYSTEM
  ibrav       = 0,
  nat         = 25,
  ntyp        = 4,
  nspin       = 1,
  nbnd        = 100
  ecutwfc     = 30,
  ecutrho     = 300,
  occupations = 'smearing',
  smearing    = 'gaussian',
  degauss     = 0.01,
  nosym       = true,
/

&ELECTRONS
  electron_maxstep = 300,
  conv_thr         = 1.D-4,
  mixing_beta      = 0.30,
/

ATOMIC_SPECIES
C  12.010     C.pbe-n-rrkjus_psl.0.1.UPF 
H  1.007      H.pbe-rrkjus_psl.0.1.UPF 
Ir 192.217    Ir.pbe-n-rrkjus_psl.0.2.3.UPF
N  14.006     N.pbe-n-rrkjus_psl.0.1.UPF

K_POINTS gamma

CELL_PARAMETERS  angstrom
        7.0652699470        0.0000000000         0.0000000000
        0.0000000000        7.0652699470         0.0000000000
        0.0000000000        0.0000000000         7.0652699470 

ATOMIC_POSITIONS (angstrom)
Ir      -0.001206689   0.003520227  -0.008203297
N        0.957551886  -1.543985332  -1.133290917
N       -1.802410510  -0.064014179  -1.122066220
N        0.896335881   1.573679932  -1.134426375
C       -0.483858657   1.582575470   1.078499986
C        1.596019367  -0.390651923   1.075329022
C        2.050778036  -1.950977788  -0.569534375
C        2.398862430  -1.319214465   0.612061460
C       -1.139937583  -1.216104621   1.087351371
C        0.662629729   2.755288182  -0.625287657
C       -0.040071493   2.830431138   0.612055711
C       -2.716991237  -0.804134634  -0.614398749
C       -2.374769926  -1.490159804   0.598762550
H        1.830602574   0.155577349   2.010017998
H        3.107839134  -1.500875284   1.311257188
H        2.746427747  -2.730190263  -0.968825115
H        0.976008224   3.613424412  -1.106562307
H       -0.252679372   3.775647392   1.113377437
H       -1.135824838   1.554333035   2.006982228
H       -2.509017391  -2.545171581   1.121170743
H       -0.807134033  -1.600022160   2.078453688
H       -3.600928404  -0.910007352  -1.213040745
H        0.583793280  -2.113389258  -1.953413836
H        1.278443078   1.639923820  -2.108448448
H       -2.138710917   0.501309299  -1.924227149


