&CONTROL
  calculation   = 'scf',
  pseudo_dir    = '/util/academic/espresso/6.2.1/pseudopotentials/upf_files/',
  outdir        = './',
  prefix        = 'x0',
  disk_io       = 'low',
/

&SYSTEM
  ibrav       = 0,
  nat         = 25,
  ntyp        = 4,
  nspin       = 1,
  nbnd        = 100
  ecutwfc     = 30,
  ecutrho     = 300,
  occupations = 'smearing',
  smearing    = 'gaussian',
  degauss     = 0.01,
  nosym       = true,
/

&ELECTRONS
  electron_maxstep = 300,
  conv_thr         = 1.D-4,
  mixing_beta      = 0.30,
/

ATOMIC_SPECIES
C  12.010     C.pbe-n-rrkjus_psl.0.1.UPF 
H  1.007      H.pbe-rrkjus_psl.0.1.UPF 
Ir 192.217    Ir.pbe-n-rrkjus_psl.0.2.3.UPF
N  14.006     N.pbe-n-rrkjus_psl.0.1.UPF

K_POINTS gamma

CELL_PARAMETERS  angstrom
        7.0652699470        0.0000000000         0.0000000000
        0.0000000000        7.0652699470         0.0000000000
        0.0000000000        0.0000000000         7.0652699470 

ATOMIC_POSITIONS (angstrom)
Ir      -0.000177629   0.000377468  -0.006478843
N        0.958570512  -1.524577284  -1.130506953
N       -1.800168848  -0.065929222  -1.124827202
N        0.848972895   1.589976614  -1.133812243
C       -0.481820327   1.592797185   1.073139967
C        1.619303942  -0.384650460   1.073134797
C        2.057736887  -1.952390652  -0.598990694
C        2.463593267  -1.349831302   0.613823240
C       -1.142738557  -1.217787629   1.075749445
C        0.662820155   2.757848102  -0.611257100
C       -0.051185561   2.818093558   0.612250960
C       -2.722197340  -0.806024352  -0.607499246
C       -2.409429767  -1.465883532   0.612471166
H        1.865818622   0.112127101   2.003597499
H        3.363482279  -1.656830767   1.117247318
H        2.665750330  -2.741091471  -1.068046883
H        1.046797423   3.673748947  -1.096555243
H       -0.246001019   3.766487601   1.120880729
H       -1.057235937   1.569379694   2.013716616
H       -3.062902305  -2.118353163   1.112695125
H       -0.837870288  -1.661609977   2.021407476
H       -3.683787935  -0.921713511  -1.104808393
H        0.636700589  -1.989347122  -1.975319557
H        1.343242786   1.579855044  -2.006764887
H       -2.056068110   0.416039881  -1.966016265


