 # Version information for this restart file 
 # current date 2021-06-24 14:41:34.609
 # current working dir /panfs/panfs.cbls.ccr.buffalo.edu/scratch/grp-cyberwksp21/ub2053/cof/opt-cell
 # Program compiled at                              Thu Apr 22 21:44:59 EDT 2021
 # Program compiled on                cpn-k07-07-02.compute.cbls.ccr.buffalo.edu
 # Program compiled for                                                    local
 # Source code revision number                                       git:36754bb
 &GLOBAL
   EXTENDED_FFT_LENGTHS  T
   PRINT_LEVEL  MEDIUM
   PROJECT_NAME COF
   RUN_TYPE  CELL_OPT
 &END GLOBAL
 &MOTION
   &GEO_OPT
     OPTIMIZER  BFGS
     MAX_ITER  550
     MAX_DR     2.0000000000000000E-03
     MAX_FORCE     2.9999999999999997E-04
     RMS_DR     2.0000000000000000E-03
     RMS_FORCE     2.9999999999999997E-04
     &BFGS
     &END BFGS
   &END GEO_OPT
   &CELL_OPT
     OPTIMIZER  BFGS
     MAX_ITER  550
     MAX_DR     2.0000000000000000E-03
     MAX_FORCE     2.9999999999999997E-04
     RMS_DR     2.0000000000000000E-03
     RMS_FORCE     2.9999999999999997E-04
     STEP_START_VAL  2
     TYPE  DIRECT_CELL_OPT
     EXTERNAL_PRESSURE     1.0000000000000000E+02    0.0000000000000000E+00    0.0000000000000000E+00    0.0000000000000000E+00 \
         1.0000000000000000E+02    0.0000000000000000E+00    0.0000000000000000E+00    0.0000000000000000E+00    1.0000000000000000E+02
     KEEP_SYMMETRY  F
     PRESSURE_TOLERANCE     1.0000000000000000E+02
   &END CELL_OPT
   &PRINT
     &TRAJECTORY  SILENT
       &EACH
         GEO_OPT  1
       &END EACH
     &END TRAJECTORY
     &FORCES  ON
     &END FORCES
     &RESTART  SILENT
       BACKUP_COPIES  1
       &EACH
         GEO_OPT  1
       &END EACH
     &END RESTART
   &END PRINT
 &END MOTION
 &FORCE_EVAL
   METHOD  QS
   STRESS_TENSOR  ANALYTICAL
   &DFT
     BASIS_SET_FILE_NAME BASIS_MOLOPT
     POTENTIAL_FILE_NAME POTENTIAL
     MULTIPLICITY  1
     &SCF
       MAX_SCF  50
       EPS_SCF     9.9999999999999995E-07
       SCF_GUESS  ATOMIC
       ADDED_MOS  50
       &DIAGONALIZATION  T
         ALGORITHM  DAVIDSON
       &END DIAGONALIZATION
       &SMEAR  T
         METHOD  FERMI_DIRAC
       &END SMEAR
       &MIXING  T
         METHOD  BROYDEN_MIXING
         ALPHA     2.9999999999999999E-01
         NBUFFER  8
       &END MIXING
     &END SCF
     &QS
       EPS_DEFAULT     1.0000000000000000E-14
       METHOD  GPW
     &END QS
     &MGRID
       NGRIDS  6
       CUTOFF     1.0000000000000000E+03
       REL_CUTOFF     6.0000000000000000E+01
     &END MGRID
     &XC
       DENSITY_CUTOFF     1.0000000000000000E-10
       GRADIENT_CUTOFF     1.0000000000000000E-10
       TAU_CUTOFF     1.0000000000000000E-10
       &XC_GRID
         XC_DERIV  SPLINE2_SMOOTH
       &END XC_GRID
       &XC_FUNCTIONAL  NO_SHORTCUT
         &PBE  T
         &END PBE
       &END XC_FUNCTIONAL
       &VDW_POTENTIAL
         POTENTIAL_TYPE  PAIR_POTENTIAL
         &PAIR_POTENTIAL
           TYPE  DFTD3
           PARAMETER_FILE_NAME dftd3.dat
           REFERENCE_FUNCTIONAL PBE
         &END PAIR_POTENTIAL
       &END VDW_POTENTIAL
     &END XC
     &POISSON
       POISSON_SOLVER  PERIODIC
       PERIODIC  XYZ
     &END POISSON
     &PRINT
       &MO_CUBES  SILENT
         WRITE_CUBE  F
         NLUMO  3
         NHOMO  3
       &END MO_CUBES
       &PDOS  SILENT
         COMPONENTS  T
         APPEND  T
         NLUMO  -1
       &END PDOS
       &MULLIKEN  OFF
       &END MULLIKEN
       &HIRSHFELD  OFF
       &END HIRSHFELD
     &END PRINT
   &END DFT
   &SUBSYS
     &CELL
       A     2.3023920260121379E+01    0.0000000000000000E+00    0.0000000000000000E+00
       B    -1.2315994342655419E+01    2.0126281939511195E+01    0.0000000000000000E+00
       C    -3.6356700792772823E-01    2.6411738550664499E-01    3.8841724552148065E+01
       PERIODIC  XYZ
       MULTIPLE_UNIT_CELL  1 1 1
     &END CELL
     &COORD
B    4.0272221952908405E+00    8.8821491514864164E+00    2.2335474117964896E+01
B    4.1362071354150860E+00    8.7872534223472414E+00    7.2301058376333200E+00
B    1.5710711590023370E+01    2.0333545484842337E+00    1.2645608893215028E+01
B    1.5631079792772043E+01    2.1088657407679352E+00    1.6946487838632077E+01
C    3.0636448716581461E+00    6.9921168243418332E+00    2.0990737358446118E+01
C    1.8445625628728508E+00    6.7814606489054379E+00    2.0235337619252380E+01
C    6.7594970615603955E+00    6.7584381346687206E+00    2.1153871253956137E+01
C    5.3391947446676342E+00    7.0080671346444330E+00    2.1325028649709473E+01
C   -7.2957417727833790E-02    8.1480261943926848E+00    1.9530882112813373E+01
C    1.0920365545804092E+00    8.0055155802206759E+00    2.0282470033698864E+01
C    7.4731349119755599E+00    5.5720440181720665E+00    2.1021103838773428E+01
C    1.8561792548675333E+00    8.9548600883076706E+00    2.1072738800970917E+01
C    1.4198086915803430E+00    5.7114131735785465E+00    1.9450531906674669E+01
C    4.0984785145393703E+00    8.6497834582267590E+00    4.4548714424163700E+00
C    3.9171997336738529E+00    8.7832134608222621E+00    2.3893307816669335E+01
C    4.0700985631577344E+00    8.6691142991785561E+00    5.6710462634277228E+00
C    3.8874886997088285E+00    8.7999051208993979E+00    2.5109472688555570E+01
C    5.4402496621165914E+00    6.9169451474879766E+00    8.2537378593501547E+00
C    1.1879261868618829E+00    7.8997026238400059E+00    9.2592892539895875E+00
C    1.9393870640511370E+00    6.6753422789249619E+00    9.3058208730364544E+00
C    1.5115343451895411E+00    5.6050661662409693E+00    1.0089214773567953E+01
C    2.2127456879564120E-02    8.0431798928877516E+00    1.0009169624195486E+01
C   -3.8125265155929311E-01    6.9791988757353769E+00    1.0818436382051610E+01
C    3.5438343187115190E-01    5.7660395066141090E+00    1.0853153213552943E+01
C    3.1617300852608996E+00    6.8898753886599646E+00    8.5565159892017597E+00
C    1.9536463156618620E+00    8.8514252660821757E+00    8.4753368171040506E+00
C    7.5745347452029614E+00    5.4831603049875888E+00    8.5533899376297047E+00
C    6.8598895320680695E+00    6.6693934618171724E+00    8.4284630603039741E+00
C   -2.5850967547232981E+00    5.6871476152249292E+00    1.1787266985832614E+01
C   -1.0650958511328282E+01    1.9934074360353669E+01    1.2613070122793456E+01
C    4.1956207110192292E+00    1.1443343186358758E-01    1.1341049790309961E+01
C    3.4866799165938254E+00    1.2436717167289053E+00    1.1761972545990355E+01
C   -1.8567832705974701E+00    4.4703464859802136E+00    1.1803239768100624E+01
C   -1.1297165884088249E+01    1.9606374501391791E+01    1.3872882851618924E+01
C    4.1879795609314714E+00    2.3481538905114245E+00    1.2393881685749060E+01
C   -1.0103117934547555E+01    1.7708920559633388E+01    1.3153872348299542E+01
C   -6.3432367522782096E+00    1.8794688475559493E+01    1.1855362781462961E+01
C    2.1021938447656865E+00    2.0926488704508328E+00    1.3456813800788920E+01
C    3.3315113674859109E+00    2.8717155026201491E+00    1.3445366194325800E+01
C   -7.5731325552733830E+00    1.8018065094159315E+01    1.1865110693450983E+01
C   -8.6718746970674658E+00    1.8913299224616996E+01    1.1544365156133162E+01
C   -9.9142121715629923E+00    1.8761181156415955E+01    1.2169986652597171E+01
C   -7.7552405145753287E+00    1.7005377088563261E+01    1.2812616922903320E+01
C    2.1967850751315403E+00    1.0874415779661726E+00    1.2413052021537430E+01
C    6.3109703805837576E+00    1.1046497962231374E+00    1.2137956138492184E+01
C   -6.6833574075281481E+00    2.0169138594129763E+01    1.1528684746753404E+01
C    5.5743658376499887E+00    2.2781468180458542E+00    1.2580101123843486E+01
C   -5.3390734967994327E+00    1.8530976722613016E+01    1.2792660937654432E+01
C   -9.0430778449022000E+00    1.6849052614018891E+01    1.3469804420432924E+01
C    4.2956637779908320E+00    2.7033106726036999E+00    1.6886473564374516E+01
C   -4.9416880669897969E+00    1.7930821462837603E+01    1.5029825237299438E+01
C    3.5697848717481535E+00    6.5459938675063922E+00    1.5536986910512924E+01
C    3.2521460948770060E+00    2.9755644690255281E+00    1.5911062617744527E+01
C   -1.0720225811130421E+01    1.7872921656645321E+01    1.5539096919435226E+01
C   -1.0814043855265249E+01    1.8876716226653006E+01    1.6585826667025398E+01
C    2.0672908147598270E+00    2.2281268858031700E+00    1.5920388624209309E+01
C    1.4794105677051459E+00    1.7785728041246274E+00    1.4669730659357624E+01
C   -5.5283268809082173E+00    1.7479709985151583E+01    1.3778778326868677E+01
C    4.8160609625430046E+00    6.3703122737708551E+00    1.4809137146906096E+01
C   -9.6202106693284453E+00    1.6978946848446348E+01    1.5867584903756880E+01
C   -1.1140442760949552E+01    2.0201193404095193E+01    1.6264429825907254E+01
C   -1.0957707061279367E+01    1.8231660425936237E+01    1.4207431668377431E+01
C    6.0286660123606088E+00    6.7621046145030350E+00    1.5387874186251945E+01
C    9.2892615649635735E-01    4.4789901265303916E-01    1.4881487268228112E+01
C    1.8784101375971693E+00    1.1758189991257573E+00    1.6905028236836436E+01
C   -8.7969990245665031E+00    1.6476905178958734E+01    1.4852607038787044E+01
C   -6.7129417815228303E+00    1.6731823330787865E+01    1.3788559820535095E+01
C   -7.3574975212236673E+00    1.6404790273280572E+01    1.5049206584183258E+01
C   -6.7923536484047737E+00    1.6838121844592855E+01    1.6253800441378694E+01
C   -5.5623214662030342E+00    1.7615571335755316E+01    1.6243941401513354E+01
C    3.8972351914241723E+00    3.2978100498583305E+00    1.4650494340037520E+01
C   -7.6540083510939336E+00    1.9591523218876915E+01    1.8360851669096135E+01
C    2.8848458308067437E+00    9.1099677234558640E-01    1.7839457550894750E+01
C   -5.6552682867528263E+00    1.8618953642257036E+01    1.7290351009681590E+01
C   -7.6467184528880505E+00    1.7359727637536416E+01    1.7307090887042154E+01
C   -4.7416227575251602E-01    7.0831810190308078E+00    1.8721402301617236E+01
C   -2.6774306267483592E+00    5.7824086193581028E+00    1.7765704566557503E+01
C   -1.9470532262181397E+00    4.5668069879555757E+00    1.7754724738744663E+01
C   -9.0904629247268236E+00    1.9663436248430013E+01    1.8167311394732341E+01
C    2.6269751128502217E-01    5.8704196995636346E+00    1.8686953691191974E+01
C    4.1137032036243077E+00    1.6879436375449663E+00    1.7831207154466554E+01
C    5.2119061758978908E+00    7.9217804918947221E-01    1.8152529628447986E+01
C   -6.9437687584000214E+00    1.8461009941016052E+01    1.7944288990280040E+01
C   -9.7705714189912296E+00    1.8601911670413855E+01    1.7558988678010937E+01
C   -9.0333441628130302E+00    1.7429151387524232E+01    1.7118324579414708E+01
C    2.6191704830854485E+00    1.3522352900985561E+01    2.1261711687138696E+01
C    2.9215077877914921E+00    1.0954866782632914E+01    2.1480229080873240E+01
C    3.3447197160141813E+00    1.2339261953425366E+01    2.1356180999938349E+01
C    3.0149783689495693E+00    1.0856803172191174E+01    8.0842026872029571E+00
C    3.4350308518069932E+00    1.2239271159822176E+01    8.2348399098412433E+00
C    2.7085259034110925E+00    1.3421000506064605E+01    8.3415176111574905E+00
C    2.7667695327758959E+00    7.9741705155186402E+00    1.2356504169424813E+01
C    2.1273304573463285E+00    1.0228480693656588E+01    1.2153248511754743E+01
C    5.1207984820056041E+00    8.3175568663541970E+00    1.1681157680254774E+01
C    1.9003325844025949E+00    1.1409737858138246E+01    1.2868634083840995E+01
C    1.7522480562613378E+00    8.9461422980527399E+00    1.2727800436042298E+01
C    3.1528779766220816E+00    6.9818158569458930E+00    1.3264557639403730E+01
C    5.5235088056375421E+00    7.2890720498518675E+00    1.2627337255304132E+01
C    3.7676178640791367E+00    8.6541833620413051E+00    1.1550466989434206E+01
C    3.3731753168927621E+00    1.0048086083046018E+01    1.1426268625376217E+01
C    4.5582145631234257E+00    6.6364656868011593E+00    1.3404085592934328E+01
C    1.1608960696132751E+00    8.8909245262747181E+00    1.3995662464700523E+01
C    1.2897518370301422E+00    1.1353677621928654E+01    1.4187210815306370E+01
C    1.9226762930283228E+00    1.2365197479522278E+01    1.5018103634930835E+01
C    6.0443113820521761E+00    7.3499267085938911E+00    1.6717579121061565E+01
C    1.5640975306076932E+00    7.8618772407749660E+00    1.4940650008481171E+01
C    9.2716097259173669E-01    1.0118677305568470E+01    1.4739810793343647E+01
C    2.5406893855030090E+00    6.9245911086356102E+00    1.4581982098256884E+01
C    1.1855235613014239E+00    9.8491234270434997E+00    1.6145026477038602E+01
C    1.5818162651999237E+00    8.4550368578410886E+00    1.6267146946378602E+01
C    3.5851110832288473E+00    7.1142460427356635E+00    1.6815854612688280E+01
C    3.2056962754868414E+00    9.1008314351064783E+00    1.8014299957902530E+01
C    2.1700031247725908E+00    1.2106393624615571E+01    1.6371902192060876E+01
C    2.8247724069820679E+00    1.0442218230906533E+01    1.7897819553369665E+01
C    1.7948356941261017E+00    1.0823867419077065E+01    1.6945577479240690E+01
C    4.8445895460420116E+00    7.5225759202495954E+00    1.7418669415790415E+01
C    2.5746200155261101E+00    8.0904516943035283E+00    1.7182910420298594E+01
C    4.6094251802649628E+00    8.7510558439280111E+00    1.8161222324967554E+01
C    3.8336069526925747E+00    1.1488009852824876E+01    1.7916352005594717E+01
C    8.8308814992077966E+00    8.0794096079616242E+00    2.1161287180564909E+01
C    9.5455068839975805E+00    6.8757771438551352E+00    2.1090970400084494E+01
C    7.4412180139331818E+00    8.0198158059433737E+00    2.1287320405701774E+01
C    1.1116164536682788E+01    4.2879384661898143E+00    2.0349080217031027E+01
C    6.4271013851898093E+00    9.0257374420410272E+00    2.1595467450969213E+01
C    1.1580389414302303E+01    3.1332924706907894E+00    1.9725220321597245E+01
C    8.8666600841281902E+00    5.6316190994681863E+00    2.1094576577155543E+01
C    1.1792832076968075E+01    5.5270364020878162E+00    2.0198538497645355E+01
C    6.5251237843849061E+00    8.9382574501629009E+00    8.0003056215704120E+00
C    8.9287935547679851E+00    7.9943998551872939E+00    8.4269991831717981E+00
C    7.5396786063064729E+00    7.9329031847718143E+00    8.3039466298261715E+00
C    9.6440270181690124E+00    6.7913479102797973E+00    8.4873687460222769E+00
C    8.9674769647695101E+00    5.5458463568788314E+00    8.4784965951334996E+00
C    1.1684431832371370E+01    3.0499165758869311E+00    9.8320183520839830E+00
C    1.2830904570831919E+01    3.1409058876369591E+00    1.0610457346746355E+01
C    1.1893246506675784E+01    5.4452156747676961E+00    9.3653867867834997E+00
C    1.3031850684383622E+01    5.5451795009635454E+00    1.0174592757378266E+01
C    1.1219183380145566E+01    4.2051298556031229E+00    9.2105502081235784E+00
C    1.8153227195229885E+01    2.1578274568831461E+00    1.2022359908807800E+01
C    1.4714627752454417E+01    4.1035411622747251E+00    1.1567794444577894E+01
C    1.9118062953164795E+01    3.2375464181812088E+00    1.1906361984718572E+01
C    1.6969214743572781E+01    4.1283092367943448E+00    1.2013525955748081E+01
C    1.3623649830110402E+01    2.1104552674316794E+00    1.1238301710484137E+01
C    1.8378662738547789E+01    4.4702992016861209E+00    1.1898488271099618E+01
C    2.0507214226190083E+01    3.2386566728548583E+00    1.1808331946128945E+01
C    1.9040685794525736E+01    5.6906927699767804E+00    1.1784559593626080E+01
C    1.7074197277211152E+01    1.8256469033304279E-01    1.1570637516749082E+01
C    7.3543010743599266E+00    8.3012815148210806E-01    1.3112112890523468E+01
C    1.4805188754075949E+01    1.4807725142930683E-01    1.1235307637806571E+01
C    7.2613172849362018E+00    1.8340540412813915E+00    1.4159478112931254E+01
C    6.1611773681401107E+00    2.7275548791809947E+00    1.3831295592287955E+01
C    1.3509581766578245E+01    4.3898265371489495E+00    1.0800056077225380E+01
C   -4.6369075650528879E+00    1.9632024091556879E+01    1.3433471376374065E+01
C    1.5482153664371857E+01    1.9828102639747784E+00    1.5404848550075027E+01
C    1.5518188894862877E+01    1.9485718005738668E+00    1.4184800511739297E+01
C    6.6446961378430096E+00    1.9999713275300808E+00    1.6545004587595148E+01
C   -4.3908958663885320E+00    1.9260389151821954E+01    1.4816547822534163E+01
C   -4.4800475968094080E+00    2.0227152679346016E+01    1.5825350365378064E+01
C    7.4989157852440673E+00    1.4761802420084833E+00    1.5491396768876337E+01
C    5.5843295777762503E+00    2.8594820940437935E+00    1.6229256423686166E+01
C    5.3370443072344678E+00    3.2261267304898791E+00    1.4846175779255878E+01
C    1.4617729920180382E+01    4.1852729789465553E+00    1.7998888550694371E+01
C    1.8948373420795185E+01    5.7826845540682763E+00    1.7778559036798363E+01
C    1.8066782731121197E+01    2.2452283481019122E+00    1.7580897447057040E+01
C    1.3528527663609374E+01    2.1915276713971492E+00    1.8331288940074710E+01
C    1.2931480597765743E+01    5.6270737992265314E+00    1.9389214291132106E+01
C    1.6877288896614079E+01    4.2137114579951067E+00    1.7573506151758139E+01
C    1.2728900032863161E+01    3.2235274745093454E+00    1.8948714835608754E+01
C    2.0419517487043947E+01    3.3336664167628380E+00    1.7768719260165792E+01
C    1.3407927059908063E+01    4.4723182401199963E+00    1.8759793399982442E+01
C    1.9029450078883727E+01    3.3286121251461638E+00    1.7682358072530512E+01
C    1.8287369810503588E+01    4.5600178585010527E+00    1.7681971237683680E+01
C    1.6990864507237671E+01    2.7052691197613921E-01    1.8041384239843747E+01
C    1.4719571907328479E+01    2.3421130249111619E-01    1.8366245873611870E+01
C    6.4550893468352539E+00    9.4626853555851043E-01    1.7527925813949967E+01
C   -5.1249464956983637E+00    1.9899386564378108E+01    1.7085636621814871E+01
C    4.5735549467133216E+00    1.7348805974125135E+01    2.0332260190449219E+01
C    3.3187672943286457E+00    1.4730691172721800E+01    2.1306574035767255E+01
C    4.7354710796481241E+00    1.4756929061690705E+01    2.1267804050796194E+01
C    5.2233228231253834E+00    1.0989188932047169E+01    2.1664873911460603E+01
C    4.7828749104892241E+00    1.2361671672706521E+01    2.1436682790229536E+01
C    3.1630236850005642E+00    1.7324779836662177E+01    2.0492547101160994E+01
C    5.4736009802347718E+00    1.3567735702343716E+01    2.1309597027768227E+01
C    2.3457912974064175E+00    1.8243391798333693E+01    1.9837942987107589E+01
C    5.1814251150087314E+00    1.8285588291577792E+01    1.9489500146771267E+01
C    5.3170149974592080E+00    1.0896335957185965E+01    7.9234356448360002E+00
C    5.5633044915299230E+00    1.3467490581296952E+01    8.3196343134065014E+00
C    4.8736560987455668E+00    1.2263578764311280E+01    8.1692020546696398E+00
C    3.4080666098112404E+00    1.4629929777726565E+01    8.3147944000096992E+00
C    4.8245774638323651E+00    1.4656161346535997E+01    8.3642338352157157E+00
C    2.4332918647133899E+00    1.8152551437201993E+01    9.7705003404450359E+00
C    3.2510164774837205E+00    1.7228413746167952E+01    9.1238550933902296E+00
C    4.6609846398390884E+00    1.7253120520920540E+01    9.2884579511564205E+00
C    5.2675035030783963E+00    1.8195633948213562E+01    1.0125757209796120E+01
C    3.0359500145160094E+00    1.9106249130249747E+01    1.0583019510005833E+01
C    4.4555379412236036E+00    1.9128256559207745E+01    1.0776254712061538E+01
C    6.3809298826196086E+00    1.1719842953184338E+01    1.2409846681346606E+01
C    6.1302583306547795E+00    9.3645809932208834E+00    1.1696578659253106E+01
C    5.7492086245733072E+00    1.0707553361248399E+01    1.1578841320981088E+01
C    7.1570512691236283E+00    8.9823254236851096E+00    1.2652941588640399E+01
C    6.7824024345883664E+00    7.7000062716983955E+00    1.3227958539729615E+01
C    5.3675195292885709E+00    1.2693956516424500E+01    1.2783124588841025E+01
C    7.7643585539880533E+00    9.9570326784068985E+00    1.3454334998907406E+01
C    7.3687848209044047E+00    1.1350804320120092E+01    1.3330698023939728E+01
C    4.3446835696214876E+00    1.1056084609819910E+01    1.1438523359276383E+01
C    2.9101918533873126E+00    1.2456491866590804E+01    1.2884527408702510E+01
C    4.1089163724053117E+00    1.2284447506204557E+01    1.2181673641666984E+01
C    4.1359461988818262E+00    1.3442519144349337E+01    1.4792008555220470E+01
C    5.3808866602531085E+00    1.3262064894537641E+01    1.4063425529963732E+01
C    7.3827634966226654E+00    1.1941394523542238E+01    1.4659073919972503E+01
C    2.9240638846596956E+00    1.3046155178680237E+01    1.4213349579203543E+01
C    7.6623992772128036E+00    8.4524207872552068E+00    1.5413184723363328E+01
C    7.7862134737294326E+00    1.0913294518706616E+01    1.5603799702563467E+01
C    7.0538659097587972E+00    8.3967398913926683E+00    1.6733193530334642E+01
C    6.4077081613415476E+00    1.2879416657566368E+01    1.5018866339810801E+01
C    8.0218103121948001E+00    9.6869284892396799E+00    1.4859344288393361E+01
C    4.3936709374528915E+00    1.3173123430222107E+01    1.6197608697930935E+01
C    7.0297824116215999E+00    7.4410148901064872E+00    1.4582145690514196E+01
C    6.1877949804454966E+00    1.1834651040592146E+01    1.7248819789358361E+01
C    4.3703514126379490E+00    1.9216743017339656E+01    1.8835305463757763E+01
C    3.4292437104443927E+00    1.2517921641730563E+01    1.6972806891026508E+01
C    2.9494485424206469E+00    1.9195074506867037E+01    1.9024472509553643E+01
C    5.7985051387662612E+00    1.2824895171523217E+01    1.6337893751547625E+01
C    7.2012479844157440E+00    1.0860685874766972E+01    1.6874815089339574E+01
C    5.1865543810401640E+00    1.1153105270375869E+01    1.8053117396240889E+01
C    5.5820143364323478E+00    9.7591693409079685E+00    1.8177766866055947E+01
C    6.8280776267461096E+00    9.5781217520180792E+00    1.7450495808192173E+01
H    6.9620050417407855E+00    4.6118007086948518E+00    2.0953609146154449E+01
H   -6.4151445131817886E-01    9.0777654697301386E+00    1.9547309657519047E+01
H    1.9892177057657614E+00    4.7827166207555791E+00    1.9413273770683041E+01
H   -5.4479582642927915E-01    8.9736994217655521E+00    9.9907882369105057E+00
H    2.0812850746549825E+00    4.6762156577226559E+00    1.0128501240295641E+01
H    7.0645252132961280E+00    4.5216070553093708E+00    8.6140824204285629E+00
H    1.5299346061493482E+00    1.3512625994485289E+01    2.1231146241475184E+01
H    1.6192457093377168E+00    1.3410876041473731E+01    8.3632682131427138E+00
H    9.3553470727240775E+00    9.0349963032985166E+00    2.1183990079204616E+01
H    1.1065216395161741E+01    2.1816276266441568E+00    1.9856896967677706E+01
H    9.4527610958374151E+00    8.9504179315609527E+00    8.4077776886805378E+00
H    1.1171222359640229E+01    2.0978751915918727E+00    9.6979150740788871E+00
H    1.3545189585927638E+01    6.5000051880522616E+00    1.0289303593163300E+01
H    2.1070588954488155E+01    2.3058514965246744E+00    1.1785087074998145E+01
H    1.8488707833948702E+01    6.6296001186317683E+00    1.1741952442348152E+01
H    1.8395065394549906E+01    6.7209045877735267E+00    1.7816154573187781E+01
H    2.0985288445020668E+01    2.4021455774470244E+00    1.7795848884569985E+01
H    1.3449246740492955E+01    6.5800154018905932E+00    1.9279009771961228E+01
H    6.5633763200326971E+00    1.3591204225006486E+01    2.1296386933661264E+01
H    1.2648111629927954E+00    1.8226638520484052E+01    1.9976039701217463E+01
H    6.2647936178553065E+00    1.8304288239364993E+01    1.9370353065712916E+01
H    6.6529667472092848E+00    1.3490955357947747E+01    8.3422235996668803E+00
H    6.3506706505631225E+00    1.8215371615358116E+01    1.0246144219583528E+01
H    1.3528884329634445E+00    1.8138334568478754E+01    9.6279051257785362E+00
N    4.2343299515450896E+00    6.3158691872003550E+00    2.0981730659421043E+01
N    2.9279498733584863E+00    8.2392919936230467E+00    2.1542911092234281E+01
N    5.2735606298214401E+00    8.3042069232526821E+00    2.1745803821942630E+01
N    5.3731936468212229E+00    8.2165762175158115E+00    7.8459175086556225E+00
N    3.0276254062112220E+00    8.1390403001473643E+00    8.0058458221342850E+00
N    4.3340231636798698E+00    6.2173189844682604E+00    8.5763197789769414E+00
N    1.7869345860392456E+00    1.0302907893535124E+01    2.1148604159503275E+01
N    4.0610375644286050E+00    1.0283340927859790E+01    2.1815780279183155E+01
N    4.1572004915800180E+00    1.0191159996443609E+01    7.7449408752377185E+00
N    1.8813325869284439E+00    1.0199960906099474E+01    8.4076261408013444E+00
N    1.6954929386108283E+01    2.7790340308758816E+00    1.2243460601563902E+01
N    1.4630624767768378E+01    2.7682969221179530E+00    1.1889387016397077E+01
N    1.5853734612470969E+01    7.2444936874101629E-01    1.1902521799833982E+01
N    1.5847775162233029E+01    4.8192510064744116E+00    1.1725676324976567E+01
N    1.8238063870737705E+01    8.4418558397857113E-01    1.1734246014635854E+01
N    1.3646831899246028E+01    7.8771495335453989E-01    1.0989746885473432E+01
N    1.4537174143718946E+01    2.8486479098101354E+00    1.7679103297282222E+01
N    1.5771204294392017E+01    8.1064056925781969E-01    1.7706285537648061E+01
N    1.6866847707932738E+01    2.8627198374651024E+00    1.7357625166735986E+01
N    1.3556093709178116E+01    8.7180058880783384E-01    1.8594525581401662E+01
N    1.8153943283696716E+01    9.3368121729694975E-01    1.7876498479398435E+01
N    1.5751155245003478E+01    4.9028932892445543E+00    1.7848132928790342E+01
N    6.4286960655286771E+00    1.0377563423631381E+01    2.1611592095665703E+01
N    6.5234170146437878E+00    1.0289550353941770E+01    7.9875254524489279E+00
S   -1.7580101429151054E+00    7.2417708400980718E+00    1.1887837008031807E+01
S   -9.8439399345362957E-02    4.4584459351985295E+00    1.1944997243156861E+01
S   -1.8533768266012118E+00    7.3387272736350697E+00    1.7652553878371947E+01
S   -1.8994325310131954E-01    4.5583403729811618E+00    1.7600271306258353E+01
S    9.7127588022821172E+00    4.1185432094742458E+00    2.1393155999070480E+01
S    1.1310706923191383E+01    6.9502074412758352E+00    2.1133051214370944E+01
S    9.8155378490297540E+00    4.0369515604680002E+00    8.1675717569050299E+00
S    1.1407933146056664E+01    6.8694976283038685E+00    8.4363272338167636E+00
S    2.3829613875583697E+00    1.6194393702422520E+01    2.1590861506958486E+01
S    5.6161758171921230E+00    1.6288722994393556E+01    2.1289884938073811E+01
S    2.4721855934668793E+00    1.6093173098510938E+01    8.0293257951739196E+00
S    5.7081509390224454E+00    1.6185532626287742E+01    8.3450110823396617E+00
H    4.1234528833776585E+00    8.6338753666559125E+00    3.3911245105338486E+00
H    3.8618902512986106E+00    8.8152895348224760E+00    2.6173230029604152E+01
     &END COORD
     &KIND H
       BASIS_SET DZVP-MOLOPT-GTH
       POTENTIAL GTH-PBE-q1
       &POTENTIAL
 1
  0.2000000000000000E+00 2 -0.4178900440000000E+01  0.7244633100000000E+00
 0
         # Potential name:  GTH-PBE-Q1  for symbol:  H
         # Potential read from the potential filename: POTENTIAL
       &END POTENTIAL
     &END KIND
     &KIND C
       BASIS_SET DZVP-MOLOPT-GTH
       POTENTIAL GTH-PBE-q4
       &POTENTIAL
 2 2
  0.3384712400000000E+00 2 -0.8803673979999999E+01  0.1339210850000000E+01
 2
  0.3025757500000000E+00 1  0.9622486650000001E+01
  0.2915069400000000E+00 0
         # Potential name:  GTH-PBE-Q4  for symbol:  C
         # Potential read from the potential filename: POTENTIAL
       &END POTENTIAL
     &END KIND
     &KIND N
       BASIS_SET DZVP-MOLOPT-GTH
       POTENTIAL GTH-PBE-q5
       &POTENTIAL
 2 3
  0.2837905100000000E+00 2 -0.1241522559000000E+02  0.1868095920000000E+01
 2
  0.2554050000000000E+00 1  0.1363026257000000E+02
  0.2454945300000000E+00 0
         # Potential name:  GTH-PBE-Q5  for symbol:  N
         # Potential read from the potential filename: POTENTIAL
       &END POTENTIAL
     &END KIND
     &KIND B
       BASIS_SET DZVP-MOLOPT-SR-GTH
       POTENTIAL GTH-PBE-q3
       &POTENTIAL
 2 1
  0.4189914500000000E+00 2 -0.5859461710000000E+01  0.9037564300000001E+00
 2
  0.3713204600000000E+00 1  0.6297280180000000E+01
  0.3645630800000000E+00 0
         # Potential name:  GTH-PBE-Q3  for symbol:  B
         # Potential read from the potential filename: POTENTIAL
       &END POTENTIAL
     &END KIND
     &KIND S
       BASIS_SET DZVP-MOLOPT-GTH
       POTENTIAL GTH-PBE-q6
       &POTENTIAL
 2 4
  0.4200000000000000E+00 1 -0.5986260380000000E+01
 2
  0.3648203500000000E+00 2  0.1314354448000000E+02 -0.4241830450000000E+01
  0.5476179570000000E+01
  0.4094804800000000E+00 1  0.3700890570000000E+01
         # Potential name:  GTH-PBE-Q6  for symbol:  S
         # Potential read from the potential filename: POTENTIAL
       &END POTENTIAL
     &END KIND
     &TOPOLOGY
       COORD_FILE_NAME cof.xyz
       COORD_FILE_FORMAT  XYZ
       NUMBER_OF_ATOMS  288
       MULTIPLE_UNIT_CELL  1 1 1
     &END TOPOLOGY
   &END SUBSYS
 &END FORCE_EVAL
