 # Version information for this restart file 
 # current date 2021-06-24 14:15:18.126
 # current working dir /panfs/panfs.cbls.ccr.buffalo.edu/scratch/grp-cyberwksp21/ub2053/cof/opt-cell
 # Program compiled at                              Thu Apr 22 21:44:59 EDT 2021
 # Program compiled on                cpn-k07-07-02.compute.cbls.ccr.buffalo.edu
 # Program compiled for                                                    local
 # Source code revision number                                       git:36754bb
 &GLOBAL
   EXTENDED_FFT_LENGTHS  T
   PRINT_LEVEL  MEDIUM
   PROJECT_NAME COF
   RUN_TYPE  CELL_OPT
 &END GLOBAL
 &MOTION
   &GEO_OPT
     OPTIMIZER  BFGS
     MAX_ITER  550
     MAX_DR     2.0000000000000000E-03
     MAX_FORCE     2.9999999999999997E-04
     RMS_DR     2.0000000000000000E-03
     RMS_FORCE     2.9999999999999997E-04
     &BFGS
     &END BFGS
   &END GEO_OPT
   &CELL_OPT
     OPTIMIZER  BFGS
     MAX_ITER  550
     MAX_DR     2.0000000000000000E-03
     MAX_FORCE     2.9999999999999997E-04
     RMS_DR     2.0000000000000000E-03
     RMS_FORCE     2.9999999999999997E-04
     STEP_START_VAL  1
     TYPE  DIRECT_CELL_OPT
     EXTERNAL_PRESSURE     1.0000000000000000E+02    0.0000000000000000E+00    0.0000000000000000E+00    0.0000000000000000E+00 \
         1.0000000000000000E+02    0.0000000000000000E+00    0.0000000000000000E+00    0.0000000000000000E+00    1.0000000000000000E+02
     KEEP_SYMMETRY  F
     PRESSURE_TOLERANCE     1.0000000000000000E+02
   &END CELL_OPT
   &PRINT
     &TRAJECTORY  SILENT
       &EACH
         GEO_OPT  1
       &END EACH
     &END TRAJECTORY
     &FORCES  ON
     &END FORCES
     &RESTART  SILENT
       BACKUP_COPIES  1
       &EACH
         GEO_OPT  1
       &END EACH
     &END RESTART
   &END PRINT
 &END MOTION
 &FORCE_EVAL
   METHOD  QS
   STRESS_TENSOR  ANALYTICAL
   &DFT
     BASIS_SET_FILE_NAME BASIS_MOLOPT
     POTENTIAL_FILE_NAME POTENTIAL
     MULTIPLICITY  1
     &SCF
       MAX_SCF  50
       EPS_SCF     9.9999999999999995E-07
       SCF_GUESS  ATOMIC
       ADDED_MOS  50
       &DIAGONALIZATION  T
         ALGORITHM  DAVIDSON
       &END DIAGONALIZATION
       &SMEAR  T
         METHOD  FERMI_DIRAC
       &END SMEAR
       &MIXING  T
         METHOD  BROYDEN_MIXING
         ALPHA     2.9999999999999999E-01
         NBUFFER  8
       &END MIXING
     &END SCF
     &QS
       EPS_DEFAULT     1.0000000000000000E-14
       METHOD  GPW
     &END QS
     &MGRID
       NGRIDS  6
       CUTOFF     1.0000000000000000E+03
       REL_CUTOFF     6.0000000000000000E+01
     &END MGRID
     &XC
       DENSITY_CUTOFF     1.0000000000000000E-10
       GRADIENT_CUTOFF     1.0000000000000000E-10
       TAU_CUTOFF     1.0000000000000000E-10
       &XC_GRID
         XC_DERIV  SPLINE2_SMOOTH
       &END XC_GRID
       &XC_FUNCTIONAL  NO_SHORTCUT
         &PBE  T
         &END PBE
       &END XC_FUNCTIONAL
       &VDW_POTENTIAL
         POTENTIAL_TYPE  PAIR_POTENTIAL
         &PAIR_POTENTIAL
           TYPE  DFTD3
           PARAMETER_FILE_NAME dftd3.dat
           REFERENCE_FUNCTIONAL PBE
         &END PAIR_POTENTIAL
       &END VDW_POTENTIAL
     &END XC
     &POISSON
       POISSON_SOLVER  PERIODIC
       PERIODIC  XYZ
     &END POISSON
     &PRINT
       &MO_CUBES  SILENT
         WRITE_CUBE  F
         NLUMO  3
         NHOMO  3
       &END MO_CUBES
       &PDOS  SILENT
         COMPONENTS  T
         APPEND  T
         NLUMO  -1
       &END PDOS
       &MULLIKEN  OFF
       &END MULLIKEN
       &HIRSHFELD  OFF
       &END HIRSHFELD
     &END PRINT
   &END DFT
   &SUBSYS
     &CELL
       A     2.3018682368435798E+01    0.0000000000000000E+00    0.0000000000000000E+00
       B    -1.2316203648804244E+01    2.0120126585665037E+01    0.0000000000000000E+00
       C    -3.6361836080822180E-01    2.6419418992982840E-01    3.8841342658723569E+01
       PERIODIC  XYZ
       MULTIPLE_UNIT_CELL  1 1 1
     &END CELL
     &COORD
B    4.0246678261575255E+00    8.8791320531535725E+00    2.2332295332625083E+01
B    4.1337341732751609E+00    8.7843288343032668E+00    7.2327649714521689E+00
B    1.5707199756829386E+01    2.0330856602151153E+00    1.2642750140675583E+01
B    1.5627445636550794E+01    2.1084902421334348E+00    1.6948732483208310E+01
C    3.0623371616664921E+00    6.9906267632375290E+00    2.0990906415863872E+01
C    1.8430315647618050E+00    6.7789426201124741E+00    2.0234999180617823E+01
C    6.7569472453655415E+00    6.7558063926657024E+00    2.1153823247072392E+01
C    5.3361576535369286E+00    7.0065592881269954E+00    2.1324613944493549E+01
C   -7.4405056635382785E-02    8.1454369587227546E+00    1.9530311536195992E+01
C    1.0901482965969069E+00    8.0031797769237318E+00    2.0281965718164717E+01
C    7.4710945523944527E+00    5.5702979505545223E+00    2.1020876848761276E+01
C    1.8553556004123517E+00    8.9524070510084606E+00    2.1073119401557406E+01
C    1.4181968219366134E+00    5.7096650956594148E+00    1.9450126389548370E+01
C    4.0963050696218639E+00    8.6475599998002117E+00    4.4625960306890553E+00
C    3.9145967721042996E+00    8.7800833737932766E+00    2.3890405176113060E+01
C    4.0676087651981154E+00    8.6658251530535964E+00    5.6736259646385445E+00
C    3.8855665577034739E+00    8.7975762313999990E+00    2.5101484866931081E+01
C    5.4374048413462361E+00    6.9155123288568419E+00    8.2538015700554581E+00
C    1.1860897576679073E+00    7.8972455547800484E+00    9.2593864777244832E+00
C    1.9377284360698874E+00    6.6728851219601637E+00    9.3058957330695673E+00
C    1.5099985484279483E+00    5.6030508659070124E+00    1.0089198417321656E+01
C    2.0748452051301731E-02    8.0405327634737471E+00    1.0009260362828590E+01
C   -3.8292218159261376E-01    6.9767456717172687E+00    1.0819424471084199E+01
C    3.5291183181304286E-01    5.7637954582866264E+00    1.0854141531459721E+01
C    3.1605095403609567E+00    6.8882536267562013E+00    8.5558752199227364E+00
C    1.9528524470569522E+00    8.8489801372369019E+00    8.4746882820754070E+00
C    7.5724833852051079E+00    5.4812214029872415E+00    8.5533108866272229E+00
C    6.8575518597010090E+00    6.6667633898722620E+00    8.4282613544979963E+00
C   -2.5846316546961456E+00    5.6859431947177512E+00    1.1787052640381006E+01
C   -1.0652278818078788E+01    1.9928019592271291E+01    1.2612597924286986E+01
C    4.1944193281379318E+00    1.1445320906181189E-01    1.1344578350514583E+01
C    3.4860851648428746E+00    1.2429498670613717E+00    1.1763829182659141E+01
C   -1.8560807845574141E+00    4.4698106896837118E+00    1.1802872093322502E+01
C   -1.1297837159322830E+01    1.9600545205609546E+01    1.3872608009359247E+01
C    4.1868336142228273E+00    2.3477066492233902E+00    1.2393434229287182E+01
C   -1.0103626801697384E+01    1.7703155940935979E+01    1.3153685981714274E+01
C   -6.3443149430834538E+00    1.8788700191886104E+01    1.1854758486412056E+01
C    2.1010067058101658E+00    2.0925314221330509E+00    1.3456507575997255E+01
C    3.3301444537807958E+00    2.8715773164672402E+00    1.3445142582447410E+01
C   -7.5742772820200734E+00    1.8012164411253302E+01    1.1864601640382368E+01
C   -8.6730207431157709E+00    1.8907379545587833E+01    1.1544640807852140E+01
C   -9.9149757661365356E+00    1.8755243815401599E+01    1.2169367766960935E+01
C   -7.7558780770113218E+00    1.7000035212658144E+01    1.2812165572961556E+01
C    2.1964700366964816E+00    1.0872132389187639E+00    1.2412603660431580E+01
C    6.3096484965364823E+00    1.1043826010339894E+00    1.2137572758733601E+01
C   -6.6847143455000309E+00    2.0163072844819641E+01    1.1529414627999722E+01
C    5.5729697399882507E+00    2.2780769617094636E+00    1.2579500132114440E+01
C   -5.3404552832375218E+00    1.8525026708490813E+01    1.2792169771225678E+01
C   -9.0439459668703837E+00    1.6843864947549719E+01    1.3469585627355338E+01
C    4.2943952561202883E+00    2.7028534438124789E+00    1.6886520488125271E+01
C   -4.9428976716979003E+00    1.7925129141612281E+01    1.5029796100053026E+01
C    3.5678435302033922E+00    6.5435047755442763E+00    1.5537099053258125E+01
C    3.2507559190237405E+00    2.9749521635804563E+00    1.5911138535208650E+01
C   -1.0720792761720631E+01    1.7867420566990699E+01    1.5538925291036501E+01
C   -1.0814965444644258E+01    1.8870987391310226E+01    1.6585999115810111E+01
C    2.0660921807802310E+00    2.2279822644482254E+00    1.5920514993403671E+01
C    1.4784673609424233E+00    1.7782984090539087E+00    1.4669228335457595E+01
C   -5.5295191551106342E+00    1.7474077420394654E+01    1.3778676281012096E+01
C    4.8142460825217581E+00    6.3675141180171693E+00    1.4809343750178472E+01
C   -9.6205546621665370E+00    1.6973341056934007E+01    1.5867684464218376E+01
C   -1.1141256470982512E+01    2.0194820851949792E+01    1.6264207200248741E+01
C   -1.0958280352346794E+01    1.8225713971645146E+01    1.4207419010230712E+01
C    6.0262662698804119E+00    6.7596686273281819E+00    1.5387718105453789E+01
C    9.2802192400323247E-01    4.4766157266921247E-01    1.4881075800167542E+01
C    1.8773763090208757E+00    1.1754562892161979E+00    1.6905307831393507E+01
C   -8.7977655735857194E+00    1.6471577318067062E+01    1.4852523267249014E+01
C   -6.7136812874283143E+00    1.6726636079873689E+01    1.3788237691279848E+01
C   -7.3582136286617033E+00    1.6399511980429171E+01    1.5049242670346120E+01
C   -6.7934215248400855E+00    1.6832770928364198E+01    1.6253737304197323E+01
C   -5.5633829137605328E+00    1.7610099487845396E+01    1.6243768822261384E+01
C    3.8956280456508776E+00    3.2975989090428803E+00    1.4650094666092230E+01
C   -7.6552376097825983E+00    1.9584927527778756E+01    1.8358643189496046E+01
C    2.8837097074534417E+00    9.1040568193814186E-01    1.7839297048076258E+01
C   -5.6565126465134234E+00    1.8613336799248604E+01    1.7290625367374290E+01
C   -7.6478215330726655E+00    1.7354042663021872E+01    1.7307239978191173E+01
C   -4.7587513048672475E-01    7.0805875065527388E+00    1.8720386245947115E+01
C   -2.6766271035569638E+00    5.7813915736598380E+00    1.7765475775232396E+01
C   -1.9463492574859405E+00    4.5661977605036554E+00    1.7754762046920384E+01
C   -9.0919231156196911E+00    1.9657287677123698E+01    1.8164931476485410E+01
C    2.6107530046993649E-01    5.8683198245315973E+00    1.8685755148392545E+01
C    4.1130826033611614E+00    1.6877973431399618E+00    1.7831027976166826E+01
C    5.2110381172858924E+00    7.9237313688680433E-01    1.8150342794760359E+01
C   -6.9450467974913455E+00    1.8455029165588908E+01    1.7944546520272599E+01
C   -9.7713737461595116E+00    1.8596399213135385E+01    1.7559199699292670E+01
C   -9.0338404068303166E+00    1.7423107598330951E+01    1.7118686359382938E+01
C    2.6166614547550782E+00    1.3518668147084464E+01    2.1261595730687482E+01
C    2.9192279372502146E+00    1.0950432156428541E+01    2.1479898065793950E+01
C    3.3418070101468635E+00    1.2335917297865699E+01    2.1355960437098897E+01
C    3.0127678819854120E+00    1.0852441393186197E+01    8.0843435561293724E+00
C    3.4322693393397081E+00    1.2236035544619581E+01    8.2345999295018455E+00
C    2.7061658788479672E+00    1.3417211543341411E+01    8.3415011080156880E+00
C    2.7645086957872946E+00    7.9712130513358508E+00    1.2356014353706842E+01
C    2.1250148660385175E+00    1.0225713540980278E+01    1.2152778242794005E+01
C    5.1181064888966166E+00    8.3147959918168173E+00    1.1680554267354035E+01
C    1.8980317637479078E+00    1.1406221410211259E+01    1.2868228751215272E+01
C    1.7498032664953407E+00    8.9432644327885225E+00    1.2727329760166045E+01
C    3.1506586451481997E+00    6.9795210863624133E+00    1.3264088285572608E+01
C    5.5209427382414704E+00    7.2865703157110104E+00    1.2627323422064931E+01
C    3.7653669075732421E+00    8.6511440237690653E+00    1.1549823634753613E+01
C    3.3707365406330214E+00    1.0045285591210302E+01    1.1425361489907816E+01
C    4.5563659490410666E+00    6.6341588056289797E+00    1.3403985557731849E+01
C    1.1590473407628961E+00    8.8879226232126811E+00    1.3995080965402840E+01
C    1.2873776764448177E+00    1.1350244627320658E+01    1.4187041298743933E+01
C    1.9200265567245796E+00    1.2361714786018389E+01    1.5018212624962947E+01
C    6.0416564909122918E+00    7.3473721479872394E+00    1.6717651351183289E+01
C    1.5623457205510176E+00    7.8591830531583575E+00    1.4940380880593302E+01
C    9.2509577739178661E-01    1.0115975568013683E+01    1.4739497523144014E+01
C    2.5387229529963489E+00    6.9224961052750871E+00    1.4581933775233381E+01
C    1.1833597933979616E+00    9.8464754301691251E+00    1.6145102674414122E+01
C    1.5797490544217283E+00    8.4523515360172556E+00    1.6267359458551336E+01
C    3.5831158197703528E+00    7.1115007633598326E+00    1.6815687858823434E+01
C    3.2031340774204766E+00    9.0982186690265241E+00    1.8014997560130862E+01
C    2.1673247862701031E+00    1.2102968784283810E+01    1.6371594562514055E+01
C    2.8222821454918261E+00    1.0439093506645412E+01    1.7898162616274373E+01
C    1.7924014441087111E+00    1.0820763615085040E+01    1.6945711396299878E+01
C    4.8425493182190262E+00    7.5200196601185469E+00    1.7418705917640004E+01
C    2.5721145921860518E+00    8.0877293187368196E+00    1.7182918744840560E+01
C    4.6068828541599496E+00    8.7483415410586680E+00    1.8161709395673519E+01
C    3.8311552452990569E+00    1.1484766575724313E+01    1.7916595776884439E+01
C    8.8279578346776528E+00    8.0765493895777176E+00    2.1160937149614170E+01
C    9.5434797464237811E+00    6.8732732008075867E+00    2.1091130609577142E+01
C    7.4388575336395926E+00    8.0175210703382316E+00    2.1287324328554867E+01
C    1.1112261332417445E+01    4.2872503186713429E+00    2.0350060846801018E+01
C    6.4233869321790467E+00    9.0235104533472832E+00    2.1595274794278776E+01
C    1.1577096831614410E+01    3.1325984822959945E+00    1.9725470045001693E+01
C    8.8647753865286258E+00    5.6290877166901989E+00    2.1095024269273630E+01
C    1.1788869757075210E+01    5.5260722254655352E+00    2.0199356708599719E+01
C    6.5212963939979325E+00    8.9360250675283481E+00    8.0002004212692128E+00
C    8.9258109828469454E+00    7.9916216049832327E+00    8.4269348535148936E+00
C    7.5372053832428278E+00    7.9307843612598985E+00    8.3035782687039372E+00
C    9.6419732509256857E+00    6.7887727836480387E+00    8.4870316502893530E+00
C    8.9656204510221880E+00    5.5433400558908232E+00    8.4779893585454005E+00
C    1.1681161570417371E+01    3.0494255111339950E+00    9.8315302249160315E+00
C    1.2827167541803229E+01    3.1399325754377045E+00    1.0610205293077744E+01
C    1.1889078483686815E+01    5.4440559197196903E+00    9.3645979257780922E+00
C    1.3027444615312826E+01    5.5436247457210390E+00    1.0174462803253055E+01
C    1.1215365229211283E+01    4.2046265586045877E+00    9.2093855463420358E+00
C    1.8147935181375612E+01    2.1566469098667893E+00    1.2021885256630085E+01
C    1.4711300160778476E+01    4.1018003644938839E+00    1.1568275636622200E+01
C    1.9113361381743804E+01    3.2365606184281472E+00    1.1905944008827920E+01
C    1.6963864998510328E+01    4.1264910799142651E+00    1.2013338870490774E+01
C    1.3620933617848278E+01    2.1092776919971579E+00    1.1238407740783083E+01
C    1.8373800932493044E+01    4.4691940655935785E+00    1.1898251994047392E+01
C    2.0502186222019589E+01    3.2380183289911271E+00    1.1808040613270387E+01
C    1.9035715573366552E+01    5.6890107779207595E+00    1.1784160844327406E+01
C    1.7070094725813139E+01    1.8342790197426567E-01    1.1571013948805916E+01
C    7.3527842582018792E+00    8.2985253936963843E-01    1.3111655956151534E+01
C    1.4801650977900653E+01    1.4876161245842504E-01    1.1235545863192190E+01
C    7.2597036151313734E+00    1.8337230128850768E+00    1.4159506330346703E+01
C    6.1593149976631665E+00    2.7269271701393150E+00    1.3831142118503532E+01
C    1.3505613971277326E+01    4.3890529225688706E+00    1.0800222613249165E+01
C   -4.6384189413104888E+00    1.9626188161353539E+01    1.3433226914419915E+01
C    1.5478484549920916E+01    1.9823949466095783E+00    1.5404796172772320E+01
C    1.5514534257681927E+01    1.9483553278000660E+00    1.4184463881762616E+01
C    6.6431506931544382E+00    1.9998190036142776E+00    1.6545058115749583E+01
C   -4.3923944815842271E+00    1.9254470508029506E+01    1.4816483439085349E+01
C   -4.4817643365665907E+00    2.0220885422705258E+01    1.5825259396617810E+01
C    7.4971946580039477E+00    1.4762085230773494E+00    1.5491270606904989E+01
C    5.5829884459336823E+00    2.8589508035354347E+00    1.6229237472007281E+01
C    5.3354628711935268E+00    3.2256961979898233E+00    1.4845905424700620E+01
C    1.4614237682101656E+01    4.1838376826089698E+00    1.7998160766662352E+01
C    1.8943589360683664E+01    5.7809975673121663E+00    1.7778648795230900E+01
C    1.8061333837913462E+01    2.2443011809542996E+00    1.7581009088357252E+01
C    1.3525873223337070E+01    2.1906058403473185E+00    1.8330958727940946E+01
C    1.2927228083571473E+01    5.6254209028772477E+00    1.9389004485357543E+01
C    1.6871998224036705E+01    4.2118364037826206E+00    1.7573682168892798E+01
C    1.2725000577920708E+01    3.2227251728946009E+00    1.8948529691462443E+01
C    2.0414545423758163E+01    3.3328613767937383E+00    1.7768870892594446E+01
C    1.3403591908205614E+01    4.4717652003372903E+00    1.8759122427377619E+01
C    1.9024935652096040E+01    3.3273463588438092E+00    1.7682300755886494E+01
C    1.8282470258693674E+01    4.5589432096838642E+00    1.7681887154041014E+01
C    1.6986720675239535E+01    2.7136363181964712E-01    1.8040808226118699E+01
C    1.4716045881481188E+01    2.3518055655857770E-01    1.8365678561200017E+01
C    6.4535156246014882E+00    9.4638575713183271E-01    1.7527891413789362E+01
C   -5.1264158317675443E+00    1.9893248933566642E+01    1.7085684691571963E+01
C    4.5700531517697067E+00    1.7342996849643317E+01    2.0333058278094601E+01
C    3.3158162700603842E+00    1.4727594857126956E+01    2.1306629257888638E+01
C    4.7321389231645163E+00    1.4753856570553808E+01    2.1268004037801049E+01
C    5.2202971657279127E+00    1.0984937687462246E+01    2.1664532815767714E+01
C    4.7801487252561357E+00    1.2358310501972291E+01    2.1436516239638074E+01
C    3.1600845802504582E+00    1.7319066339653933E+01    2.0493286275400656E+01
C    5.4700467022608557E+00    1.3564090737122600E+01    2.1309402140224133E+01
C    2.3425960619922548E+00    1.8237754963094602E+01    1.9838052763880953E+01
C    5.1773659849790628E+00    1.8279779749489741E+01    1.9489314230045800E+01
C    5.3138557438399472E+00    1.0891795695170520E+01    7.9234813759665048E+00
C    5.5597925655324154E+00    1.3463756754897826E+01    8.3197233431470980E+00
C    4.8708413713327525E+00    1.2260162480635842E+01    8.1690711527235678E+00
C    3.4051748595117450E+00    1.4626849332309227E+01    8.3144566072895287E+00
C    4.8212765629696976E+00    1.4652989316164877E+01    8.3639717927976722E+00
C    2.4301297576889747E+00    1.8146795321786662E+01    9.7699941577342102E+00
C    3.2476899048047962E+00    1.7222559103256987E+01    9.1227246589806761E+00
C    4.6574504829491827E+00    1.7247097282735048E+01    9.2872744627461028E+00
C    5.2634491955378735E+00    1.8189964766568064E+01    1.0125220530066281E+01
C    3.0319470467106258E+00    1.9100202970623343E+01    1.0582830535779227E+01
C    4.4520420056679475E+00    1.9122294816544354E+01    1.0776204658475399E+01
C    6.3779904370949687E+00    1.1716580553442745E+01    1.2409795339434218E+01
C    6.1276871373914279E+00    9.3620141461091269E+00    1.1695949346782907E+01
C    5.7464205963927402E+00    1.0704285587019221E+01    1.1578305314844661E+01
C    7.1543653583217326E+00    8.9797754565671433E+00    1.2652739428211655E+01
C    6.7800079074879589E+00    7.6974254278618055E+00    1.3227984565433667E+01
C    5.3644308709519946E+00    1.2690686026691298E+01    1.2783243561092860E+01
C    7.7613098427583003E+00    9.9540513387599603E+00    1.3453883367038902E+01
C    7.3653738891044878E+00    1.1347541764997921E+01    1.3330510290355788E+01
C    4.3419174849013169E+00    1.1052976817812464E+01    1.1437637402843572E+01
C    2.9077201223555713E+00    1.2452980775732694E+01    1.2884132742886244E+01
C    4.1058720149384529E+00    1.2281195518360496E+01    1.2181227195551868E+01
C    4.1329547662538415E+00    1.3438790886661909E+01    1.4791879077916926E+01
C    5.3777194933884536E+00    1.3258365972923668E+01    1.4063240940202965E+01
C    7.3793039261561502E+00    1.1938100950015723E+01    1.4658971457835946E+01
C    2.9215644140256853E+00    1.3042571739235095E+01    1.4213365642670798E+01
C    7.6597332455685532E+00    8.4499588555494825E+00    1.5413100009510153E+01
C    7.7828321991167631E+00    1.0909988777136830E+01    1.5603820397393999E+01
C    7.0513552083810298E+00    8.3943341112742029E+00    1.6733157348820701E+01
C    6.4046740813568199E+00    1.2875686289834926E+01    1.5018744090130273E+01
C    8.0187953645549310E+00    9.6838208360852338E+00    1.4859132347619521E+01
C    4.3904973393281255E+00    1.3169508381777851E+01    1.6197628501140610E+01
C    7.0272464821280041E+00    7.4384507947877010E+00    1.4581807908528182E+01
C    6.1848928433083881E+00    1.1831726157210735E+01    1.7248752239090472E+01
C    4.3666557354146542E+00    1.9210431759700430E+01    1.8835024091223520E+01
C    3.4265684318593599E+00    1.2514630451808973E+01    1.6972859483233297E+01
C    2.9456183974172117E+00    1.9189057199554981E+01    1.9024323446700514E+01
C    5.7954450157824082E+00    1.2821186287836577E+01    1.6337879921115352E+01
C    7.1982852534746957E+00    1.0857721508374460E+01    1.6874576727640530E+01
C    5.1837155530092947E+00    1.1150085499658651E+01    1.8053373386198587E+01
C    5.5791669991989004E+00    9.7559870875563508E+00    1.8178111315414238E+01
C    6.8255200419868434E+00    9.5752241561881064E+00    1.7450498526933519E+01
H    6.9601070105212868E+00    4.6103065382425070E+00    2.0953190775141394E+01
H   -6.4314077198697561E-01    9.0751044364813342E+00    1.9546823855126281E+01
H    1.9878030461231380E+00    4.7810471479770813E+00    1.9412983087369213E+01
H   -5.4633617835155113E-01    8.9709867447753773E+00    9.9909473440057184E+00
H    2.0800379160922602E+00    4.6744498807546719E+00    1.0128535817662783E+01
H    7.0626401025920442E+00    4.5200828935573654E+00    8.6142087525122353E+00
H    1.5273554670940779E+00    1.3508915841890886E+01    2.1231046265235406E+01
H    1.6167219518212896E+00    1.3407182931107057E+01    8.3630761714582835E+00
H    9.3521714572015142E+00    9.0323155164343234E+00    2.1183828769526237E+01
H    1.1061933818923379E+01    2.1809968781576661E+00    1.9857141930064589E+01
H    9.4496667703132147E+00    8.9476628042803679E+00    8.4076371435942807E+00
H    1.1168096570852565E+01    2.0972611734577264E+00    9.6973110216657936E+00
H    1.3541002759895958E+01    6.4983827027395220E+00    1.0288678935260393E+01
H    2.1065813084813161E+01    2.3052498391017471E+00    1.1784864271077957E+01
H    1.8483830765922821E+01    6.6279445475570045E+00    1.1741825760845730E+01
H    1.8390188191427253E+01    6.7192192190874280E+00    1.7815992903311479E+01
H    2.0980496620614755E+01    2.4015088272631147E+00    1.7795726474754570E+01
H    1.3445153934900521E+01    6.5783165831225885E+00    1.9279390194160875E+01
H    6.5598513373529617E+00    1.3587576409181382E+01    2.1296265953529726E+01
H    1.2616083654565053E+00    1.8220929293658276E+01    1.9976222707339716E+01
H    6.2607670599585497E+00    1.8298637132440820E+01    1.9370638841842496E+01
H    6.6495537193117835E+00    1.3487355719154895E+01    8.3420701603722200E+00
H    6.3466691202676522E+00    1.8209793209172140E+01    1.0245591312504205E+01
H    1.3497536727886645E+00    1.8132658203199334E+01    9.6273873872051698E+00
N    4.2317936324773209E+00    6.3165218821521458E+00    2.0981826472230626E+01
N    2.9263346420707177E+00    8.2372119472787890E+00    2.1541807036410145E+01
N    5.2710825818406706E+00    8.3016617772408132E+00    2.1745601932037339E+01
N    5.3707418588599136E+00    8.2140136478143404E+00    7.8457240279814782E+00
N    3.0260756531247162E+00    8.1369500668222248E+00    8.0066808661783142E+00
N    4.3316844055449559E+00    6.2178899392782867E+00    8.5757527080324270E+00
N    1.7864322557819738E+00    1.0298814546618024E+01    2.1149126803329459E+01
N    4.0584748962401243E+00    1.0280225788093000E+01    2.1815670133733420E+01
N    4.1545821904645210E+00    1.0187924140761137E+01    7.7449217504701604E+00
N    1.8809873162327364E+00    1.0195909054934885E+01    8.4068121729451928E+00
N    1.6950420219158804E+01    2.7780813562776236E+00    1.2243116378702542E+01
N    1.4627508599729710E+01    2.7675115161863282E+00    1.1888610413161445E+01
N    1.5850116729223835E+01    7.2498869794208898E-01    1.1901557066674441E+01
N    1.5843490259657754E+01    4.8159193560807001E+00    1.1725973607709950E+01
N    1.8231952164047762E+01    8.4493216248492997E-01    1.1734637314712044E+01
N    1.3645242164321704E+01    7.8840740852256375E-01    1.0990640081735693E+01
N    1.4534092038248227E+01    2.8476348302806231E+00    1.7679971161605437E+01
N    1.5767548482654190E+01    8.1123895734883578E-01    1.7706932866350648E+01
N    1.6862328970740496E+01    2.8617627660840359E+00    1.7357681053643802E+01
N    1.3554467068776347E+01    8.7240528584609567E-01    1.8593375964159954E+01
N    1.8147784345995863E+01    9.3427702221053466E-01    1.7876006355016116E+01
N    1.5746730243203462E+01    4.8995039276999792E+00    1.7847623386684766E+01
N    6.4238821589885235E+00    1.0373648853372266E+01    2.1611812898493682E+01
N    6.5185775394473975E+00    1.0285565201934473E+01    7.9871233741145051E+00
S   -1.7578146303167583E+00    7.2367007230633149E+00    1.1885813952388286E+01
S   -1.0107631956513763E-01    4.4589078107083271E+00    1.1942917487697805E+01
S   -1.8530889200980061E+00    7.3338361822418685E+00    1.7654230918437850E+01
S   -1.9251743571370086E-01    4.5587150271073842E+00    1.7602120610225860E+01
S    9.7107702516027636E+00    4.1193373641835986E+00    2.1391439735148186E+01
S    1.1305680149772698E+01    6.9454989752851963E+00    2.1131751210901857E+01
S    9.8134642168906367E+00    4.0376905304459463E+00    8.1690776291300597E+00
S    1.1402658329049252E+01    6.8648210995166332E+00    8.4372791761609491E+00
S    2.3828409801493611E+00    1.6189615949317698E+01    2.1588753679106897E+01
S    5.6092235739371645E+00    1.6283743031235513E+01    2.1288665328306418E+01
S    2.4719878607357337E+00    1.6088335121955758E+01    8.0309971109514962E+00
S    5.7012904261207185E+00    1.6180463946067057E+01    8.3459102704350894E+00
H    4.1218149792195158E+00    8.6316005106616647E+00    3.3850230712020810E+00
H    3.8598211941931737E+00    8.8133331467736475E+00    2.6179034534841119E+01
     &END COORD
     &KIND H
       BASIS_SET DZVP-MOLOPT-GTH
       POTENTIAL GTH-PBE-q1
       &POTENTIAL
 1
  0.2000000000000000E+00 2 -0.4178900440000000E+01  0.7244633100000000E+00
 0
         # Potential name:  GTH-PBE-Q1  for symbol:  H
         # Potential read from the potential filename: POTENTIAL
       &END POTENTIAL
     &END KIND
     &KIND C
       BASIS_SET DZVP-MOLOPT-GTH
       POTENTIAL GTH-PBE-q4
       &POTENTIAL
 2 2
  0.3384712400000000E+00 2 -0.8803673979999999E+01  0.1339210850000000E+01
 2
  0.3025757500000000E+00 1  0.9622486650000001E+01
  0.2915069400000000E+00 0
         # Potential name:  GTH-PBE-Q4  for symbol:  C
         # Potential read from the potential filename: POTENTIAL
       &END POTENTIAL
     &END KIND
     &KIND N
       BASIS_SET DZVP-MOLOPT-GTH
       POTENTIAL GTH-PBE-q5
       &POTENTIAL
 2 3
  0.2837905100000000E+00 2 -0.1241522559000000E+02  0.1868095920000000E+01
 2
  0.2554050000000000E+00 1  0.1363026257000000E+02
  0.2454945300000000E+00 0
         # Potential name:  GTH-PBE-Q5  for symbol:  N
         # Potential read from the potential filename: POTENTIAL
       &END POTENTIAL
     &END KIND
     &KIND B
       BASIS_SET DZVP-MOLOPT-SR-GTH
       POTENTIAL GTH-PBE-q3
       &POTENTIAL
 2 1
  0.4189914500000000E+00 2 -0.5859461710000000E+01  0.9037564300000001E+00
 2
  0.3713204600000000E+00 1  0.6297280180000000E+01
  0.3645630800000000E+00 0
         # Potential name:  GTH-PBE-Q3  for symbol:  B
         # Potential read from the potential filename: POTENTIAL
       &END POTENTIAL
     &END KIND
     &KIND S
       BASIS_SET DZVP-MOLOPT-GTH
       POTENTIAL GTH-PBE-q6
       &POTENTIAL
 2 4
  0.4200000000000000E+00 1 -0.5986260380000000E+01
 2
  0.3648203500000000E+00 2  0.1314354448000000E+02 -0.4241830450000000E+01
  0.5476179570000000E+01
  0.4094804800000000E+00 1  0.3700890570000000E+01
         # Potential name:  GTH-PBE-Q6  for symbol:  S
         # Potential read from the potential filename: POTENTIAL
       &END POTENTIAL
     &END KIND
     &TOPOLOGY
       COORD_FILE_NAME cof.xyz
       COORD_FILE_FORMAT  XYZ
       NUMBER_OF_ATOMS  288
       MULTIPLE_UNIT_CELL  1 1 1
     &END TOPOLOGY
   &END SUBSYS
 &END FORCE_EVAL
