 # Version information for this restart file 
 # current date 2021-06-24 16:03:35.108
 # current working dir /panfs/panfs.cbls.ccr.buffalo.edu/scratch/grp-cyberwksp21/ub2053/cof/opt-cell
 # Program compiled at                              Thu Apr 22 21:44:59 EDT 2021
 # Program compiled on                cpn-k07-07-02.compute.cbls.ccr.buffalo.edu
 # Program compiled for                                                    local
 # Source code revision number                                       git:36754bb
 &GLOBAL
   EXTENDED_FFT_LENGTHS  T
   PRINT_LEVEL  MEDIUM
   PROJECT_NAME COF
   RUN_TYPE  CELL_OPT
 &END GLOBAL
 &MOTION
   &GEO_OPT
     OPTIMIZER  BFGS
     MAX_ITER  550
     MAX_DR     2.0000000000000000E-03
     MAX_FORCE     2.9999999999999997E-04
     RMS_DR     2.0000000000000000E-03
     RMS_FORCE     2.9999999999999997E-04
     &BFGS
     &END BFGS
   &END GEO_OPT
   &CELL_OPT
     OPTIMIZER  BFGS
     MAX_ITER  550
     MAX_DR     2.0000000000000000E-03
     MAX_FORCE     2.9999999999999997E-04
     RMS_DR     2.0000000000000000E-03
     RMS_FORCE     2.9999999999999997E-04
     STEP_START_VAL  5
     TYPE  DIRECT_CELL_OPT
     EXTERNAL_PRESSURE     1.0000000000000000E+02    0.0000000000000000E+00    0.0000000000000000E+00    0.0000000000000000E+00 \
         1.0000000000000000E+02    0.0000000000000000E+00    0.0000000000000000E+00    0.0000000000000000E+00    1.0000000000000000E+02
     KEEP_SYMMETRY  F
     PRESSURE_TOLERANCE     1.0000000000000000E+02
   &END CELL_OPT
   &PRINT
     &TRAJECTORY  SILENT
       &EACH
         GEO_OPT  1
       &END EACH
     &END TRAJECTORY
     &FORCES  ON
     &END FORCES
     &RESTART  SILENT
       BACKUP_COPIES  1
       &EACH
         GEO_OPT  1
       &END EACH
     &END RESTART
   &END PRINT
 &END MOTION
 &FORCE_EVAL
   METHOD  QS
   STRESS_TENSOR  ANALYTICAL
   &DFT
     BASIS_SET_FILE_NAME BASIS_MOLOPT
     POTENTIAL_FILE_NAME POTENTIAL
     MULTIPLICITY  1
     &SCF
       MAX_SCF  50
       EPS_SCF     9.9999999999999995E-07
       SCF_GUESS  ATOMIC
       ADDED_MOS  50
       &DIAGONALIZATION  T
         ALGORITHM  DAVIDSON
       &END DIAGONALIZATION
       &SMEAR  T
         METHOD  FERMI_DIRAC
       &END SMEAR
       &MIXING  T
         METHOD  BROYDEN_MIXING
         ALPHA     2.9999999999999999E-01
         NBUFFER  8
       &END MIXING
     &END SCF
     &QS
       EPS_DEFAULT     1.0000000000000000E-14
       METHOD  GPW
     &END QS
     &MGRID
       NGRIDS  6
       CUTOFF     1.0000000000000000E+03
       REL_CUTOFF     6.0000000000000000E+01
     &END MGRID
     &XC
       DENSITY_CUTOFF     1.0000000000000000E-10
       GRADIENT_CUTOFF     1.0000000000000000E-10
       TAU_CUTOFF     1.0000000000000000E-10
       &XC_GRID
         XC_DERIV  SPLINE2_SMOOTH
       &END XC_GRID
       &XC_FUNCTIONAL  NO_SHORTCUT
         &PBE  T
         &END PBE
       &END XC_FUNCTIONAL
       &VDW_POTENTIAL
         POTENTIAL_TYPE  PAIR_POTENTIAL
         &PAIR_POTENTIAL
           TYPE  DFTD3
           PARAMETER_FILE_NAME dftd3.dat
           REFERENCE_FUNCTIONAL PBE
         &END PAIR_POTENTIAL
       &END VDW_POTENTIAL
     &END XC
     &POISSON
       POISSON_SOLVER  PERIODIC
       PERIODIC  XYZ
     &END POISSON
     &PRINT
       &MO_CUBES  SILENT
         WRITE_CUBE  F
         NLUMO  3
         NHOMO  3
       &END MO_CUBES
       &PDOS  SILENT
         COMPONENTS  T
         APPEND  T
         NLUMO  -1
       &END PDOS
       &MULLIKEN  OFF
       &END MULLIKEN
       &HIRSHFELD  OFF
       &END HIRSHFELD
     &END PRINT
   &END DFT
   &SUBSYS
     &CELL
       A     2.3028407883275761E+01    0.0000000000000000E+00    0.0000000000000000E+00
       B    -1.2316616616468794E+01    2.0131240917385686E+01    0.0000000000000000E+00
       C    -3.6330443513026722E-01    2.6371786201287067E-01    3.8843452309077520E+01
       PERIODIC  XYZ
       MULTIPLE_UNIT_CELL  1 1 1
     &END CELL
     &COORD
B    4.0288567281863417E+00    8.8846683589487228E+00    2.2344920597529768E+01
B    4.1379517909351309E+00    8.7899020987044132E+00    7.2222062742664237E+00
B    1.5713806482372222E+01    2.0333021986553996E+00    1.2647937970433061E+01
B    1.5634384736018921E+01    2.1088750439172248E+00    1.6945798857155339E+01
C    3.0676034110829522E+00    6.9928661718877514E+00    2.0993000214260494E+01
C    1.8468130362587738E+00    6.7833485217439788E+00    2.0236585435284297E+01
C    6.7610621162504314E+00    6.7604385051032185E+00    2.1153979818196465E+01
C    5.3396745715151841E+00    7.0091497321830269E+00    2.1326572798076153E+01
C   -7.1080148586940395E-02    8.1497768028462119E+00    1.9532923279221151E+01
C    1.0935695121954245E+00    8.0076475244561358E+00    2.0283810034587876E+01
C    7.4737289672091176E+00    5.5746655990718939E+00    2.1021752961791574E+01
C    1.8584011937439824E+00    8.9587716967682347E+00    2.1074605536510273E+01
C    1.4216380718982207E+00    5.7139925333973061E+00    1.9452393282608242E+01
C    4.0990603348800647E+00    8.6507638245188847E+00    4.4533702429240920E+00
C    3.9209147602821881E+00    8.7877883779869581E+00    2.3898716665461698E+01
C    4.0731469805481595E+00    8.6743486090649551E+00    5.6671227288303747E+00
C    3.8885905693578890E+00    8.8003032499942631E+00    2.5112465989965504E+01
C    5.4402927951034519E+00    6.9181480679991809E+00    8.2537695337015951E+00
C    1.1894093159357138E+00    7.9021069248425739E+00    9.2596429377010026E+00
C    1.9412688968710510E+00    6.6778390434605424E+00    9.3062361964024571E+00
C    1.5133415817594145E+00    5.6081991618742730E+00    1.0089018108037529E+01
C    2.4012132119154254E-02    8.0453836039560489E+00    1.0008639880236423E+01
C   -3.8205866629453689E-01    6.9820537460643806E+00    1.0819458338594011E+01
C    3.5485180105484126E-01    5.7665464421886563E+00    1.0854016333148222E+01
C    3.1654873294812944E+00    6.8910315617909488E+00    8.5561558340463773E+00
C    1.9554919953354624E+00    8.8554542829535716E+00    8.4748835068897126E+00
C    7.5750300133036781E+00    5.4858349023032389E+00    8.5539797323530831E+00
C    6.8611323056827223E+00    6.6713288654748375E+00    8.4296821675033833E+00
C   -2.5847214554425144E+00    5.6897935403254163E+00    1.1789682772642822E+01
C   -1.0648719641631866E+01    1.9939338567148859E+01    1.2615193862949114E+01
C    4.1954376246565523E+00    1.1584386431667326E-01    1.1331402489078231E+01
C    3.4866734468968277E+00    1.2439274971382965E+00    1.1756607227483094E+01
C   -1.8552598790516655E+00    4.4707274042133607E+00    1.1805930570694802E+01
C   -1.1295636337083188E+01    1.9612039971152768E+01    1.3874311523495221E+01
C    4.1882767259456823E+00    2.3454558608783902E+00    1.2393437518597302E+01
C   -1.0101474640776221E+01    1.7714708258559845E+01    1.3154733436692034E+01
C   -6.3442441555587319E+00    1.8801044810826546E+01    1.1857377995949681E+01
C    2.1045035788165309E+00    2.0908563431660703E+00    1.3458134934094863E+01
C    3.3329268979068107E+00    2.8688838653853419E+00    1.3446598052987261E+01
C   -7.5731796342878219E+00    1.8024663570461620E+01    1.1867308932208230E+01
C   -8.6712221413690589E+00    1.8919192575081698E+01    1.1542927040868983E+01
C   -9.9113669864430101E+00    1.8767216221252973E+01    1.2170944788946276E+01
C   -7.7549472012451517E+00    1.7011476816902540E+01    1.2813568721625035E+01
C    2.1991516657550085E+00    1.0870250292146066E+00    1.2412319952958907E+01
C    6.3101860957877198E+00    1.1030138632577902E+00    1.2138635656313415E+01
C   -6.6833473595136859E+00    2.0174623417006828E+01    1.1526139650996331E+01
C    5.5738732751072062E+00    2.2761111475616747E+00    1.2581696112789682E+01
C   -5.3403791155081848E+00    1.8536733751522156E+01    1.2794029577675817E+01
C   -9.0429696081460698E+00    1.6854619972795135E+01    1.3470330923079363E+01
C    4.2961971629367230E+00    2.7013554378416544E+00    1.6887339576980153E+01
C   -4.9428160077795305E+00    1.7936221116454547E+01    1.5030389269865360E+01
C    3.5719029490657355E+00    6.5499718187387126E+00    1.5537466159248195E+01
C    3.2535958064395465E+00    2.9740343029255052E+00    1.5911616345192623E+01
C   -1.0719632118901945E+01    1.7878609318969318E+01    1.5539243956270921E+01
C   -1.0811734095748250E+01    1.8882998731782301E+01    1.6586279718959428E+01
C    2.0700600030612843E+00    2.2268785158005042E+00    1.5920688002532726E+01
C    1.4816601044886208E+00    1.7775910876195811E+00    1.4670338143086781E+01
C   -5.5293798860119532E+00    1.7485270965922155E+01    1.3779664557130067E+01
C    4.8180867962467886E+00    6.3751244182977604E+00    1.4809570941420557E+01
C   -9.6195042982754764E+00    1.6984831062423837E+01    1.5867519879003973E+01
C   -1.1138658761126518E+01    2.0206172833383370E+01    1.6265425818218695E+01
C   -1.0956600128789505E+01    1.8237290675907332E+01    1.4208194351844041E+01
C    6.0298265417432582E+00    6.7656276138657532E+00    1.5387884637037338E+01
C    9.3142553170335907E-01    4.4758582339840486E-01    1.4882439594927623E+01
C    1.8814426237133062E+00    1.1751063829247048E+00    1.6905580753261958E+01
C   -8.7966731035264800E+00    1.6482480680123746E+01    1.4853217907935710E+01
C   -6.7128209774579828E+00    1.6737474794208229E+01    1.3789205585434344E+01
C   -7.3571808078173762E+00    1.6410247706301405E+01    1.5050131334471242E+01
C   -6.7922651876867928E+00    1.6843701705586213E+01    1.6254083615589323E+01
C   -5.5628322279564060E+00    1.7620690024191148E+01    1.6243774073350700E+01
C    3.8987092068484497E+00    3.2954430316078165E+00    1.4650812561289090E+01
C   -7.6530793442373470E+00    1.9595830785874334E+01    1.8368392414699542E+01
C    2.8862239629482076E+00    9.0998321113089742E-01    1.7841124147756130E+01
C   -5.6564902261062020E+00    1.8624785382400667E+01    1.7289965727070740E+01
C   -7.6466680463102401E+00    1.7367065804751491E+01    1.7306765955584339E+01
C   -4.7424953436521383E-01    7.0858897328477930E+00    1.8721246208937075E+01
C   -2.6775850560746952E+00    5.7848401035421251E+00    1.7765217512108173E+01
C   -1.9458146463062502E+00    4.5672817038761480E+00    1.7753455241721483E+01
C   -9.0912536691892214E+00    1.9668127523829465E+01    1.8173051986663296E+01
C    2.6354826399217324E-01    5.8708569843911738E+00    1.8687202872082484E+01
C    4.1148671304922519E+00    1.6870451250038794E+00    1.7832643833088731E+01
C    5.2135172728977341E+00    7.9315521425020263E-01    1.8158009996931565E+01
C   -6.9444731091547629E+00    1.8468086860844942E+01    1.7944602438679073E+01
C   -9.7679573095602503E+00    1.8609475618115116E+01    1.7560546048669206E+01
C   -9.0317793913966433E+00    1.7436277744177588E+01    1.7117653783996857E+01
C    2.6216144015189187E+00    1.3523744381004121E+01    2.1262176858905153E+01
C    2.9219512218010499E+00    1.0956324342556973E+01    2.1480914124889647E+01
C    3.3466872037299167E+00    1.2341726104929815E+01    2.1356733261158364E+01
C    3.0153017639144797E+00    1.0858240493418364E+01    8.0845806078208788E+00
C    3.4367860035975450E+00    1.2241848313646853E+01    8.2359979014591644E+00
C    2.7107537762589295E+00    1.3422301946552796E+01    8.3419521842802755E+00
C    2.7701280393606305E+00    7.9777000686064206E+00    1.2358931774215129E+01
C    2.1301662950513047E+00    1.0231048259213411E+01    1.2155871505499618E+01
C    5.1223504384617042E+00    8.3208553216067198E+00    1.1683185591368465E+01
C    1.9027957492685583E+00    1.1411428222853536E+01    1.2869757835578797E+01
C    1.7556088323120342E+00    8.9492955299718080E+00    1.2730368236304788E+01
C    3.1551153173542739E+00    6.9853331211520295E+00    1.3265081822520038E+01
C    5.5251251101738150E+00    7.2918275072715399E+00    1.2628106340734362E+01
C    3.7706297664487867E+00    8.6573443028682764E+00    1.1553462240479000E+01
C    3.3760296268968721E+00    1.0050540473533806E+01    1.1429862846651856E+01
C    4.5605736806623716E+00    6.6400214313048425E+00    1.3404079897277779E+01
C    1.1636850310598805E+00    8.8936231641961996E+00    1.3996649502798375E+01
C    1.2924096195573174E+00    1.1355332599792590E+01    1.4188490993365832E+01
C    1.9253871070888422E+00    1.2366662127143458E+01    1.5019024717799169E+01
C    6.0453390433262957E+00    7.3528805969922670E+00    1.6717852912355820E+01
C    1.5667930960238319E+00    7.8643327903718632E+00    1.4941145626815185E+01
C    9.2999202101382661E-01    1.0121608554778037E+01    1.4740568714427297E+01
C    2.5423904808923279E+00    6.9275711322173992E+00    1.4582709162135995E+01
C    1.1888350091586468E+00    9.8513758156181996E+00    1.6145564785262106E+01
C    1.5852263866880261E+00    8.4576838055114294E+00    1.6267622368569061E+01
C    3.5876419198555820E+00    7.1176151646505188E+00    1.6815589145109325E+01
C    3.2091819785558240E+00    9.1042805889377849E+00    1.8012329638301811E+01
C    2.1724982725255519E+00    1.2107890918452087E+01    1.6371735873209477E+01
C    2.8277960791969696E+00    1.0443789534232964E+01    1.7896406262975752E+01
C    1.7979798536659832E+00    1.0825508141003812E+01    1.6944956283867889E+01
C    4.8469871301275198E+00    7.5258197468536556E+00    1.7418115262101285E+01
C    2.5775257726048579E+00    8.0938092342805223E+00    1.7182208470841932E+01
C    4.6119301559062977E+00    8.7543280757900721E+00    1.8159471107111621E+01
C    3.8358615020842097E+00    1.1489147646359086E+01    1.7915530335579138E+01
C    8.8311904819921541E+00    8.0816472239941408E+00    2.1162209471207877E+01
C    9.5479231070346717E+00    6.8789059679053457E+00    2.1091233315878924E+01
C    7.4429602211147907E+00    8.0221187249395332E+00    2.1287194371684137E+01
C    1.1117637244159619E+01    4.2883746930842639E+00    2.0349638658112202E+01
C    6.4286225608977094E+00    9.0292173499699082E+00    2.1596361986887015E+01
C    1.1584070897316389E+01    3.1336806052699404E+00    1.9724266435924211E+01
C    8.8682043047909609E+00    5.6323195051979580E+00    2.1094490652819943E+01
C    1.1795753923374008E+01    5.5294803328506479E+00    2.0199332624665097E+01
C    6.5267313789390595E+00    8.9417641998436164E+00    8.0007458472891493E+00
C    8.9292424608061722E+00    7.9966125432748161E+00    8.4277273205915595E+00
C    7.5412872206789539E+00    7.9350511853055998E+00    8.3055253705868015E+00
C    9.6469864361029476E+00    6.7943195195773862E+00    8.4879536554504451E+00
C    8.9691238039222494E+00    5.5468298043142683E+00    8.4790632915723450E+00
C    1.1687880885776988E+01    3.0502505816132173E+00    9.8340975118346883E+00
C    1.2834311208169010E+01    3.1413624905242985E+00    1.0610864660068263E+01
C    1.1896784668872066E+01    5.4471297430911836E+00    9.3650778113355759E+00
C    1.3036155467915451E+01    5.5449033301289257E+00    1.0174744506183563E+01
C    1.1220960311809815E+01    4.2056667028900128E+00    9.2109563475208169E+00
C    1.8157321084162714E+01    2.1562686196344965E+00    1.2023283799621534E+01
C    1.4719530208696677E+01    4.1044608968826735E+00    1.1568248068141294E+01
C    1.9122045538031909E+01    3.2381132337571406E+00    1.1907806992100776E+01
C    1.6971474657248393E+01    4.1300986135638569E+00    1.2013945809338226E+01
C    1.3626677997488157E+01    2.1090754641227236E+00    1.1239142676163089E+01
C    1.8382830150829321E+01    4.4712064649967687E+00    1.1899505572392007E+01
C    2.0510558193580323E+01    3.2391144073301454E+00    1.1809764830047708E+01
C    1.9044500710763387E+01    5.6909110658763868E+00    1.1786076277822234E+01
C    1.7079327440745860E+01    1.8352417352954439E-01    1.1571448365703564E+01
C    7.3536880592338711E+00    8.2906744052544779E-01    1.3112909362036401E+01
C    1.4806732199536702E+01    1.4930183650976614E-01    1.1235719249440088E+01
C    7.2618002970570528E+00    1.8332851253782341E+00    1.4160349382226512E+01
C    6.1618509892063624E+00    2.7267600903619886E+00    1.3832152451707328E+01
C    1.3513600982322131E+01    4.3900199008785199E+00    1.0799251904948843E+01
C   -4.6378873195835668E+00    1.9637230782119435E+01    1.3434608513572018E+01
C    1.5484493880061477E+01    1.9824012289253916E+00    1.5405844178409259E+01
C    1.5520480514019685E+01    1.9473888076062651E+00    1.4185727679700015E+01
C    6.6439220764388924E+00    1.9979183553222315E+00    1.6545792796096535E+01
C   -4.3919863066475680E+00    1.9265236856806116E+01    1.4817410707564628E+01
C   -4.4807260340317443E+00    2.0231556321229654E+01    1.5825652216952420E+01
C    7.4988646661940468E+00    1.4752811877311494E+00    1.5491858331371395E+01
C    5.5848491617955762E+00    2.8576729273051251E+00    1.6230300143908401E+01
C    5.3379904809125067E+00    3.2246019038874678E+00    1.4846871185138967E+01
C    1.4623150371879825E+01    4.1860627569842137E+00    1.7999945882307635E+01
C    1.8951538065898930E+01    5.7828604955703611E+00    1.7778524908516545E+01
C    1.8070982979618471E+01    2.2441426123741408E+00    1.7581371671142520E+01
C    1.3531681804374328E+01    2.1900569348455905E+00    1.8331274278890508E+01
C    1.2935928873652808E+01    5.6264532070423270E+00    1.9389975214302861E+01
C    1.6879727017134016E+01    4.2153583476540675E+00    1.7573563843866154E+01
C    1.2733085513406113E+01    3.2236845434809798E+00    1.8950212439431350E+01
C    2.0422696719120822E+01    3.3342732471336416E+00    1.7768288533089226E+01
C    1.3412910255906910E+01    4.4721510234391486E+00    1.8763084598426321E+01
C    1.9033518507970015E+01    3.3292721731930546E+00    1.7682751295108321E+01
C    1.8291015162594178E+01    4.5610320829180973E+00    1.7682274656916782E+01
C    1.6996105893855201E+01    2.7153764760259064E-01    1.8041667956782678E+01
C    1.4721056280596329E+01    2.3495193930025657E-01    1.8366882593797502E+01
C    6.4532970282989428E+00    9.4493050379625776E-01    1.7529718280154167E+01
C   -5.1263677002629144E+00    1.9903847912058783E+01    1.7085750838772089E+01
C    4.5769485428983634E+00    1.7351667093813514E+01    2.0333563162701211E+01
C    3.3196973145564814E+00    1.4733790373694251E+01    2.1307789520243915E+01
C    4.7388958657145155E+00    1.4759815458831246E+01    2.1268149584602440E+01
C    5.2271233144129718E+00    1.0990504953144809E+01    2.1666083992991084E+01
C    4.7853432954107120E+00    1.2363768016767377E+01    2.1437361260732658E+01
C    3.1638805748034673E+00    1.7326995543212952E+01    2.0494068234393172E+01
C    5.4755443702429636E+00    1.3568520797143924E+01    2.1310177268038725E+01
C    2.3483343632197449E+00    1.8248080492830017E+01    1.9837544388376180E+01
C    5.1834630560720116E+00    1.8290953904071333E+01    1.9490282128224866E+01
C    5.3209991177795501E+00    1.0897930454901603E+01    7.9232785519216877E+00
C    5.5650067826086627E+00    1.3468743924497987E+01    8.3196473435645668E+00
C    4.8757636432685132E+00    1.2266073348310004E+01    8.1699540562407655E+00
C    3.4088468113297465E+00    1.4633194660664033E+01    8.3146870595190272E+00
C    4.8277691085686039E+00    1.4659411288777507E+01    8.3644312425634784E+00
C    2.4359774148650817E+00    1.8157465998230144E+01    9.7724416836873882E+00
C    3.2520947060458862E+00    1.7231289485213640E+01    9.1240692597215958E+00
C    4.6648955414747775E+00    1.7256286476508578E+01    9.2888725936683656E+00
C    5.2696394578997241E+00    1.8200347717826872E+01    1.0127640182755037E+01
C    3.0382870096326604E+00    1.9111560496598898E+01    1.0583344690043532E+01
C    4.4584627141543018E+00    1.9133389818103165E+01    1.0776618329625389E+01
C    6.3829014601991707E+00    1.1721046827125093E+01    1.2410859009750730E+01
C    6.1314070671605343E+00    9.3673495005129954E+00    1.1698914801353327E+01
C    5.7506303614116652E+00    1.0708533534811878E+01    1.1581090614916686E+01
C    7.1583205703201234E+00    8.9847677328054072E+00    1.2654599407129213E+01
C    6.7837017482760018E+00    7.7027296468485282E+00    1.3229105235018050E+01
C    5.3693919359624083E+00    1.2695224257051626E+01    1.2784111760590012E+01
C    7.7651748187092249E+00    9.9587735273959588E+00    1.3455217984496985E+01
C    7.3704659638382903E+00    1.1352415140780705E+01    1.3331131307546805E+01
C    4.3465436022940418E+00    1.1056985072088418E+01    1.1441960296849215E+01
C    2.9125064067557251E+00    1.2457853292553308E+01    1.2885317676119339E+01
C    4.1106127623821704E+00    1.2285265490719475E+01    1.2183784629852008E+01
C    4.1376582577936238E+00    1.3443756547333161E+01    1.4792112157715589E+01
C    5.3824792033090594E+00    1.3263352201939357E+01    1.4063485718777020E+01
C    7.3842655373355157E+00    1.1943527269216835E+01    1.4659679934419950E+01
C    2.9263298066515797E+00    1.3047919995300049E+01    1.4214112315618717E+01
C    7.6632420941355166E+00    8.4553283465331308E+00    1.5413725863313596E+01
C    7.7877917645629964E+00    1.0915287007596197E+01    1.5604907569845242E+01
C    7.0547412625500252E+00    8.3993285575127334E+00    1.6733477048607263E+01
C    6.4095543133863604E+00    1.2880726631493346E+01    1.5019219950576190E+01
C    8.0227311844983387E+00    9.6887906172422085E+00    1.4860469648317215E+01
C    4.3953495780402134E+00    1.3174162177942140E+01    1.6197953045674144E+01
C    7.0306890604417491E+00    7.4441609537802931E+00    1.4582416605445271E+01
C    6.1887218173651135E+00    1.1835777631471428E+01    1.7248336333725309E+01
C    4.3733781226894841E+00    1.9222171791037137E+01    1.8837209671964679E+01
C    3.4317594050544300E+00    1.2519086450967047E+01    1.6972494354964127E+01
C    2.9521740923903557E+00    1.9200117882548462E+01    1.9025700861548586E+01
C    5.8002077966434058E+00    1.2825992638192304E+01    1.6338573728430308E+01
C    7.2024343600133234E+00    1.0862142095370842E+01    1.6874833636699869E+01
C    5.1875108596287109E+00    1.1154516696360066E+01    1.8052079601488188E+01
C    5.5831050385725289E+00    9.7611409973495764E+00    1.8176627942547896E+01
C    6.8290799832160278E+00    9.5799698882184856E+00    1.7449935726236514E+01
H    6.9622904518640549E+00    4.6145067668848734E+00    2.0955642774224255E+01
H   -6.3897807432859288E-01    9.0797722861918135E+00    1.9549589718264777E+01
H    1.9912920410905790E+00    4.7852086318610514E+00    1.9414789199784835E+01
H   -5.4261563346033859E-01    8.9759587895909192E+00    9.9900744722512922E+00
H    2.0826164092833164E+00    4.6792670355363741E+00    1.0128247198768101E+01
H    7.0649056815462927E+00    4.5246802424724670E+00    8.6133863655441534E+00
H    1.5322506600958066E+00    1.3514040791171132E+01    2.1231666319940128E+01
H    1.6211543160637309E+00    1.3412325249124597E+01    8.3640153650976732E+00
H    9.3561483229256588E+00    9.0370286732847021E+00    2.1184882984669212E+01
H    1.1069510748424941E+01    2.1821180276150733E+00    1.9855643412217738E+01
H    9.4531592448367778E+00    8.9526336502444721E+00    8.4083179640394938E+00
H    1.1174834585204671E+01    2.0981088852703302E+00    9.7007629536305959E+00
H    1.3549136379652275E+01    6.4996773512256247E+00    1.0292017294250440E+01
H    2.1073318568133871E+01    2.3058302011954837E+00    1.1786163112252192E+01
H    1.8491456861077040E+01    6.6293339345178115E+00    1.1742655928420556E+01
H    1.8397606351849046E+01    6.7208530133725679E+00    1.7816744191407651E+01
H    2.0987800358941001E+01    2.4025179044299723E+00    1.7796225994682533E+01
H    1.3452654134408773E+01    6.5798815258364156E+00    1.9277425312403174E+01
H    6.5655960947259890E+00    1.3591983884102666E+01    2.1296994888891575E+01
H    1.2673382940026543E+00    1.8232088796983327E+01    1.9975035410799528E+01
H    6.2667612185409993E+00    1.8309238819563706E+01    1.9369260575069163E+01
H    6.6549396077592657E+00    1.3491733217289745E+01    8.3427697037120172E+00
H    6.3527645935762145E+00    1.8220117881738041E+01    1.0248751939861148E+01
H    1.3554241483823846E+00    1.8143693622609916E+01    9.6304445683681426E+00
N    4.2366935453365224E+00    6.3150870586584187E+00    2.0983334578833517E+01
N    2.9291845576499429E+00    8.2406059056631005E+00    2.1548105907249958E+01
N    5.2747892614279612E+00    8.3061228737699739E+00    2.1748432232099677E+01
N    5.3743149014257687E+00    8.2185820122027113E+00    7.8449803842125396E+00
N    3.0285535065525870E+00    8.1405058711647467E+00    8.0021340461842527E+00
N    4.3358977832597949E+00    6.2167576016172017E+00    8.5767955737613981E+00
N    1.7878683443204537E+00    1.0306282766615105E+01    2.1147798333604037E+01
N    4.0631164113411753E+00    1.0285826893224050E+01    2.1817943108778369E+01
N    4.1593960112824497E+00    1.0194054202423384E+01    7.7437345713805614E+00
N    1.8820514163738311E+00    1.0203359460979316E+01    8.4095773111125105E+00
N    1.6958611853855654E+01    2.7798483413397301E+00    1.2245367151486750E+01
N    1.4632773463654711E+01    2.7691251381715167E+00    1.1892377782763090E+01
N    1.5856772769485847E+01    7.2301952410245962E-01    1.1905796005717068E+01
N    1.5851199558637528E+01    4.8210274471245809E+00    1.1724957785178891E+01
N    1.8242850113874120E+01    8.4417074960198901E-01    1.1733522844130192E+01
N    1.3649064232871146E+01    7.8792935327634250E-01    1.0988887131923791E+01
N    1.4538872159404297E+01    2.8491714557206014E+00    1.7676533329059659E+01
N    1.5774211300158552E+01    8.0898504931642612E-01    1.7704405200832642E+01
N    1.6870850027030869E+01    2.8634048182931942E+00    1.7357066306243599E+01
N    1.3558570861486036E+01    8.7162776591302926E-01    1.8596656526575682E+01
N    1.8159075317537003E+01    9.3345761969635310E-01    1.7878002474061976E+01
N    1.5754766054381994E+01    4.9045853447306289E+00    1.7849757169235932E+01
N    6.4322813760388131E+00    1.0379915768936552E+01    2.1611387773552984E+01
N    6.5272662599529010E+00    1.0292022280008098E+01    7.9886354366767316E+00
S   -1.7584681388533976E+00    7.2463341607967031E+00    1.1891144367228815E+01
S   -9.5612355814217467E-02    4.4583943777443311E+00    1.1948383715347497E+01
S   -1.8543339987759235E+00    7.3427249140700788E+00    1.7650769112109096E+01
S   -1.8736876617849743E-01    4.5584163640291724E+00    1.7597796242540976E+01
S    9.7140923066157683E+00    4.1185335735855011E+00    2.1394841960895704E+01
S    1.1314076203604936E+01    6.9547102086351975E+00    2.1133953666542929E+01
S    9.8169744529706904E+00    4.0370120679683765E+00    8.1666535025951870E+00
S    1.1411898044879404E+01    6.8742343044371923E+00    8.4366094776800580E+00
S    2.3812909064565333E+00    1.6196966371197984E+01    2.1593362061812051E+01
S    5.6225894962729219E+00    1.6290944397830071E+01    2.1290590897611121E+01
S    2.4708774378020339E+00    1.6096304666570536E+01    8.0288347331894219E+00
S    5.7143804118697963E+00    1.6188258087739918E+01    8.3455342375633261E+00
H    4.1230945610611709E+00    8.6337204908918572E+00    3.3831830215780441E+00
H    3.8618371558639497E+00    8.8146645451480801E+00    2.6182523674259613E+01
     &END COORD
     &KIND H
       BASIS_SET DZVP-MOLOPT-GTH
       POTENTIAL GTH-PBE-q1
       &POTENTIAL
 1
  0.2000000000000000E+00 2 -0.4178900440000000E+01  0.7244633100000000E+00
 0
         # Potential name:  GTH-PBE-Q1  for symbol:  H
         # Potential read from the potential filename: POTENTIAL
       &END POTENTIAL
     &END KIND
     &KIND C
       BASIS_SET DZVP-MOLOPT-GTH
       POTENTIAL GTH-PBE-q4
       &POTENTIAL
 2 2
  0.3384712400000000E+00 2 -0.8803673979999999E+01  0.1339210850000000E+01
 2
  0.3025757500000000E+00 1  0.9622486650000001E+01
  0.2915069400000000E+00 0
         # Potential name:  GTH-PBE-Q4  for symbol:  C
         # Potential read from the potential filename: POTENTIAL
       &END POTENTIAL
     &END KIND
     &KIND N
       BASIS_SET DZVP-MOLOPT-GTH
       POTENTIAL GTH-PBE-q5
       &POTENTIAL
 2 3
  0.2837905100000000E+00 2 -0.1241522559000000E+02  0.1868095920000000E+01
 2
  0.2554050000000000E+00 1  0.1363026257000000E+02
  0.2454945300000000E+00 0
         # Potential name:  GTH-PBE-Q5  for symbol:  N
         # Potential read from the potential filename: POTENTIAL
       &END POTENTIAL
     &END KIND
     &KIND B
       BASIS_SET DZVP-MOLOPT-SR-GTH
       POTENTIAL GTH-PBE-q3
       &POTENTIAL
 2 1
  0.4189914500000000E+00 2 -0.5859461710000000E+01  0.9037564300000001E+00
 2
  0.3713204600000000E+00 1  0.6297280180000000E+01
  0.3645630800000000E+00 0
         # Potential name:  GTH-PBE-Q3  for symbol:  B
         # Potential read from the potential filename: POTENTIAL
       &END POTENTIAL
     &END KIND
     &KIND S
       BASIS_SET DZVP-MOLOPT-GTH
       POTENTIAL GTH-PBE-q6
       &POTENTIAL
 2 4
  0.4200000000000000E+00 1 -0.5986260380000000E+01
 2
  0.3648203500000000E+00 2  0.1314354448000000E+02 -0.4241830450000000E+01
  0.5476179570000000E+01
  0.4094804800000000E+00 1  0.3700890570000000E+01
         # Potential name:  GTH-PBE-Q6  for symbol:  S
         # Potential read from the potential filename: POTENTIAL
       &END POTENTIAL
     &END KIND
     &TOPOLOGY
       COORD_FILE_NAME cof.xyz
       COORD_FILE_FORMAT  XYZ
       NUMBER_OF_ATOMS  288
       MULTIPLE_UNIT_CELL  1 1 1
     &END TOPOLOGY
   &END SUBSYS
 &END FORCE_EVAL
