 # Version information for this restart file 
 # current date 2021-06-24 15:14:14.379
 # current working dir /panfs/panfs.cbls.ccr.buffalo.edu/scratch/grp-cyberwksp21/ub2053/cof/opt-cell
 # Program compiled at                              Thu Apr 22 21:44:59 EDT 2021
 # Program compiled on                cpn-k07-07-02.compute.cbls.ccr.buffalo.edu
 # Program compiled for                                                    local
 # Source code revision number                                       git:36754bb
 &GLOBAL
   EXTENDED_FFT_LENGTHS  T
   PRINT_LEVEL  MEDIUM
   PROJECT_NAME COF
   RUN_TYPE  CELL_OPT
 &END GLOBAL
 &MOTION
   &GEO_OPT
     OPTIMIZER  BFGS
     MAX_ITER  550
     MAX_DR     2.0000000000000000E-03
     MAX_FORCE     2.9999999999999997E-04
     RMS_DR     2.0000000000000000E-03
     RMS_FORCE     2.9999999999999997E-04
     &BFGS
     &END BFGS
   &END GEO_OPT
   &CELL_OPT
     OPTIMIZER  BFGS
     MAX_ITER  550
     MAX_DR     2.0000000000000000E-03
     MAX_FORCE     2.9999999999999997E-04
     RMS_DR     2.0000000000000000E-03
     RMS_FORCE     2.9999999999999997E-04
     STEP_START_VAL  3
     TYPE  DIRECT_CELL_OPT
     EXTERNAL_PRESSURE     1.0000000000000000E+02    0.0000000000000000E+00    0.0000000000000000E+00    0.0000000000000000E+00 \
         1.0000000000000000E+02    0.0000000000000000E+00    0.0000000000000000E+00    0.0000000000000000E+00    1.0000000000000000E+02
     KEEP_SYMMETRY  F
     PRESSURE_TOLERANCE     1.0000000000000000E+02
   &END CELL_OPT
   &PRINT
     &TRAJECTORY  SILENT
       &EACH
         GEO_OPT  1
       &END EACH
     &END TRAJECTORY
     &FORCES  ON
     &END FORCES
     &RESTART  SILENT
       BACKUP_COPIES  1
       &EACH
         GEO_OPT  1
       &END EACH
     &END RESTART
   &END PRINT
 &END MOTION
 &FORCE_EVAL
   METHOD  QS
   STRESS_TENSOR  ANALYTICAL
   &DFT
     BASIS_SET_FILE_NAME BASIS_MOLOPT
     POTENTIAL_FILE_NAME POTENTIAL
     MULTIPLICITY  1
     &SCF
       MAX_SCF  50
       EPS_SCF     9.9999999999999995E-07
       SCF_GUESS  ATOMIC
       ADDED_MOS  50
       &DIAGONALIZATION  T
         ALGORITHM  DAVIDSON
       &END DIAGONALIZATION
       &SMEAR  T
         METHOD  FERMI_DIRAC
       &END SMEAR
       &MIXING  T
         METHOD  BROYDEN_MIXING
         ALPHA     2.9999999999999999E-01
         NBUFFER  8
       &END MIXING
     &END SCF
     &QS
       EPS_DEFAULT     1.0000000000000000E-14
       METHOD  GPW
     &END QS
     &MGRID
       NGRIDS  6
       CUTOFF     1.0000000000000000E+03
       REL_CUTOFF     6.0000000000000000E+01
     &END MGRID
     &XC
       DENSITY_CUTOFF     1.0000000000000000E-10
       GRADIENT_CUTOFF     1.0000000000000000E-10
       TAU_CUTOFF     1.0000000000000000E-10
       &XC_GRID
         XC_DERIV  SPLINE2_SMOOTH
       &END XC_GRID
       &XC_FUNCTIONAL  NO_SHORTCUT
         &PBE  T
         &END PBE
       &END XC_FUNCTIONAL
       &VDW_POTENTIAL
         POTENTIAL_TYPE  PAIR_POTENTIAL
         &PAIR_POTENTIAL
           TYPE  DFTD3
           PARAMETER_FILE_NAME dftd3.dat
           REFERENCE_FUNCTIONAL PBE
         &END PAIR_POTENTIAL
       &END VDW_POTENTIAL
     &END XC
     &POISSON
       POISSON_SOLVER  PERIODIC
       PERIODIC  XYZ
     &END POISSON
     &PRINT
       &MO_CUBES  SILENT
         WRITE_CUBE  F
         NLUMO  3
         NHOMO  3
       &END MO_CUBES
       &PDOS  SILENT
         COMPONENTS  T
         APPEND  T
         NLUMO  -1
       &END PDOS
       &MULLIKEN  OFF
       &END MULLIKEN
       &HIRSHFELD  OFF
       &END HIRSHFELD
     &END PRINT
   &END DFT
   &SUBSYS
     &CELL
       A     2.3024997728327364E+01    0.0000000000000000E+00    0.0000000000000000E+00
       B    -1.2316089713541860E+01    2.0127465061804468E+01    0.0000000000000000E+00
       C    -3.6352911541657834E-01    2.6406185176951191E-01    3.8841951188390411E+01
       PERIODIC  XYZ
       MULTIPLE_UNIT_CELL  1 1 1
     &END CELL
     &COORD
B    4.0276215861428746E+00    8.8827103777640737E+00    2.2337405822889817E+01
B    4.1366405410726479E+00    8.7878164585759180E+00    7.2283908742953544E+00
B    1.5711433061834434E+01    2.0333565798486126E+00    1.2646179632329556E+01
B    1.5631842436076564E+01    2.1089076222546574E+00    1.6946160002579436E+01
C    3.0647622451404342E+00    6.9921738331804555E+00    2.0991068108287458E+01
C    1.8448189478444836E+00    6.7817091956091016E+00    2.0235326445017513E+01
C    6.7601586078541160E+00    6.7586704681043921E+00    2.1153831812293280E+01
C    5.3390855451040347E+00    7.0082093552385114E+00    2.1325205309381108E+01
C   -7.2399128905232243E-02    8.1484988092518513E+00    1.9531340808233427E+01
C    1.0920797928056538E+00    8.0059460911323601E+00    2.0282474218843955E+01
C    7.4732274381845665E+00    5.5727490717597306E+00    2.1021210483001063E+01
C    1.8566400636407132E+00    8.9560702558486387E+00    2.1073058884481576E+01
C    1.4203177954627315E+00    5.7120898019389230E+00    1.9450979196903965E+01
C    4.0987174636890646E+00    8.6501294324446238E+00    4.4554847773283113E+00
C    3.9179014234355969E+00    8.7840939923215462E+00    2.3894660904489836E+01
C    4.0707258513714910E+00    8.6700789001886260E+00    5.6698878293898671E+00
C    3.8878375445811386E+00    8.8001476184472622E+00    2.5109062277151011E+01
C    5.4400552725026889E+00    6.9171161986227245E+00    8.2537530548259497E+00
C    1.1879774527177951E+00    7.9001438586686996E+00    9.2595190336543016E+00
C    1.9395741299769100E+00    6.6757114978830341E+00    9.3060348006671667E+00
C    1.5120765351049437E+00    5.6057874876080955E+00    1.0088999728055420E+01
C    2.2711499346493975E-02    8.0437315382905936E+00    1.0008905945367234E+01
C   -3.8141089926485899E-01    6.9799828360791860E+00    1.0818507430832730E+01
C    3.5462283966177910E-01    5.7660374046576104E+00    1.0853226468005465E+01
C    3.1628516227343084E+00    6.8899896862527594E+00    8.5564438709589954E+00
C    1.9540448761921831E+00    8.8526514229377202E+00    8.4752076430914709E+00
C    7.5745690273223900E+00    5.4838268956359144E+00    8.5534594410197613E+00
C    6.8604981183388922E+00    6.6696361811459024E+00    8.4286670727311694E+00
C   -2.5851696515830045E+00    5.6878399161733402E+00    1.1787562752369292E+01
C   -1.0650656237604354E+01    1.9935279890252438E+01    1.2613475110987425E+01
C    4.1955698098250229E+00    1.1476441961406114E-01    1.1339418892785256E+01
C    3.4867594707786242E+00    1.2437093849215886E+00    1.1761074732469449E+01
C   -1.8564744070430945E+00    4.4702702479845957E+00    1.1803596403556819E+01
C   -1.1296973733537552E+01    1.9607717539303938E+01    1.3873149682453770E+01
C    4.1881376372712760E+00    2.3477606873221610E+00    1.2393801853679410E+01
C   -1.0102816722131646E+01    1.7710060168780508E+01    1.3154032601483367E+01
C   -6.3432564817921007E+00    1.8796023290666387E+01    1.1855725538513671E+01
C    2.1025486145331471E+00    2.0924559904905355E+00    1.3457153212685922E+01
C    3.3317903147302981E+00    2.8714091591371509E+00    1.3445659793691703E+01
C   -7.5730752272380766E+00    1.8019364775566011E+01    1.1865503304409478E+01
C   -8.6718165796711499E+00    1.8914519752069772E+01    1.1544239952103130E+01
C   -9.9136269445275484E+00    1.8762502643857538E+01    1.2170033672557302E+01
C   -7.7551387799154003E+00    1.7006671174120470E+01    1.2812709628539078E+01
C    2.1972187841585265E+00    1.0874136438923256E+00    1.2412921674368771E+01
C    6.3109190021546206E+00    1.1043307947110981E+00    1.2137986655622672E+01
C   -6.6830956179460124E+00    2.0170470054046994E+01    1.1528373277657563E+01
C    5.5744000447404360E+00    2.2779312699347374E+00    1.2580392483058427E+01
C   -5.3391684329522819E+00    1.8532249127768548E+01    1.2792825303276034E+01
C   -9.0431539095022551E+00    1.6850300661483956E+01    1.3469826138777327E+01
C    4.2958161835492659E+00    2.7030497112871963E+00    1.6886623013333988E+01
C   -4.9417677370763347E+00    1.7932026614040872E+01    1.5029956282688014E+01
C    3.5702144226798662E+00    6.5467560697608151E+00    1.5537130562451710E+01
C    3.2523467888704123E+00    2.9753826814818805E+00    1.5911135774352260E+01
C   -1.0720192621151298E+01    1.7874130885257085E+01    1.5538970689401138E+01
C   -1.0813781146707058E+01    1.8878132576612444E+01    1.6585782523409961E+01
C    2.0678557394030981E+00    2.2280681190204383E+00    1.5920391579986003E+01
C    1.4798018394296328E+00    1.7785024131518135E+00    1.4669751362843741E+01
C   -5.5284810554247832E+00    1.7480827983521788E+01    1.3778915483752057E+01
C    4.8166159244930054E+00    6.3712175972667957E+00    1.4809269900427722E+01
C   -9.6200849441487346E+00    1.6980129375941829E+01    1.5867472483700110E+01
C   -1.1140158694639402E+01    2.0202309269209877E+01    1.6264618673310441E+01
C   -1.0957553594733259E+01    1.8232885648488921E+01    1.4207617291450681E+01
C    6.0289434605164409E+00    6.7627272840776014E+00    1.5387791340203325E+01
C    9.2933618266443485E-01    4.4780441809811894E-01    1.4881549146976830E+01
C    1.8789306878235588E+00    1.1757455343278949E+00    1.6905092776037716E+01
C   -8.7969661358270717E+00    1.6478110311150591E+01    1.4852746207938123E+01
C   -6.7127486180232037E+00    1.6733071153372578E+01    1.3788629273317877E+01
C   -7.3573692291193442E+00    1.6405967745531985E+01    1.5049417826557180E+01
C   -6.7922654823999533E+00    1.6839269677841738E+01    1.6253752961056765E+01
C   -5.5622748435681482E+00    1.7616672399647346E+01    1.6243802315034660E+01
C    3.8975477128200962E+00    3.2975133834890338E+00    1.4650464603170535E+01
C   -7.6536423627575063E+00    1.9592391550070211E+01    1.8362011765355426E+01
C    2.8850601240921439E+00    9.1088307659735601E-01    1.7839616792869002E+01
C   -5.6553144840057259E+00    1.8620306913778926E+01    1.7290285466887109E+01
C   -7.6467454955113956E+00    1.7361210294117615E+01    1.7307052435616697E+01
C   -4.7418177606032080E-01    7.0839530191734630E+00    1.8721438703152216E+01
C   -2.6775847254030278E+00    5.7830587766694439E+00    1.7765671914922585E+01
C   -1.9467835112515224E+00    4.5667526505636928E+00    1.7754557401016143E+01
C   -9.0908086759290931E+00    1.9664344298949580E+01    1.8168107370319902E+01
C    2.6299598180912781E-01    5.8704190406941930E+00    1.8687028630971533E+01
C    4.1139522820554086E+00    1.6879190631910785E+00    1.7831311949184563E+01
C    5.2125232768768459E+00    7.9248814654417343E-01    1.8153288200732590E+01
C   -6.9438539573645501E+00    1.8462581227068490E+01    1.7944305555435960E+01
C   -9.7699517259438302E+00    1.8603722292627264E+01    1.7559434639129421E+01
C   -9.0329991067803928E+00    1.7430520092707919E+01    1.7118159883480693E+01
C    2.6198374829498263E+00    1.3522620938977704E+01    2.1261773176282915E+01
C    2.9213523344161887E+00    1.0955025724464820E+01    2.1480290080794763E+01
C    3.3451233724418077E+00    1.2340241846405307E+01    2.1356235066275385E+01
C    3.0147986933336393E+00    1.0856932795686532E+01    8.0842583255602438E+00
C    3.4353855549319081E+00    1.2240304917734649E+01    8.2350435220491995E+00
C    2.7091905508585259E+00    1.3421201531489343E+01    8.3415498449837138E+00
C    2.7674638171588737E+00    7.9747803761076757E+00    1.2356929947244160E+01
C    2.1278537185980433E+00    1.0229177375106802E+01    1.2153691790921142E+01
C    5.1210932918673739E+00    8.3182702272064937E+00    1.1681443833062632E+01
C    1.9008761843653861E+00    1.1410144060794595E+01    1.2868690022378885E+01
C    1.7528420839364749E+00    8.9468221483317851E+00    1.2728255984767790E+01
C    3.1532970213748848E+00    6.9825832431988255E+00    1.3264511414921500E+01
C    5.5238285877094100E+00    7.2895542248036040E+00    1.2627504577267585E+01
C    3.7683453787769103E+00    8.6548140489196967E+00    1.1550911680081597E+01
C    3.3738582963163806E+00    1.0048758969174097E+01    1.1426802368946802E+01
C    4.5588318533225642E+00    6.6371922514271358E+00    1.3403933241697194E+01
C    1.1614487773163604E+00    8.8915119726335980E+00    1.3995728614975475E+01
C    1.2902287104493668E+00    1.1354032297991703E+01    1.4187474868722648E+01
C    1.9232708013792252E+00    1.2365678511578954E+01    1.5018327086561934E+01
C    6.0445242240303907E+00    7.3505454573053601E+00    1.6717713387905860E+01
C    1.5646846350461654E+00    7.8623154513205966E+00    1.4940654098123888E+01
C    9.2772590834322599E-01    1.0119510717386833E+01    1.4739827646293435E+01
C    2.5409380425988868E+00    6.9252364936756159E+00    1.4582149663483488E+01
C    1.1861779377070949E+00    9.8496914657939030E+00    1.6145168486403307E+01
C    1.5825383624169200E+00    8.4555836249190754E+00    1.6267316690212926E+01
C    3.5856174946835186E+00    7.1148736718416652E+00    1.6815747535661234E+01
C    3.2063727535833544E+00    9.1016875298742796E+00    1.8013974721674806E+01
C    2.1705028972497864E+00    1.2106904551661318E+01    1.6371780105587302E+01
C    2.8254096745824810E+00    1.0442541870274422E+01    1.7897604122221061E+01
C    1.7954195585743415E+00    1.0824309485471714E+01    1.6945418444720154E+01
C    4.8452348160250827E+00    7.5232070367073902E+00    1.7418521774208422E+01
C    2.5750771076519143E+00    8.0911532242745672E+00    1.7182700541718894E+01
C    4.6100818371679191E+00    8.7518359069829561E+00    1.8160936550285943E+01
C    3.8342153676322339E+00    1.1488392055629568E+01    1.7916239266135609E+01
C    8.8308771087084992E+00    8.0798736778559643E+00    2.1161455660143410E+01
C    9.5461674784838664E+00    6.8767062874256908E+00    2.1090977052047535E+01
C    7.4420637515945796E+00    8.0202815850068934E+00    2.1287245325190838E+01
C    1.1116520083996065E+01    4.2879146258065548E+00    2.0349144680427258E+01
C    6.4274995992805239E+00    9.0268640236613624E+00    2.1595649083741794E+01
C    1.1581361426175016E+01    3.1332585640851898E+00    1.9724883547651057E+01
C    8.8669502998497176E+00    5.6316334143024305E+00    2.1094508926474628E+01
C    1.1793662968132134E+01    5.5276893262544631E+00    2.0198553449368767E+01
C    6.5255439465080780E+00    8.9393927037949741E+00    8.0003000142925931E+00
C    8.9288490076358737E+00    7.9949042229730178E+00    8.4270637058476972E+00
C    7.5404605443609336E+00    7.9333224762500461E+00    8.3042140289888593E+00
C    9.6447701355383852E+00    6.7921973642269524E+00    8.4874687967268212E+00
C    8.9678086918619346E+00    5.5459393070804168E+00    8.4786076340035752E+00
C    1.1685394898883832E+01    3.0498724715301653E+00    9.8325002866385880E+00
C    1.2831455196158654E+01    3.1411833848193882E+00    1.0610366235002999E+01
C    1.1894176328740516E+01    5.4457358451170883E+00    9.3654327317821426E+00
C    1.3032879594607675E+01    5.5451192123053445E+00    1.0174708464861558E+01
C    1.1219606882199299E+01    4.2051639212640373E+00    9.2106246550127988E+00
C    1.8154218079470692E+01    2.1571366300228445E+00    1.2022457565669216E+01
C    1.4716007932537297E+01    4.1039472711146381E+00    1.1567941514116248E+01
C    1.9119251271587903E+01    3.2378231728195805E+00    1.1906563145656671E+01
C    1.6969530936817293E+01    4.1288827531680932E+00    1.2013543599391431E+01
C    1.3624387911146771E+01    2.1097847849680251E+00    1.1238388953488590E+01
C    1.8379893346170707E+01    4.4707242873800643E+00    1.1898603952413906E+01
C    2.0507896077901684E+01    3.2387015130257493E+00    1.1808527344885110E+01
C    1.9041487064374003E+01    5.6906704080228279E+00    1.1784790722144153E+01
C    1.7075657123105472E+01    1.8294561333625423E-01    1.1570836725685146E+01
C    7.3544060100371160E+00    8.2990987471213673E-01    1.3112246003969670E+01
C    1.4805265440362424E+01    1.4852735498571684E-01    1.1235332794254893E+01
C    7.2615723312627463E+00    1.8339889135791474E+00    1.4159686612165181E+01
C    6.1614406765818606E+00    2.7275567813803430E+00    1.3831446063983648E+01
C    1.3510297480788132E+01    4.3900872085244265E+00    1.0799790760154140E+01
C   -4.6369249446549938E+00    1.9633334061664915E+01    1.3433606743824523E+01
C    1.5482800741619704E+01    1.9827997713200036E+00    1.5404964653610964E+01
C    1.5518831552475431E+01    1.9484403310821559E+00    1.4184956946322972E+01
C    6.6447210800689138E+00    1.9997819864404924E+00    1.6545045166970368E+01
C   -4.3909340451887502E+00    1.9261551622315494E+01    1.4816711154559506E+01
C   -4.4799616102014648E+00    2.0228226242012539E+01    1.5825296906353387E+01
C    7.4990908117243329E+00    1.4760974091676182E+00    1.5491346606059158E+01
C    5.5845970132391818E+00    2.8592589814477214E+00    1.6229429169609929E+01
C    5.3373331275595870E+00    3.2259705497006870E+00    1.4846215369389627E+01
C    1.4619228952748193E+01    4.1856606500314930E+00    1.7998936783774280E+01
C    1.8949060567900673E+01    5.7826437832234463E+00    1.7778522243295765E+01
C    1.8067753948616691E+01    2.2446977906245111E+00    1.7580976913722608E+01
C    1.3529293552584823E+01    2.1909008048048313E+00    1.8331283726620537E+01
C    1.2932563857909843E+01    5.6268758750592136E+00    1.9389157057789895E+01
C    1.6877657437962306E+01    4.2142313550740944E+00    1.7573516826779702E+01
C    1.2729577682938739E+01    3.2237362008897370E+00    1.8949049823503874E+01
C    2.0420144933058989E+01    3.3337380025379737E+00    1.7768632812665178E+01
C    1.3408755518063352E+01    4.4725853381614051E+00    1.8760455779304220E+01
C    1.9030698923715104E+01    3.3288896110033335E+00    1.7682422731729243E+01
C    1.8288487240955032E+01    4.5604738102502074E+00    1.7682029049769376E+01
C    1.6992322195852459E+01    2.7092677283064326E-01    1.8041300675635206E+01
C    1.4719617621793711E+01    2.3457841138493987E-01    1.8366346621861180E+01
C    6.4546680504233098E+00    9.4603024327077134E-01    1.7528361507451798E+01
C   -5.1250123253512010E+00    1.9900394126775030E+01    1.7085618438591496E+01
C    4.5745140124965458E+00    1.7349648668049966E+01    2.0332342522580941E+01
C    3.3188596025690815E+00    1.4731399362832962E+01    2.1306713978821715E+01
C    4.7364789397728817E+00    1.4757644712922289E+01    2.1267792177895277E+01
C    5.2244152534831558E+00    1.0989405489440450E+01    2.1665088049565970E+01
C    4.7835469301193170E+00    1.2362563014074995E+01    2.1436741498429051E+01
C    3.1631916891108420E+00    1.7325464197788332E+01    2.0492754190022787E+01
C    5.4740174572896487E+00    1.3567886259285801E+01    2.1309702792958706E+01
C    2.3463738083635040E+00    1.8244711946568074E+01    1.9837696083882978E+01
C    5.1819379478279561E+00    1.8287008533067159E+01    1.9489443855626607E+01
C    5.3181540600375063E+00    1.0896585031810764E+01    7.9233559300530194E+00
C    5.5636906537397506E+00    1.3467727864057387E+01    8.3195875151840557E+00
C    4.8742527696855138E+00    1.2264537117733441E+01    8.1693422345175311E+00
C    3.4081396931709285E+00    1.4630675443852834E+01    8.3147988621649453E+00
C    4.8255530152148181E+00    1.4656916179729304E+01    8.3642975252758784E+00
C    2.4339724160453438E+00    1.8153902812712285E+01    9.7709610061643861E+00
C    3.2511741526261808E+00    1.7229229907548007E+01    9.1238952159708298E+00
C    4.6620722195615043E+00    1.7254030379353711E+01    9.2886074685766111E+00
C    5.2680262231529174E+00    1.8196932215663395E+01    1.0126185153745569E+01
C    3.0365205196446308E+00    1.9107205057221226E+01    1.0582889847362074E+01
C    4.4563414352821002E+00    1.9129203281347554E+01    1.0776148382276430E+01
C    6.3815239163531974E+00    1.1720266980158740E+01    1.2410017837454319E+01
C    6.1305794264124636E+00    9.3653567167403047E+00    1.1696901958670448E+01
C    5.7496728721452488E+00    1.0707771326132875E+01    1.1579159352396866E+01
C    7.1575272768577216E+00    8.9829300603347129E+00    1.2653246953438590E+01
C    6.7828177188759140E+00    7.7005732991054874E+00    1.3228189717740227E+01
C    5.3680433181839549E+00    1.2694469065144800E+01    1.2783316282120412E+01
C    7.7646733919262463E+00    9.9574485832531749E+00    1.3454353968097877E+01
C    7.3692685785014449E+00    1.1351304339645834E+01    1.3330674653103184E+01
C    4.3450770375425085E+00    1.1056375825664269E+01    1.1439040955531819E+01
C    2.9108192206557142E+00    1.2456955606036830E+01    1.2884542306207852E+01
C    4.1092650728726952E+00    1.2284856744575922E+01    1.2182034942728572E+01
C    4.1363294950069358E+00    1.3442998744322812E+01    1.4791945753643246E+01
C    5.3813390182438967E+00    1.3262544079899341E+01    1.4063313106641711E+01
C    7.3831789385054822E+00    1.1942092854053856E+01    1.4659176672488591E+01
C    2.9246673844827988E+00    1.3046763972072213E+01    1.4213507691846912E+01
C    7.6628062866348685E+00    8.4531503246072948E+00    1.5413204375599868E+01
C    7.7867013466508839E+00    1.0913842715413500E+01    1.5604061233363176E+01
C    7.0541891335774825E+00    8.3973658901917982E+00    1.6733284935803237E+01
C    6.4083417795583903E+00    1.2879841651507633E+01    1.5018876171713767E+01
C    8.0221829574360992E+00    9.6872909963513330E+00    1.4859575652456716E+01
C    4.3940619918585009E+00    1.3173540743975369E+01    1.6197728019948482E+01
C    7.0300984455695268E+00    7.4416398045597560E+00    1.4582092012018176E+01
C    6.1881455424648157E+00    1.1835137778588003E+01    1.7248677204912482E+01
C    4.3711590529552851E+00    1.9217735095004198E+01    1.8835735550543252E+01
C    3.4298949742121554E+00    1.2518421126539657E+01    1.6972703418938188E+01
C    2.9501251200024186E+00    1.9196021808360065E+01    1.9024774585526917E+01
C    5.7990421520091839E+00    1.2825288552871491E+01    1.6338102748592323E+01
C    7.2017136353860485E+00    1.0861123708989465E+01    1.6874754110684822E+01
C    5.1867986730238478E+00    1.1153596168831552E+01    1.8052939682273642E+01
C    5.5822701495515483E+00    9.7595731048348036E+00    1.8177589348453314E+01
C    6.8284688004992899E+00    9.5785390319932695E+00    1.7450346332693787E+01
H    6.9622372627357922E+00    4.6122561064427883E+00    2.0953886573572326E+01
H   -6.4106857165998588E-01    9.0782536150749724E+00    1.9547614906471917E+01
H    1.9896054070164244E+00    4.7831489372970015E+00    1.9413466036870741E+01
H   -5.4440749032421076E-01    8.9742212357961595E+00    9.9906918485412497E+00
H    2.0815394584210627E+00    4.6767570279351638E+00    1.0128471083642923E+01
H    7.0647849238304570E+00    4.5221492772185989E+00    8.6139774575735739E+00
H    1.5304216615135167E+00    1.3513165728237118E+01    2.1231208790677186E+01
H    1.6196545317320254E+00    1.3411420965881533E+01    8.3633742364848427E+00
H    9.3557913052739572E+00    9.0355227674275369E+00    2.1184099319064412E+01
H    1.1066078628259227E+01    2.1817915160218790E+00    1.9856718111810057E+01
H    9.4531364474502357E+00    8.9509580968974021E+00    8.4078544959510761E+00
H    1.1171971689024376E+01    2.0979780169652904E+00    9.6983065201029088E+00
H    1.3546081435032303E+01    6.5001410573481468E+00    1.0289692493196172E+01
H    2.1071419328151169E+01    2.3059032202952188E+00    1.1785231337359411E+01
H    1.8489523482191348E+01    6.6297477801438340E+00    1.1742040820961758E+01
H    1.8395857957099867E+01    6.7210814134222669E+00    1.7816236005397432E+01
H    2.0986086116126742E+01    2.4022618847985671E+00    1.7795901661652753E+01
H    1.3450065489328987E+01    6.5802043434054927E+00    1.9278772233652923E+01
H    6.5640206464687649E+00    1.3591660064621710E+01    2.1296460000426343E+01
H    1.2654222979155929E+00    1.8227828936852692E+01    1.9975898147310769E+01
H    6.2654246647426435E+00    1.8305412829404936E+01    1.9370182236512424E+01
H    6.6535702739944398E+00    1.3491405638202213E+01    8.3423056423252966E+00
H    6.3513072523350482E+00    1.8216464860808944E+01    1.0246501039651294E+01
H    1.3534676552771341E+00    1.8139511221623145E+01    9.6282483798074008E+00
N    4.2348619579782731E+00    6.3157442672969157E+00    2.0981903199648983E+01
N    2.9281544512803444E+00    8.2395926371326471E+00    2.1543592945330683E+01
N    5.2740384053759808E+00    8.3046225633084951E+00    2.1746054883060626E+01
N    5.3736740318301406E+00    8.2169836412875146E+00    7.8459099212640009E+00
N    3.0277572144266851E+00    8.1393431539931900E+00    8.0053678266287651E+00
N    4.3344510293895793E+00    6.2172258197960284E+00    8.5764379932096748E+00
N    1.7871663447027728E+00    1.0303735453760185E+01    2.1148428339479359E+01
N    4.0615694227955323E+00    1.0284145475570815E+01    2.1815956254298694E+01
N    4.1577554990258037E+00    1.0192048256057266E+01    7.7448774990635965E+00
N    1.8815183259692319E+00    1.0200782958545473E+01    8.4079544805934443E+00
N    1.6955846846894488E+01    2.7792929691973098E+00    1.2243736510833354E+01
N    1.4631164610929988E+01    2.7685828713982517E+00    1.1889854828558020E+01
N    1.5854482471772199E+01    7.2414557613185537E-01    1.1903067163480646E+01
N    1.5848610172665071E+01    4.8196852745066785E+00    1.1725546163944408E+01
N    1.8239150141102801E+01    8.4419119583887392E-01    1.1734107210547482E+01
N    1.3647356778479443E+01    7.8775538324287042E-01    1.0989569443310399E+01
N    1.4537612352372145E+01    2.8488382524104154E+00    1.7678649678624215E+01
N    1.5771935426245342E+01    8.1028153241796363E-01    1.7705953750311824E+01
N    1.6867849544264310E+01    2.8629526460878445E+00    1.7357528875025753E+01
N    1.3556679061490968E+01    8.7175511631074798E-01    1.8594875613547195E+01
N    1.8155106843596283E+01    9.3361662837764869E-01    1.7876733174871600E+01
N    1.5752004750789869E+01    4.9033462735971849E+00    1.7848381068185986E+01
N    6.4295548745232152E+00    1.0378143933019521E+01    2.1611508392614564E+01
N    6.5243222661607705E+00    1.0290152036051737E+01    7.9877188479853194E+00
S   -1.7580994915291952E+00    7.2428279184077304E+00    1.1888452686483417E+01
S   -9.7829360359010020E-02    4.4583831739903017E+00    1.1945627861578528E+01
S   -1.8535572085822616E+00    7.3396875152263732E+00    1.7652130231812947E+01
S   -1.8937006538654130E-01    4.5582977344276498E+00    1.7599754150049399E+01
S    9.7131274526390783E+00    4.1184742248390407E+00    2.1393525835530117E+01
S    1.1311605401823769E+01    6.9512175022244298E+00    2.1133301425293343E+01
S    9.8159155159104117E+00    4.0368864428885134E+00    8.1672911799793404E+00
S    1.1408932289091755E+01    6.8705515257918419E+00    8.4362394082891079E+00
S    2.3827216227780394E+00    1.6195156255421303E+01    2.1591390384757144E+01
S    5.6176505361644855E+00    1.6289447563681819E+01    2.1290111099592046E+01
S    2.4720146068541347E+00    1.6094010658177023E+01    8.0290781781536253E+00
S    5.7095844211936324E+00    1.6186333114215358E+01    8.3449591245916768E+00
H    4.1235847332727156E+00    8.6340622466898918E+00    3.3898850284403910E+00
H    3.8620600177774747E+00    8.8154145521084271E+00    2.6174635819879775E+01
     &END COORD
     &KIND H
       BASIS_SET DZVP-MOLOPT-GTH
       POTENTIAL GTH-PBE-q1
       &POTENTIAL
 1
  0.2000000000000000E+00 2 -0.4178900440000000E+01  0.7244633100000000E+00
 0
         # Potential name:  GTH-PBE-Q1  for symbol:  H
         # Potential read from the potential filename: POTENTIAL
       &END POTENTIAL
     &END KIND
     &KIND C
       BASIS_SET DZVP-MOLOPT-GTH
       POTENTIAL GTH-PBE-q4
       &POTENTIAL
 2 2
  0.3384712400000000E+00 2 -0.8803673979999999E+01  0.1339210850000000E+01
 2
  0.3025757500000000E+00 1  0.9622486650000001E+01
  0.2915069400000000E+00 0
         # Potential name:  GTH-PBE-Q4  for symbol:  C
         # Potential read from the potential filename: POTENTIAL
       &END POTENTIAL
     &END KIND
     &KIND N
       BASIS_SET DZVP-MOLOPT-GTH
       POTENTIAL GTH-PBE-q5
       &POTENTIAL
 2 3
  0.2837905100000000E+00 2 -0.1241522559000000E+02  0.1868095920000000E+01
 2
  0.2554050000000000E+00 1  0.1363026257000000E+02
  0.2454945300000000E+00 0
         # Potential name:  GTH-PBE-Q5  for symbol:  N
         # Potential read from the potential filename: POTENTIAL
       &END POTENTIAL
     &END KIND
     &KIND B
       BASIS_SET DZVP-MOLOPT-SR-GTH
       POTENTIAL GTH-PBE-q3
       &POTENTIAL
 2 1
  0.4189914500000000E+00 2 -0.5859461710000000E+01  0.9037564300000001E+00
 2
  0.3713204600000000E+00 1  0.6297280180000000E+01
  0.3645630800000000E+00 0
         # Potential name:  GTH-PBE-Q3  for symbol:  B
         # Potential read from the potential filename: POTENTIAL
       &END POTENTIAL
     &END KIND
     &KIND S
       BASIS_SET DZVP-MOLOPT-GTH
       POTENTIAL GTH-PBE-q6
       &POTENTIAL
 2 4
  0.4200000000000000E+00 1 -0.5986260380000000E+01
 2
  0.3648203500000000E+00 2  0.1314354448000000E+02 -0.4241830450000000E+01
  0.5476179570000000E+01
  0.4094804800000000E+00 1  0.3700890570000000E+01
         # Potential name:  GTH-PBE-Q6  for symbol:  S
         # Potential read from the potential filename: POTENTIAL
       &END POTENTIAL
     &END KIND
     &TOPOLOGY
       COORD_FILE_NAME cof.xyz
       COORD_FILE_FORMAT  XYZ
       NUMBER_OF_ATOMS  288
       MULTIPLE_UNIT_CELL  1 1 1
     &END TOPOLOGY
   &END SUBSYS
 &END FORCE_EVAL
