 # Version information for this restart file 
 # current date 2021-06-24 16:46:29.820
 # current working dir /panfs/panfs.cbls.ccr.buffalo.edu/scratch/grp-cyberwksp21/ub2053/cof/opt-cell
 # Program compiled at                              Thu Apr 22 21:44:59 EDT 2021
 # Program compiled on                cpn-k07-07-02.compute.cbls.ccr.buffalo.edu
 # Program compiled for                                                    local
 # Source code revision number                                       git:36754bb
 &GLOBAL
   EXTENDED_FFT_LENGTHS  T
   PRINT_LEVEL  MEDIUM
   PROJECT_NAME COF
   RUN_TYPE  CELL_OPT
 &END GLOBAL
 &MOTION
   &GEO_OPT
     OPTIMIZER  BFGS
     MAX_ITER  550
     MAX_DR     2.0000000000000000E-03
     MAX_FORCE     2.9999999999999997E-04
     RMS_DR     2.0000000000000000E-03
     RMS_FORCE     2.9999999999999997E-04
     &BFGS
     &END BFGS
   &END GEO_OPT
   &CELL_OPT
     OPTIMIZER  BFGS
     MAX_ITER  550
     MAX_DR     2.0000000000000000E-03
     MAX_FORCE     2.9999999999999997E-04
     RMS_DR     2.0000000000000000E-03
     RMS_FORCE     2.9999999999999997E-04
     STEP_START_VAL  7
     TYPE  DIRECT_CELL_OPT
     EXTERNAL_PRESSURE     1.0000000000000000E+02    0.0000000000000000E+00    0.0000000000000000E+00    0.0000000000000000E+00 \
         1.0000000000000000E+02    0.0000000000000000E+00    0.0000000000000000E+00    0.0000000000000000E+00    1.0000000000000000E+02
     KEEP_SYMMETRY  F
     PRESSURE_TOLERANCE     1.0000000000000000E+02
   &END CELL_OPT
   &PRINT
     &TRAJECTORY  SILENT
       &EACH
         GEO_OPT  1
       &END EACH
     &END TRAJECTORY
     &FORCES  ON
     &END FORCES
     &RESTART  SILENT
       BACKUP_COPIES  1
       &EACH
         GEO_OPT  1
       &END EACH
     &END RESTART
   &END PRINT
 &END MOTION
 &FORCE_EVAL
   METHOD  QS
   STRESS_TENSOR  ANALYTICAL
   &DFT
     BASIS_SET_FILE_NAME BASIS_MOLOPT
     POTENTIAL_FILE_NAME POTENTIAL
     MULTIPLICITY  1
     &SCF
       MAX_SCF  50
       EPS_SCF     9.9999999999999995E-07
       SCF_GUESS  ATOMIC
       ADDED_MOS  50
       &DIAGONALIZATION  T
         ALGORITHM  DAVIDSON
       &END DIAGONALIZATION
       &SMEAR  T
         METHOD  FERMI_DIRAC
       &END SMEAR
       &MIXING  T
         METHOD  BROYDEN_MIXING
         ALPHA     2.9999999999999999E-01
         NBUFFER  8
       &END MIXING
     &END SCF
     &QS
       EPS_DEFAULT     1.0000000000000000E-14
       METHOD  GPW
     &END QS
     &MGRID
       NGRIDS  6
       CUTOFF     1.0000000000000000E+03
       REL_CUTOFF     6.0000000000000000E+01
     &END MGRID
     &XC
       DENSITY_CUTOFF     1.0000000000000000E-10
       GRADIENT_CUTOFF     1.0000000000000000E-10
       TAU_CUTOFF     1.0000000000000000E-10
       &XC_GRID
         XC_DERIV  SPLINE2_SMOOTH
       &END XC_GRID
       &XC_FUNCTIONAL  NO_SHORTCUT
         &PBE  T
         &END PBE
       &END XC_FUNCTIONAL
       &VDW_POTENTIAL
         POTENTIAL_TYPE  PAIR_POTENTIAL
         &PAIR_POTENTIAL
           TYPE  DFTD3
           PARAMETER_FILE_NAME dftd3.dat
           REFERENCE_FUNCTIONAL PBE
         &END PAIR_POTENTIAL
       &END VDW_POTENTIAL
     &END XC
     &POISSON
       POISSON_SOLVER  PERIODIC
       PERIODIC  XYZ
     &END POISSON
     &PRINT
       &MO_CUBES  SILENT
         WRITE_CUBE  F
         NLUMO  3
         NHOMO  3
       &END MO_CUBES
       &PDOS  SILENT
         COMPONENTS  T
         APPEND  T
         NLUMO  -1
       &END PDOS
       &MULLIKEN  OFF
       &END MULLIKEN
       &HIRSHFELD  OFF
       &END HIRSHFELD
     &END PRINT
   &END DFT
   &SUBSYS
     &CELL
       A     2.3032035737458163E+01    0.0000000000000000E+00    0.0000000000000000E+00
       B    -1.2316985097310312E+01    2.0135955579324790E+01    0.0000000000000000E+00
       C    -3.6284612313500036E-01    2.6301346892512290E-01    3.8846455924649483E+01
       PERIODIC  XYZ
       MULTIPLE_UNIT_CELL  1 1 1
     &END CELL
     &COORD
B    4.0306163947279297E+00    8.8871960575495397E+00    2.2352011409364007E+01
B    4.1395489910680112E+00    8.7928177249726520E+00    7.2176019219626326E+00
B    1.5716513465372964E+01    2.0330732602660024E+00    1.2649712513255773E+01
B    1.5637285124882339E+01    2.1085186947805172E+00    1.6946511893582176E+01
C    3.0697313516835592E+00    6.9949828412755668E+00    2.0997594663703879E+01
C    1.8499792175389072E+00    6.7858844383594166E+00    2.0239166542930025E+01
C    6.7614081560853556E+00    6.7632031275297875E+00    2.1154562475814821E+01
C    5.3410254222934297E+00    7.0114631789648749E+00    2.1329882580842344E+01
C   -6.9253112949573786E-02    8.1504231754581422E+00    1.9534779863591499E+01
C    1.0967297136296787E+00    8.0096706139718581E+00    2.0286380648327782E+01
C    7.4750709014014314E+00    5.5773057888177391E+00    2.1022787516627716E+01
C    1.8613417211571512E+00    8.9602023163974067E+00    2.1077953934823569E+01
C    1.4225238749188140E+00    5.7166270419655412E+00    1.9453891636703734E+01
C    4.0989922547354753E+00    8.6511393468231681E+00    4.4450486816865320E+00
C    3.9253523972025874E+00    8.7932027879401993E+00    2.3908016045680007E+01
C    4.0766567567062895E+00    8.6806839478011426E+00    5.6603262257380962E+00
C    3.8891901128014812E+00    8.7998139166429912E+00    2.5123355771248246E+01
C    5.4412178112179328E+00    6.9206207015158752E+00    8.2533771014691126E+00
C    1.1922505038886384E+00    7.9049044110992623E+00    9.2598299864197529E+00
C    1.9440892241000267E+00    6.6812027449828024E+00    9.3066240143447576E+00
C    1.5138184338692697E+00    5.6117198859742921E+00    1.0090225940416365E+01
C    2.5458493277769473E-02    8.0466588253552356E+00    1.0009354670674046E+01
C   -3.8203906487536082E-01    6.9840731996086616E+00    1.0821452786984993E+01
C    3.5499851605253141E-01    5.7686420254878223E+00    1.0855823680912653E+01
C    3.1671977236553364E+00    6.8937736149851627E+00    8.5546703277323051E+00
C    1.9580649241359436E+00    8.8572479121243486E+00    8.4738593113422258E+00
C    7.5765384195543914E+00    5.4887429486391408E+00    8.5549213236751278E+00
C    6.8611981014941215E+00    6.6741137067086180E+00    8.4315215334790494E+00
C   -2.5835040507627496E+00    5.6913264598738618E+00    1.1794280198609881E+01
C   -1.0645014878395511E+01    1.9944401402989705E+01    1.2617016619109089E+01
C    4.1954754948050619E+00    1.1695222419863206E-01    1.1320616792638024E+01
C    3.4864278428097424E+00    1.2442556962635674E+00    1.1750045768869176E+01
C   -1.8539395850752527E+00    4.4722890182269914E+00    1.1810665254289557E+01
C   -1.1292403811687008E+01    1.9617430235824106E+01    1.3875846700146417E+01
C    4.1882709335845707E+00    2.3422457413100171E+00    1.2392624773644547E+01
C   -1.0098782724101163E+01    1.7721619953644762E+01    1.3155953683987072E+01
C   -6.3458693713799672E+00    1.8807999317521425E+01    1.1859131740087800E+01
C    2.1075826456824607E+00    2.0876489225925892E+00    1.3458810818490432E+01
C    3.3350218039523218E+00    2.8642521329069215E+00    1.3447467274621905E+01
C   -7.5733699969660098E+00    1.8032303706663281E+01    1.1869416792082280E+01
C   -8.6703586452602703E+00    1.8925474196193903E+01    1.1539823629187822E+01
C   -9.9080970206812804E+00    1.8773686567472915E+01    1.2172517260446369E+01
C   -7.7546371255544528E+00    1.7018393771686590E+01    1.2815133487651041E+01
C    2.2015736883414374E+00    1.0863098800416162E+00    1.2411121365365902E+01
C    6.3085573557087873E+00    1.1013474163236459E+00    1.2139525592593596E+01
C   -6.6842534909133313E+00    2.0179991572049911E+01    1.1521823407247199E+01
C    5.5727539758689861E+00    2.2728525744642258E+00    1.2583240440068467E+01
C   -5.3426005064226612E+00    1.8542914231045188E+01    1.2795974821868342E+01
C   -9.0417239215694973E+00    1.6860492447359309E+01    1.3471517206778534E+01
C    4.2969578869991070E+00    2.6983191928601835E+00    1.6888946273385272E+01
C   -4.9443942683319886E+00    1.7941645722272284E+01    1.5031256159787940E+01
C    3.5743978618463657E+00    6.5544382898467415E+00    1.5537712749701209E+01
C    3.2557856813169117E+00    2.9712640755661508E+00    1.5912589413613201E+01
C   -1.0717472255855661E+01    1.7885086354325594E+01    1.5540589475611627E+01
C   -1.0807689220671081E+01    1.8889253084403808E+01    1.6587773341027830E+01
C    2.0730912409619018E+00    2.2243420718505340E+00    1.5921724048044316E+01
C    1.4849107382165134E+00    1.7757738485035570E+00    1.4671487482482497E+01
C   -5.5306643595175364E+00    1.7491596479819538E+01    1.3780842079655629E+01
C    4.8196345906069800E+00    6.3802683466593937E+00    1.4809962862818976E+01
C   -9.6178825498804237E+00    1.6991885276673340E+01    1.5868307442665818E+01
C   -1.1135580898757780E+01    2.0211248485867351E+01    1.6267000656618194E+01
C   -1.0954166421967246E+01    1.8243275672004764E+01    1.4209321318435917E+01
C    6.0308907681962127E+00    6.7698112104883235E+00    1.5388450706112369E+01
C    9.3451322402955594E-01    4.4720705925116894E-01    1.4884244069345081E+01
C    1.8851730741303572E+00    1.1737328748414464E+00    1.6907125349007387E+01
C   -8.7958993763769122E+00    1.6488496857040072E+01    1.4854191752055868E+01
C   -6.7133100894338034E+00    1.6743453368637134E+01    1.3790404068757416E+01
C   -7.3569320592126681E+00    1.6416132210823189E+01    1.5051157542299253E+01
C   -6.7924284737471696E+00    1.6850081189962218E+01    1.6254941390398287E+01
C   -5.5639078571279894E+00    1.7626452930771038E+01    1.6244557759443548E+01
C    3.9001770021601438E+00    3.2916776083032624E+00    1.4651708013390751E+01
C   -7.6527686169895714E+00    1.9601045318070607E+01    1.8378612575492348E+01
C    2.8880096871219951E+00    9.0902523988986839E-01    1.7845001637578591E+01
C   -5.6586621660994414E+00    1.8630478027673472E+01    1.7290188249627345E+01
C   -7.6460113616723042E+00    1.7375357059276041E+01    1.7306725546790098E+01
C   -4.7358270895871801E-01    7.0876269348109400E+00    1.8721058133656072E+01
C   -2.6770641839636422E+00    5.7862214979329361E+00    1.7763818141583858E+01
C   -1.9448787612294165E+00    4.5689660772862073E+00    1.7751203502719857E+01
C   -9.0905754132920489E+00    1.9673221161995269E+01    1.8181222076528677E+01
C    2.6438047584224900E-01    5.8725864843789202E+00    1.8687373328353353E+01
C    4.1159088572618767E+00    1.6856548116126282E+00    1.7836315947835125E+01
C    5.2140001194483014E+00    7.9320093847356543E-01    1.8165957531090747E+01
C   -6.9450862558236119E+00    1.8475017093837721E+01    1.7946373724247479E+01
C   -9.7653066415379595E+00    1.8616210928011224E+01    1.7562105047942296E+01
C   -9.0300503513353210E+00    1.7444696628266346E+01    1.7117536779340607E+01
C    2.6243699017826621E+00    1.3525612106178404E+01    2.1263159138887886E+01
C    2.9246443034514988E+00    1.0957992793861150E+01    2.1482534648916292E+01
C    3.3490536147367393E+00    1.2342556758613764E+01    2.1357578888630481E+01
C    3.0178948261143423E+00    1.0860111754666894E+01    8.0850713046774292E+00
C    3.4388588529474875E+00    1.2242835819244693E+01    8.2376666044360878E+00
C    2.7130550844642003E+00    1.3424445478829774E+01    8.3428862255143681E+00
C    2.7734639505072152E+00    7.9817051995047086E+00    1.2362102153133229E+01
C    2.1334490635170198E+00    1.0233080723475323E+01    1.2159298906290321E+01
C    5.1243685738434781E+00    8.3238542746379931E+00    1.1685841792013724E+01
C    1.9052187074518807E+00    1.1413181690134889E+01    1.2872122200704567E+01
C    1.7595169084875915E+00    8.9524085527560491E+00    1.2733524400372730E+01
C    3.1577821003254867E+00    6.9887552054684630E+00    1.3266777077188646E+01
C    5.5269869972484011E+00    7.2949262301013578E+00    1.2629263428486091E+01
C    3.7732251118866329E+00    8.6606919192230603E+00    1.1557446818703511E+01
C    3.3785583786196329E+00    1.0052386099438293E+01    1.1434471025700178E+01
C    4.5624624557919526E+00    6.6438669463998581E+00    1.3405260116915013E+01
C    1.1668292651036778E+00    8.8963618940650946E+00    1.3998706763718253E+01
C    1.2954304164298560E+00    1.1357025406294587E+01    1.4190076208184799E+01
C    1.9281248287320607E+00    1.2367663687431767E+01    1.5019979520834898E+01
C    6.0467276148960982E+00    7.3558843374853771E+00    1.6717906119823091E+01
C    1.5696834077565101E+00    7.8672594753636034E+00    1.4942382663281176E+01
C    9.3318033288410396E-01    1.0123556227832871E+01    1.4742208102198557E+01
C    2.5450318591212184E+00    6.9308280944827363E+00    1.4583576894674730E+01
C    1.1924246647335366E+00    9.8533170517948445E+00    1.6146034990244903E+01
C    1.5887776903860382E+00    8.4604638241216819E+00    1.6267973628390653E+01
C    3.5904567157246454E+00    7.1213558537034274E+00    1.6815571165105730E+01
C    3.2127055505050510E+00    9.1070022842756071E+00    1.8010479190996396E+01
C    2.1753556653048598E+00    1.2108670690517668E+01    1.6372139131596526E+01
C    2.8309071119989953E+00    1.0445603317141547E+01    1.7895071929069548E+01
C    1.8015280962747644E+00    1.0826940670758498E+01    1.6944802486970847E+01
C    4.8489260194250274E+00    7.5290964461943153E+00    1.7417821891152432E+01
C    2.5812242996346453E+00    8.0971158630044684E+00    1.7181844469902259E+01
C    4.6139931912994818E+00    8.7570477959714896E+00    1.8157955621634059E+01
C    3.8378145291934134E+00    1.1490113214885332E+01    1.7914684907785606E+01
C    8.8316832569220978E+00    8.0832091677279703E+00    2.1163175132330277E+01
C    9.5492248880580828E+00    6.8806533701316521E+00    2.1092046908002388E+01
C    7.4427254922486012E+00    8.0244912367662700E+00    2.1287289923379102E+01
C    1.1119417941011177E+01    4.2898501802336462E+00    2.0350670616161121E+01
C    6.4290338753612053E+00    9.0305581376443556E+00    2.1597796619324019E+01
C    1.1586781674415159E+01    3.1354176807436356E+00    1.9724677796942125E+01
C    8.8697780986768553E+00    5.6342682864555025E+00    2.1095080258769332E+01
C    1.1797844940798880E+01    5.5307979739051563E+00    2.0201209354504019E+01
C    6.5271040857373546E+00    8.9431993267499639E+00    8.0016224957330717E+00
C    8.9297301355514076E+00    7.9980507040551148E+00    8.4293161296618209E+00
C    7.5410003839713298E+00    7.9373251277359653E+00    8.3078985868742752E+00
C    9.6488201879378597E+00    6.7962073208672402E+00    8.4887040021993574E+00
C    8.9708994879606667E+00    5.5489881765744489E+00    8.4796117397625768E+00
C    1.1690028459119464E+01    3.0518990624885030E+00    9.8359018290491740E+00
C    1.2838008321794414E+01    3.1413291803988361E+00    1.0611629513871996E+01
C    1.1899631377603580E+01    5.4482349038057922E+00    9.3642155776730878E+00
C    1.3039453045820501E+01    5.5442525491694497E+00    1.0174155227995799E+01
C    1.1222921754109690E+01    4.2069950614336316E+00    9.2113560596848068E+00
C    1.8160057663452399E+01    2.1569655969545902E+00    1.2024966330819916E+01
C    1.4722547480725254E+01    4.1038595479518447E+00    1.1568875392061194E+01
C    1.9124893378873786E+01    3.2383989719938788E+00    1.1909964906401340E+01
C    1.6974561683575729E+01    4.1301080556849943E+00    1.2015127336632007E+01
C    1.3629492560770526E+01    2.1098045706737989E+00    1.1241134639626226E+01
C    1.8385728597580023E+01    4.4712738587306324E+00    1.1901329973138262E+01
C    2.0514156815959353E+01    3.2406870312472891E+00    1.1812454820806188E+01
C    1.9048876117952016E+01    5.6910517376186585E+00    1.1788554150642691E+01
C    1.7081791603583362E+01    1.8371371199579239E-01    1.1572718672789689E+01
C    7.3515591829079741E+00    8.2787365584884176E-01    1.3114143295112978E+01
C    1.4809915328380699E+01    1.4960457985279227E-01    1.1237165013205923E+01
C    7.2609428794436202E+00    1.8316985972316246E+00    1.4161465403090661E+01
C    6.1612280691082653E+00    2.7244386912452998E+00    1.3833279624623692E+01
C    1.3518043390347326E+01    4.3892159754322355E+00    1.0798654820657589E+01
C   -4.6396813136099935E+00    1.9641779897051929E+01    1.3436389011552734E+01
C    1.5485914330931225E+01    1.9813563651519341E+00    1.5408043400432216E+01
C    1.5521805030517246E+01    1.9454042618531435E+00    1.4186299714964212E+01
C    6.6419516608920270E+00    1.9946249861610865E+00    1.6547429427688936E+01
C   -4.3936867331901617E+00    1.9270029125443152E+01    1.4818701577332426E+01
C   -4.4826267827012680E+00    2.0235656419602368E+01    1.5826979818923055E+01
C    7.4973029123848676E+00    1.4736606693487972E+00    1.5493262184435247E+01
C    5.5843557607871155E+00    2.8547381350439056E+00    1.6231860878427501E+01
C    5.3385057232960014E+00    3.2218206347318108E+00    1.4848387277854869E+01
C    1.4626596525462681E+01    4.1850891997211681E+00    1.8001828301351342E+01
C    1.8955251243662275E+01    5.7831350204276948E+00    1.7778676676606754E+01
C    1.8073958964442355E+01    2.2447629824080972E+00    1.7582083097728013E+01
C    1.3534642379448432E+01    2.1903183179146750E+00    1.8331185402044305E+01
C    1.2939174617036088E+01    5.6257457189201707E+00    1.9392710516312750E+01
C    1.6882840160792863E+01    4.2152570035606578E+00    1.7573739444144188E+01
C    1.2737934602661824E+01    3.2232780789355604E+00    1.8952668869805930E+01
C    2.0426098722016956E+01    3.3360752453038596E+00    1.7767759587224766E+01
C    1.3418726678140095E+01    4.4708110948316619E+00    1.8767360404651214E+01
C    1.9036193611028438E+01    3.3297819944910581E+00    1.7683338541935843E+01
C    1.8293631609531317E+01    4.5611385635575310E+00    1.7682683033852857E+01
C    1.6998841321801390E+01    2.7163239684115631E-01    1.8042759245149842E+01
C    1.4724390752295559E+01    2.3463918554957691E-01    1.8367500808191792E+01
C    6.4518356437897868E+00    9.4340570319685846E-01    1.7531943996267128E+01
C   -5.1286921857559884E+00    1.9908531349613238E+01    1.7086561777095863E+01
C    4.5790443223802981E+00    1.7353877901792302E+01    2.0336307298533075E+01
C    3.3217646880840124E+00    1.4736344266786551E+01    2.1310099816659076E+01
C    4.7408565260571329E+00    1.4761902975061405E+01    2.1269587583600469E+01
C    5.2287493145358397E+00    1.0991691060535135E+01    2.1667973956540198E+01
C    4.7873097763763885E+00    1.2364237276452661E+01    2.1438509599292534E+01
C    3.1656750323113174E+00    1.7328877281789769E+01    2.0496387875455746E+01
C    5.4769430266409751E+00    1.3569864010274001E+01    2.1310973263544124E+01
C    2.3516253656959312E+00    1.8251065715279399E+01    1.9838576938101276E+01
C    5.1846742989429595E+00    1.8294703528818324E+01    1.9493033231839274E+01
C    5.3226981929460662E+00    1.0899535584996622E+01    7.9232790383193326E+00
C    5.5660235829545996E+00    1.3470660035255216E+01    8.3201639211595158E+00
C    4.8774657444863001E+00    1.2266928193607630E+01    8.1710878593890559E+00
C    3.4105941034149869E+00    1.4636047390933815E+01    8.3142551287816175E+00
C    4.8294311270769077E+00    1.4662113075381761E+01    8.3642362740940470E+00
C    2.4392469564516919E+00    1.8160892018890220E+01    9.7741126106090874E+00
C    3.2543612711664096E+00    1.7233809483320183E+01    9.1246350784066816E+00
C    4.6672658085728917E+00    1.7258724672291468E+01    9.2892030061695081E+00
C    5.2709727990693480E+00    1.8203453005910209E+01    1.0129048679126246E+01
C    3.0408857440558870E+00    1.9117230799926208E+01    1.0584135005274792E+01
C    4.4607210146404617E+00    1.9138896732123744E+01    1.0777449710265854E+01
C    6.3841937806436704E+00    1.1721835963396893E+01    1.2412562663656617E+01
C    6.1326868800577143E+00    9.3693154549231235E+00    1.1701939868336886E+01
C    5.7517675979979845E+00    1.0709801710575578E+01    1.1584289983398341E+01
C    7.1589811623406590E+00    8.9869473159511521E+00    1.2656718058095162E+01
C    6.7846533689004085E+00    7.7055329924468534E+00    1.3230474620825142E+01
C    5.3708934616264488E+00    1.2695493455709439E+01    1.2785680171149448E+01
C    7.7656138743277872E+00    9.9605083483859573E+00    1.3457274691692096E+01
C    7.3715510729152811E+00    1.1353485333395806E+01    1.3332639213570745E+01
C    4.3486360444739498E+00    1.1057819982254978E+01    1.1446283509287502E+01
C    2.9144385501359222E+00    1.2458774781179299E+01    1.2887228433196567E+01
C    4.1125569346727202E+00    1.2285393990591251E+01    1.2186593846873393E+01
C    4.1394916048087111E+00    1.3443919173387668E+01    1.4792914056816073E+01
C    5.3838198637076040E+00    1.3263562557016206E+01    1.4064595080407898E+01
C    7.3852879379511194E+00    1.1944497930259701E+01    1.4660692568771587E+01
C    2.9283133106294348E+00    1.3048682539801710E+01    1.4215140537571235E+01
C    7.6632485993639117E+00    8.4579305700069529E+00    1.5414780292830963E+01
C    7.7885302696111989E+00    1.0916839418685290E+01    1.5605833583142594E+01
C    7.0553307216088523E+00    8.4016596143477749E+00    1.6733796603113525E+01
C    6.4103920591997499E+00    1.2881181721761026E+01    1.5020034101801635E+01
C    8.0229226696716776E+00    9.6909429601075292E+00    1.4861790725788314E+01
C    4.3970622096995804E+00    1.3174295714740126E+01    1.6198061390793047E+01
C    7.0312190156326322E+00    7.4476483010250041E+00    1.4583511608187692E+01
C    6.1892134441953095E+00    1.1836149272859751E+01    1.7248116098672675E+01
C    4.3758660308680781E+00    1.9228157304704482E+01    1.8839896048974502E+01
C    3.4338894201668047E+00    1.2519467716343316E+01    1.6972444025371896E+01
C    2.9549335538276336E+00    1.9205491519412600E+01    1.9027708791187006E+01
C    5.8011259643321367E+00    1.2826291557850212E+01    1.6338719931682977E+01
C    7.2028150056050340E+00    1.0863335991709461E+01    1.6875159449086805E+01
C    5.1887318497096855E+00    1.1155320054574473E+01    1.8051197550939392E+01
C    5.5845511556934539E+00    9.7632697942745725E+00    1.8175675313920518E+01
C    6.8296704196914346E+00    9.5818853806760291E+00    1.7449887528565558E+01
H    6.9613127087914535E+00    4.6181495093741480E+00    2.0959024449639163E+01
H   -6.3552305581466761E-01    9.0817090447177389E+00    1.9553393465006121E+01
H    1.9939356415588927E+00    4.7886450964720542E+00    1.9417356318493010E+01
H   -5.3966707263083769E-01    8.9783754463794789E+00    9.9889707200989619E+00
H    2.0843918358721440E+00    4.6833393424271739E+00    1.0127927594363612E+01
H    7.0640087794615170E+00    4.5286035602316979E+00    8.6123507342751680E+00
H    1.5348944786729748E+00    1.3513995526907706E+01    2.1232595355283678E+01
H    1.6233272363096332E+00    1.3412370902166062E+01    8.3652412477769751E+00
H    9.3552764364558190E+00    9.0391863776523014E+00    2.1186533318141890E+01
H    1.1074144195153270E+01    2.1822415752304263E+00    1.9853675871610445E+01
H    9.4516789598306197E+00    8.9550516322692850E+00    8.4092221486192162E+00
H    1.1178577549291974E+01    2.0981917065142737E+00    9.7054359984558332E+00
H    1.3553044593381220E+01    6.4980900937609638E+00    1.0296159696725159E+01
H    2.1074340553741617E+01    2.3055796657196188E+00    1.1788033649002823E+01
H    1.8492799913842475E+01    6.6277717366259541E+00    1.1743938442254587E+01
H    1.8398502162651365E+01    6.7196197727438323E+00    1.7817705037917285E+01
H    2.0988601580718079E+01    2.4026212054613159E+00    1.7796769408299255E+01
H    1.3455774188181211E+01    6.5784869384879698E+00    1.9275155579260669E+01
H    6.5670836460914854E+00    1.3590900044556575E+01    2.1298046603008711E+01
H    1.2699839708816396E+00    1.8237798637676057E+01    1.9973475513097078E+01
H    6.2676666063638820E+00    1.8314111013255609E+01    1.9367923444757285E+01
H    6.6560375036737138E+00    1.3490764618956764E+01    8.3436160635887759E+00
H    6.3539907861441476E+00    1.8224699516142625E+01    1.0253037366455796E+01
H    1.3581640229526151E+00    1.8149277378082367E+01    9.6346202303940753E+00
N    4.2386098701761172E+00    6.3162432113736466E+00    2.0986825027328305E+01
N    2.9305484937028461E+00    8.2417177321701516E+00    2.1556196657912356E+01
N    5.2753534274865537E+00    8.3078696209831016E+00    2.1753844813274114E+01
N    5.3746187448110785E+00    8.2205941706717542E+00    7.8422704313956970E+00
N    3.0296777218106614E+00    8.1420185404918115E+00    7.9966202729145985E+00
N    4.3373480652543561E+00    6.2183584883055847E+00    8.5767031638554911E+00
N    1.7905093003437209E+00    1.0308158005619209E+01    2.1147695429182196E+01
N    4.0647833254060934E+00    1.0287080693023492E+01    2.1822616411951731E+01
N    4.1611099797554143E+00    1.0195777847076824E+01    7.7410234925168435E+00
N    1.8845263830615266E+00    1.0205498640227400E+01    8.4116669084709734E+00
N    1.6961302706350860E+01    2.7799906972648838E+00    1.2248129856265548E+01
N    1.4634751440871378E+01    2.7692406253842625E+00    1.1896083144590520E+01
N    1.5859288719761873E+01    7.2211317915435380E-01    1.1909424798853104E+01
N    1.5854340063229962E+01    4.8209715522052710E+00    1.1724304884692245E+01
N    1.8245791161411518E+01    8.4486511790023433E-01    1.1733114153554562E+01
N    1.3652441646117916E+01    7.8874477367793183E-01    1.0988828408147574E+01
N    1.4540621322032715E+01    2.8492208554410379E+00    1.7674307680715156E+01
N    1.5776923935286542E+01    8.0771884671996885E-01    1.7702957036644840E+01
N    1.6873701587519829E+01    2.8633308361582208E+00    1.7356615812508650E+01
N    1.3562127666226040E+01    8.7205436644672363E-01    1.8598791559107887E+01
N    1.8162272625974069E+01    9.3406151179719787E-01    1.7880064953359625E+01
N    1.5758114860237747E+01    4.9042381121640570E+00    1.7852089238334020E+01
N    6.4341607054693553E+00    1.0381406559899181E+01    2.1611701469749157E+01
N    6.5292681047058663E+00    1.0293691541576273E+01    7.9900306133830910E+00
S   -1.7581940682647421E+00    7.2491065650976134E+00    1.1894364831232339E+01
S   -9.3601605382374262E-02    4.4600036218450816E+00    1.1951660003316977E+01
S   -1.8544718191336313E+00    7.3449595320486081E+00    1.7650343511645641E+01
S   -1.8572395775611333E-01    4.5602002530473102E+00    1.7596161595628260E+01
S    9.7152812510205511E+00    4.1200426336100282E+00    2.1395622784930033E+01
S    1.1315561728711298E+01    6.9577670124138455E+00    2.1133576846447898E+01
S    9.8183402383507534E+00    4.0386633582001519E+00    8.1672398256597436E+00
S    1.1414085157566335E+01    6.8775583710724533E+00    8.4388506358086453E+00
S    2.3808103204595996E+00    1.6198406748737764E+01    2.1594742333472496E+01
S    5.6270030238605599E+00    1.6291681315483700E+01    2.1289855000781124E+01
S    2.4706024424129729E+00    1.6098627492422111E+01    8.0305908331082048E+00
S    5.7186325918954175E+00    1.6189730385941022E+01    8.3482139274519351E+00
H    4.1210739455996865E+00    8.6318936809956668E+00    3.3737531335758697E+00
H    3.8605265740369212E+00    8.8119056209671385E+00    2.6194462586313207E+01
     &END COORD
     &KIND H
       BASIS_SET DZVP-MOLOPT-GTH
       POTENTIAL GTH-PBE-q1
       &POTENTIAL
 1
  0.2000000000000000E+00 2 -0.4178900440000000E+01  0.7244633100000000E+00
 0
         # Potential name:  GTH-PBE-Q1  for symbol:  H
         # Potential read from the potential filename: POTENTIAL
       &END POTENTIAL
     &END KIND
     &KIND C
       BASIS_SET DZVP-MOLOPT-GTH
       POTENTIAL GTH-PBE-q4
       &POTENTIAL
 2 2
  0.3384712400000000E+00 2 -0.8803673979999999E+01  0.1339210850000000E+01
 2
  0.3025757500000000E+00 1  0.9622486650000001E+01
  0.2915069400000000E+00 0
         # Potential name:  GTH-PBE-Q4  for symbol:  C
         # Potential read from the potential filename: POTENTIAL
       &END POTENTIAL
     &END KIND
     &KIND N
       BASIS_SET DZVP-MOLOPT-GTH
       POTENTIAL GTH-PBE-q5
       &POTENTIAL
 2 3
  0.2837905100000000E+00 2 -0.1241522559000000E+02  0.1868095920000000E+01
 2
  0.2554050000000000E+00 1  0.1363026257000000E+02
  0.2454945300000000E+00 0
         # Potential name:  GTH-PBE-Q5  for symbol:  N
         # Potential read from the potential filename: POTENTIAL
       &END POTENTIAL
     &END KIND
     &KIND B
       BASIS_SET DZVP-MOLOPT-SR-GTH
       POTENTIAL GTH-PBE-q3
       &POTENTIAL
 2 1
  0.4189914500000000E+00 2 -0.5859461710000000E+01  0.9037564300000001E+00
 2
  0.3713204600000000E+00 1  0.6297280180000000E+01
  0.3645630800000000E+00 0
         # Potential name:  GTH-PBE-Q3  for symbol:  B
         # Potential read from the potential filename: POTENTIAL
       &END POTENTIAL
     &END KIND
     &KIND S
       BASIS_SET DZVP-MOLOPT-GTH
       POTENTIAL GTH-PBE-q6
       &POTENTIAL
 2 4
  0.4200000000000000E+00 1 -0.5986260380000000E+01
 2
  0.3648203500000000E+00 2  0.1314354448000000E+02 -0.4241830450000000E+01
  0.5476179570000000E+01
  0.4094804800000000E+00 1  0.3700890570000000E+01
         # Potential name:  GTH-PBE-Q6  for symbol:  S
         # Potential read from the potential filename: POTENTIAL
       &END POTENTIAL
     &END KIND
     &TOPOLOGY
       COORD_FILE_NAME cof.xyz
       COORD_FILE_FORMAT  XYZ
       NUMBER_OF_ATOMS  288
       MULTIPLE_UNIT_CELL  1 1 1
     &END TOPOLOGY
   &END SUBSYS
 &END FORCE_EVAL
