 # Version information for this restart file 
 # current date 2021-06-24 16:23:25.212
 # current working dir /panfs/panfs.cbls.ccr.buffalo.edu/scratch/grp-cyberwksp21/ub2053/cof/opt-cell
 # Program compiled at                              Thu Apr 22 21:44:59 EDT 2021
 # Program compiled on                cpn-k07-07-02.compute.cbls.ccr.buffalo.edu
 # Program compiled for                                                    local
 # Source code revision number                                       git:36754bb
 &GLOBAL
   EXTENDED_FFT_LENGTHS  T
   PRINT_LEVEL  MEDIUM
   PROJECT_NAME COF
   RUN_TYPE  CELL_OPT
 &END GLOBAL
 &MOTION
   &GEO_OPT
     OPTIMIZER  BFGS
     MAX_ITER  550
     MAX_DR     2.0000000000000000E-03
     MAX_FORCE     2.9999999999999997E-04
     RMS_DR     2.0000000000000000E-03
     RMS_FORCE     2.9999999999999997E-04
     &BFGS
     &END BFGS
   &END GEO_OPT
   &CELL_OPT
     OPTIMIZER  BFGS
     MAX_ITER  550
     MAX_DR     2.0000000000000000E-03
     MAX_FORCE     2.9999999999999997E-04
     RMS_DR     2.0000000000000000E-03
     RMS_FORCE     2.9999999999999997E-04
     STEP_START_VAL  6
     TYPE  DIRECT_CELL_OPT
     EXTERNAL_PRESSURE     1.0000000000000000E+02    0.0000000000000000E+00    0.0000000000000000E+00    0.0000000000000000E+00 \
         1.0000000000000000E+02    0.0000000000000000E+00    0.0000000000000000E+00    0.0000000000000000E+00    1.0000000000000000E+02
     KEEP_SYMMETRY  F
     PRESSURE_TOLERANCE     1.0000000000000000E+02
   &END CELL_OPT
   &PRINT
     &TRAJECTORY  SILENT
       &EACH
         GEO_OPT  1
       &END EACH
     &END TRAJECTORY
     &FORCES  ON
     &END FORCES
     &RESTART  SILENT
       BACKUP_COPIES  1
       &EACH
         GEO_OPT  1
       &END EACH
     &END RESTART
   &END PRINT
 &END MOTION
 &FORCE_EVAL
   METHOD  QS
   STRESS_TENSOR  ANALYTICAL
   &DFT
     BASIS_SET_FILE_NAME BASIS_MOLOPT
     POTENTIAL_FILE_NAME POTENTIAL
     MULTIPLICITY  1
     &SCF
       MAX_SCF  50
       EPS_SCF     9.9999999999999995E-07
       SCF_GUESS  ATOMIC
       ADDED_MOS  50
       &DIAGONALIZATION  T
         ALGORITHM  DAVIDSON
       &END DIAGONALIZATION
       &SMEAR  T
         METHOD  FERMI_DIRAC
       &END SMEAR
       &MIXING  T
         METHOD  BROYDEN_MIXING
         ALPHA     2.9999999999999999E-01
         NBUFFER  8
       &END MIXING
     &END SCF
     &QS
       EPS_DEFAULT     1.0000000000000000E-14
       METHOD  GPW
     &END QS
     &MGRID
       NGRIDS  6
       CUTOFF     1.0000000000000000E+03
       REL_CUTOFF     6.0000000000000000E+01
     &END MGRID
     &XC
       DENSITY_CUTOFF     1.0000000000000000E-10
       GRADIENT_CUTOFF     1.0000000000000000E-10
       TAU_CUTOFF     1.0000000000000000E-10
       &XC_GRID
         XC_DERIV  SPLINE2_SMOOTH
       &END XC_GRID
       &XC_FUNCTIONAL  NO_SHORTCUT
         &PBE  T
         &END PBE
       &END XC_FUNCTIONAL
       &VDW_POTENTIAL
         POTENTIAL_TYPE  PAIR_POTENTIAL
         &PAIR_POTENTIAL
           TYPE  DFTD3
           PARAMETER_FILE_NAME dftd3.dat
           REFERENCE_FUNCTIONAL PBE
         &END PAIR_POTENTIAL
       &END VDW_POTENTIAL
     &END XC
     &POISSON
       POISSON_SOLVER  PERIODIC
       PERIODIC  XYZ
     &END POISSON
     &PRINT
       &MO_CUBES  SILENT
         WRITE_CUBE  F
         NLUMO  3
         NHOMO  3
       &END MO_CUBES
       &PDOS  SILENT
         COMPONENTS  T
         APPEND  T
         NLUMO  -1
       &END PDOS
       &MULLIKEN  OFF
       &END MULLIKEN
       &HIRSHFELD  OFF
       &END HIRSHFELD
     &END PRINT
   &END DFT
   &SUBSYS
     &CELL
       A     2.3030289113748719E+01    0.0000000000000000E+00    0.0000000000000000E+00
       B    -1.2316894309514270E+01    2.0133527082026536E+01    0.0000000000000000E+00
       C    -3.6308621855764706E-01    2.6338252943213075E-01    3.8844850166677766E+01
       PERIODIC  XYZ
       MULTIPLE_UNIT_CELL  1 1 1
     &END CELL
     &COORD
B    4.0296811562314074E+00    8.8859284952763371E+00    2.2349024051778773E+01
B    4.1387307357695908E+00    8.7913413218812231E+00    7.2192761065829929E+00
B    1.5715205686174276E+01    2.0331971285907993E+00    1.2648755816647222E+01
B    1.5635888372164823E+01    2.1087261338684127E+00    1.6946179206384727E+01
C    3.0689099576429522E+00    6.9937832987865338E+00    2.0995081176150357E+01
C    1.8484380068919486E+00    6.7845934476079384E+00    2.0237847843708625E+01
C    6.7612066160380513E+00    6.7617916145691002E+00    2.1154202888836039E+01
C    5.3402755832621063E+00    7.0101752401879214E+00    2.1328057666698410E+01
C   -7.0224314404831178E-02    8.1501216627719195E+00    1.9533903493428717E+01
C    1.0950697178342286E+00    8.0087005780851257E+00    2.0285104558406022E+01
C    7.4743014072408434E+00    5.5759749067688640E+00    2.1022226642877836E+01
C    1.8598466973728291E+00    8.9596886338354746E+00    2.1076140355631527E+01
C    1.4221273143801447E+00    5.7152847473184059E+00    1.9453200612629452E+01
C    4.0990146001896699E+00    8.6509003269748508E+00    4.4496130634815403E+00
C    3.9231385364367188E+00    8.7904968919394495E+00    2.3902895041767945E+01
C    4.0748835582052472E+00    8.6775366984852802E+00    5.6641606119821821E+00
C    3.8888682971967530E+00    8.8000238318932311E+00    2.5117379368906889E+01
C    5.4406560229213561E+00    6.9192419235529279E+00    8.2536361321513709E+00
C    1.1907764829904772E+00    7.9035062093964319E+00    9.2596627557902735E+00
C    1.9427038732723143E+00    6.6794891059296253E+00    9.3063602310571909E+00
C    1.5136614201786875E+00    5.6099455717265805E+00    1.0089504210930457E+01
C    2.4723423624946873E-02    8.0460419511524037E+00    1.0008876451908552E+01
C   -3.8225444570985773E-01    6.9830988632632005E+00    1.0820421077725658E+01
C    3.5486229345958736E-01    5.7673716178970906E+00    1.0854847740335627E+01
C    3.1665778457693490E+00    6.8922575383692744E+00    8.5555588720534228E+00
C    1.9567309795945889E+00    8.8565209746195173E+00    8.4744432438155783E+00
C    7.5756588962178775E+00    5.4872759515366765E+00    8.5544404669031753E+00
C    6.8611043817017530E+00    6.6726713096799024E+00    8.4305745846980713E+00
C   -2.5841369823586189E+00    5.6906900232913804E+00    1.1791834173709686E+01
C   -1.0646889091339025E+01    1.9941831185110242E+01    1.2616254919531718E+01
C    4.1954081579778180E+00    1.1647788209192234E-01    1.1325510520428132E+01
C    3.4865067459841970E+00    1.2440759147755602E+00    1.1753128623065685E+01
C   -1.8545127902495877E+00    4.4713959386778388E+00    1.1808180466018758E+01
C   -1.1294163894001159E+01    1.9614698340346315E+01    1.3875120248517156E+01
C    4.1882227454905534E+00    2.3436748551890476E+00    1.2393072516891786E+01
C   -1.0100216073949145E+01    1.7718075514638645E+01    1.3155308200299118E+01
C   -6.3451729651601099E+00    1.8804481799434392E+01    1.1858431493175429E+01
C    2.1060678917816542E+00    2.0892505032544806E+00    1.3458563878388002E+01
C    3.3339077390356109E+00    2.8665201178091197E+00    1.3447095544555008E+01
C   -7.5733166878441622E+00    1.8028462290466688E+01    1.1868519860415745E+01
C   -8.6707724183752752E+00    1.8922328274876239E+01    1.1541472286993278E+01
C   -9.9096825810786875E+00    1.8770409703588793E+01    1.2171775778153965E+01
C   -7.7548416382369707E+00    1.7014846151044804E+01    1.2814353484275157E+01
C    2.2004748129826965E+00    1.0866474785034461E+00    1.2411763674769606E+01
C    6.3093295983850703E+00    1.1020877006629346E+00    1.2139146398586037E+01
C   -6.6838921795596757E+00    2.0177216365623700E+01    1.1524010244847910E+01
C    5.5732502036440588E+00    2.2744129930164796E+00    1.2582562449472460E+01
C   -5.3415522034427445E+00    1.8539750544712145E+01    1.2795038206917226E+01
C   -9.0424608156477220E+00    1.6857483749523034E+01    1.3470875491167282E+01
C    4.2965133112510721E+00    2.6998039085814916E+00    1.6888047034551615E+01
C   -4.9437354631077657E+00    1.7938895684417812E+01    1.5030764205354281E+01
C    3.5731314876639737E+00    6.5522758943520607E+00    1.5537587813257879E+01
C    3.2546589314070085E+00    2.9726808353972602E+00    1.5912052911987683E+01
C   -1.0718737919360507E+01    1.7881740958131072E+01    1.5539820066910741E+01
C   -1.0809747326313229E+01    1.8886111215392411E+01    1.6586940801400981E+01
C    2.0716237697892477E+00    2.2256128826802009E+00    1.5921115988708825E+01
C    1.4832449875646545E+00    1.7766858394266860E+00    1.4670901896503155E+01
C   -5.5301111028597729E+00    1.7488376730815531E+01    1.3780253424408983E+01
C    4.8188560614010356E+00    6.3778588356764114E+00    1.4809734723794250E+01
C   -9.6188087871679535E+00    1.6988251689441551E+01    1.5867812929358541E+01
C   -1.1137205280073093E+01    2.0208649226815911E+01    1.6266149703259792E+01
C   -1.0955526426892320E+01    1.8240217407032379E+01    1.4208694902764639E+01
C    6.0303147355869626E+00    6.7677726403196710E+00    1.5388116770696042E+01
C    9.3303100717931919E-01    4.4740315183099955E-01    1.4883319909136448E+01
C    1.8833724358897532E+00    1.1744149084108781E+00    1.6906210039996509E+01
C   -8.7963428852360455E+00    1.6485439769966849E+01    1.4853645085262597E+01
C   -6.7130983126722503E+00    1.6740410660326916E+01    1.3789776915573498E+01
C   -7.3570884084312684E+00    1.6413141799954751E+01    1.5050629562380237E+01
C   -6.7923787101563828E+00    1.6846808830005255E+01    1.6254471295753358E+01
C   -5.5634358070595713E+00    1.7623468219379429E+01    1.6244052772140918E+01
C    3.8994521242838451E+00    3.2935351214728437E+00    1.4651227385486438E+01
C   -7.6529576299836419E+00    1.9598320701403050E+01    1.8373632988908447E+01
C    2.8871530350569672E+00    9.0938557749500859E-01    1.7842844418594982E+01
C   -5.6576680478428569E+00    1.8627594038795461E+01    1.7289904616928276E+01
C   -7.6464176017332326E+00    1.7371214013695027E+01    1.7306626019984758E+01
C   -4.7408389027223624E-01    7.0868081674955503E+00    1.8721064634299825E+01
C   -2.6773716691354288E+00    5.7856337622711003E+00    1.7764586015194062E+01
C   -1.9452656339798480E+00    4.5680049945765333E+00    1.7752356807387358E+01
C   -9.0910693477398627E+00    1.9670621578524631E+01    1.8177221619854532E+01
C    2.6388577614403758E-01    5.8715252322914591E+00    1.8687276597666010E+01
C    4.1153963581532897E+00    1.6862483427255690E+00    1.7834251055299632E+01
C    5.2137783231804304E+00    7.9326634721696487E-01    1.8162036255826528E+01
C   -6.9448990620565230E+00    1.8471608487751595E+01    1.7945240867524184E+01
C   -9.7665913789754057E+00    1.8612930337417243E+01    1.7561253651311095E+01
C   -9.0309249548327291E+00    1.7440482182804843E+01    1.7117455331145226E+01
C    2.6229195878710079E+00    1.3524559700223541E+01    2.1262596624396704E+01
C    2.9230785375590478E+00    1.0957134221523297E+01    2.1481622433136760E+01
C    3.3477811609741126E+00    1.2342094222568043E+01    2.1357142851664552E+01
C    3.0163704099256670E+00    1.0859121867853299E+01    8.0848269841610438E+00
C    3.4377318947424467E+00    1.2242274266433990E+01    8.2368136727621639E+00
C    2.7118339977020973E+00    1.3423220956556927E+01    8.3423819790652516E+00
C    2.7718911416004435E+00    7.9797838709164850E+00    1.2360540523761500E+01
C    2.1318484124198567E+00    1.0232036578393144E+01    1.2157616455175200E+01
C    5.1232992413983611E+00    8.3224405573147102E+00    1.1684582511344969E+01
C    1.9040334878884897E+00    1.1412209005512006E+01    1.2870894862394621E+01
C    1.7576490904414588E+00    8.9508860985174294E+00    1.2731987429592115E+01
C    3.1564547381193178E+00    6.9871101576860415E+00    1.3265852832735254E+01
C    5.5260144667824669E+00    7.2934279726317754E+00    1.2628630889443027E+01
C    3.7719775273339331E+00    8.6590662495893174E+00    1.1555531150883974E+01
C    3.3773306538061618E+00    1.0051435825266022E+01    1.1432295443709302E+01
C    4.5615378386093042E+00    6.6419930572265899E+00    1.3404565612448671E+01
C    1.1652876849529288E+00    8.8949961240342024E+00    1.3997628930303215E+01
C    1.2939724890095361E+00    1.1356106098976879E+01    1.4189264388153317E+01
C    1.9267851949922159E+00    1.2367047764561962E+01    1.5019487136818436E+01
C    6.0459382045151919E+00    7.3544245273762101E+00    1.6717844696604722E+01
C    1.5682548063172308E+00    7.8657926709488386E+00    1.4941710338385096E+01
C    9.3161991077023476E-01    1.0122603677235226E+01    1.4741354155881563E+01
C    2.5436542073568220E+00    6.9291893087216847E+00    1.4583110588697693E+01
C    1.1906962073775700E+00    9.8523178089429297E+00    1.6145772613248145E+01
C    1.5870720535465093E+00    8.4590815634986480E+00    1.6267768778065946E+01
C    3.5890654017870092E+00    7.1195522175062953E+00    1.6815545708823912E+01
C    3.2110567343490528E+00    9.1057171981831910E+00    1.8011200936358488E+01
C    2.1739216428849057E+00    1.2108186717139485E+01    1.6371877054917316E+01
C    2.8293954224367117E+00    1.0444616948388877E+01    1.7895574328840539E+01
C    1.7998206333876292E+00    1.0826145275332353E+01    1.6944774259607797E+01
C    4.8479579025813866E+00    7.5275446591685808E+00    1.7417892608583049E+01
C    2.5794187584187118E+00    8.0955330485805490E+00    1.7181956938126962E+01
C    4.6129651688354647E+00    8.7557623200627823E+00    1.8158507792102753E+01
C    3.8367995457752020E+00    1.1489483817352609E+01    1.7915001220986191E+01
C    8.8313529981538501E+00    8.0824674129456469E+00    2.1162714183074296E+01
C    9.5486522836772902E+00    6.8798773722517206E+00    2.1091577347083522E+01
C    7.4428497245083252E+00    8.0233329415151040E+00    2.1287207723888713E+01
C    1.1118416214144169E+01    4.2890019880117816E+00    2.0350102991641371E+01
C    6.4288801193605227E+00    9.0299998251080034E+00    2.1596992283050405E+01
C    1.1585507278943588E+01    3.1344512325688636E+00    1.9724272499040250E+01
C    8.8689808737569908E+00    5.6331514538468639E+00    2.1094681830925094E+01
C    1.1796800957697801E+01    5.5302697388778181E+00    2.0200201453492983E+01
C    6.5269927410376285E+00    8.9425833247255522E+00    8.0011920027648973E+00
C    8.9294210902271836E+00    7.9973603456146041E+00    8.4284556715282548E+00
C    7.5411501883920327E+00    7.9361986029711487E+00    8.3066723442062020E+00
C    9.6480227394091163E+00    6.7953345522095558E+00    8.4883162323666692E+00
C    8.9699833723167828E+00    5.5477787017259752E+00    8.4793507537386965E+00
C    1.1689060111698231E+01    3.0509620564569713E+00    9.8350874313829184E+00
C    1.2836222279811047E+01    3.1412896573656184E+00    1.0611292210698727E+01
C    1.1898229175249471E+01    5.4477634534060382E+00    9.3646285343166422E+00
C    1.3037890641494087E+01    5.5445401333353503E+00    1.0174486212869397E+01
C    1.1221848410715973E+01    4.2062367728924217E+00    9.2111681863839596E+00
C    1.8158812795367066E+01    2.1564186015465809E+00    1.2024087968345828E+01
C    1.4721181852206824E+01    4.1042396354464588E+00    1.1568505616160277E+01
C    1.9123451899372583E+01    3.2381720467763135E+00    1.1908870253649214E+01
C    1.6972928562629438E+01    4.1302674931806562E+00    1.2014455937592814E+01
C    1.3628100032645959E+01    2.1092766468886568E+00    1.1240049084751210E+01
C    1.8384260224958776E+01    4.4712418776040739E+00    1.1900365470729673E+01
C    2.0512294653671304E+01    3.2397879932393612E+00    1.1810997538716078E+01
C    1.9046636086293685E+01    5.6909519752940669E+00    1.1787247008665108E+01
C    1.7080793869146149E+01    1.8368659920575012E-01    1.1572021819785014E+01
C    7.3526381754028769E+00    8.2844023963894253E-01    1.3113498881009832E+01
C    1.4808182275916380E+01    1.4956281807690916E-01    1.1236337490652460E+01
C    7.2614682023802430E+00    1.8325202925114570E+00    1.4160868797582017E+01
C    6.1616404299438665E+00    2.7256911193989342E+00    1.3832704235143982E+01
C    1.3515896143682395E+01    4.3896084052565243E+00    1.0798946227920782E+01
C   -4.6388722263952324E+00    1.9639452692858203E+01    1.3435489364997968E+01
C    1.5485238958640267E+01    1.9818652396967882E+00    1.5405696426308424E+01
C    1.5521119372511446E+01    1.9464050451878543E+00    1.4187253449913259E+01
C    6.6429117734340624E+00    1.9962007389773881E+00    1.6546561093347769E+01
C   -4.3929624470960507E+00    1.9267544536726199E+01    1.4818010463258492E+01
C   -4.4817155728380031E+00    2.0233512700421556E+01    1.5826222672690543E+01
C    7.4981545508264604E+00    1.4744690444475106E+00    1.5492500491089945E+01
C    5.5846135177377487E+00    2.8561844200689679E+00    1.6231046925996967E+01
C    5.3382643884510328E+00    3.2232186164749157E+00    1.4847580497432748E+01
C    1.4625046394736955E+01    4.1856713114557191E+00    1.8000875746710189E+01
C    1.8953307021193289E+01    5.7829446092734527E+00    1.7778575060656046E+01
C    1.8072610109086828E+01    2.2443091272951112E+00    1.7581697118655462E+01
C    1.3533170147120417E+01    2.1900347715117499E+00    1.8331193128134668E+01
C    1.2937649195377503E+01    5.6260355931448363E+00    1.9391192041683979E+01
C    1.6881210433946393E+01    4.2154784407366428E+00    1.7573609447357359E+01
C    1.2735573481277871E+01    3.2234204365811410E+00    1.8951308949880111E+01
C    2.0424339832419729E+01    3.3350644385657806E+00    1.7768006852698470E+01
C    1.3415925301742574E+01    4.4714444161251627E+00    1.8765183404223986E+01
C    1.9034855551498183E+01    3.3294452999704229E+00    1.7683028070674172E+01
C    1.8292255529057002E+01    4.5610920800471559E+00    1.7682463549185815E+01
C    1.6997703289100581E+01    2.7167085741374486E-01    1.8042144279007246E+01
C    1.4722561823090542E+01    2.3488686458179286E-01    1.8367195011531543E+01
C    6.4524162989635441E+00    9.4409986965665216E-01    1.7530746980943498E+01
C   -5.1276540721826729E+00    1.9906086444607837E+01    1.7086032735169102E+01
C    4.5780681151073699E+00    1.7352646900409990E+01    2.0334860331832658E+01
C    3.3205608583822186E+00    1.4735094679819088E+01    2.1308868310994068E+01
C    4.7399619518039708E+00    1.4760874126182607E+01    2.1268735125561939E+01
C    5.2281323028983300E+00    1.0991059786672865E+01    2.1666954678369358E+01
C    4.7863423573983654E+00    1.2363934303336563E+01    2.1437916093261425E+01
C    3.1645707751681127E+00    1.7327753136673476E+01    2.0495203170333774E+01
C    5.4762406485741577E+00    1.3569036188085715E+01    2.1310541608192125E+01
C    2.3498772650904622E+00    1.8249594874408508E+01    1.9837897054274535E+01
C    5.1840541923865384E+00    1.8292892477368596E+01    1.9491509330313082E+01
C    5.3220683155800614E+00    1.0898700521809070E+01    7.9232728632331293E+00
C    5.5655120658179822E+00    1.3469560027873689E+01    8.3198473766910563E+00
C    4.8766056781860581E+00    1.2266452957623565E+01    8.1704887577870604E+00
C    3.4095600119338445E+00    1.4634625453664508E+01    8.3144845865225694E+00
C    4.8286803167952268E+00    1.4660775972427617E+01    8.3643755614644029E+00
C    2.4375088448521143E+00    1.8159198715579812E+01    9.7733519920676155E+00
C    3.2530300622118919E+00    1.7232403645521803E+01    9.1242899583692516E+00
C    4.6661940439760530E+00    1.7257407862425406E+01    9.2889998687991966E+00
C    5.2702912941331377E+00    1.8201931418117837E+01    1.0128440905656527E+01
C    3.0394586862477024E+00    1.9114426678061431E+01    1.0583771147406390E+01
C    4.4595869570080708E+00    1.9136164762085876E+01    1.0777075468223712E+01
C    6.3835057728628684E+00    1.1721313538719260E+01    1.2411642018305042E+01
C    6.1319210047078929E+00    9.3683420819127186E+00    1.1700518782245529E+01
C    5.7510932422334831E+00    1.0709038844961652E+01    1.1582724256088449E+01
C    7.1585505192627030E+00    8.9858433243294034E+00    1.2655663599490529E+01
C    6.7840949142286791E+00    7.7041577974361495E+00    1.3229781378554357E+01
C    5.3700945282040546E+00    1.2695262591171526E+01    1.2784827206377109E+01
C    7.7652837327124491E+00    9.9595735751887116E+00    1.3456196157963470E+01
C    7.3709776875665511E+00    1.1352870603990027E+01    1.3331786925840587E+01
C    4.3475459289289642E+00    1.1057260682578741E+01    1.1444252786644686E+01
C    2.9134569415128979E+00    1.2458184362787845E+01    1.2886211331114160E+01
C    4.1115316703696756E+00    1.2285171814026691E+01    1.2185201408814654E+01
C    4.1385150912815876E+00    1.3443768537734778E+01    1.4792445381098968E+01
C    5.3830775385085632E+00    1.3263401516722849E+01    1.4063936965322494E+01
C    7.3847373559450329E+00    1.1943989786940183E+01    1.4660141146399381E+01
C    2.9272931649652869E+00    1.3048227600172741E+01    1.4214586087893947E+01
C    7.6631538087857631E+00    8.4566318591513507E+00    1.5414231346725760E+01
C    7.7881474990092761E+00    1.0916013604759764E+01    1.5605395905261613E+01
C    7.0549210132549582E+00    8.4004914732646352E+00    1.6733589936304732E+01
C    6.4099394457462164E+00    1.2880906578067053E+01    1.5019587977344356E+01
C    8.0227483117315685E+00    9.6898097204109117E+00    1.4861125214263570E+01
C    4.3961522639752193E+00    1.3174139461964973E+01    1.6198004849249191E+01
C    7.0308755057780221E+00    7.4459282524896748E+00    1.4582904510789485E+01
C    6.1888609947499580E+00    1.1835829644360111E+01    1.7248168528988494E+01
C    4.3746151389328185E+00    1.9225187474197281E+01    1.8838448214324004E+01
C    3.4328235988101508E+00    1.2519137830166844E+01    1.6972411243970360E+01
C    2.9534639231840387E+00    1.9202808951634722E+01    1.9026579008000237E+01
C    5.8006372677706546E+00    1.2826073386644811E+01    1.6338688264538050E+01
C    7.2025470956861213E+00    1.0862632786695180E+01    1.6874968052965883E+01
C    5.1879980610325163E+00    1.1154808961368134E+01    1.8051510831358907E+01
C    5.5837147573623156E+00    9.7621742660272339E+00    1.8175990467026981E+01
C    6.8292466792747444E+00    9.5808722292029582E+00    1.7449803655306418E+01
H    6.9618195043876208E+00    4.6162741890443328E+00    2.0957256699566319E+01
H   -6.3730482855717741E-01    9.0807331956951689E+00    1.9551418025722928E+01
H    1.9926166391144022E+00    4.7868515263473634E+00    1.9416020319639809E+01
H   -5.4119130528203541E-01    8.9771395328819814E+00    9.9895083847296142E+00
H    2.0834840490229642E+00    4.6812421403618529E+00    1.0128054400095296E+01
H    7.0644729716367820E+00    4.5266099226632930E+00    8.6128646106186117E+00
H    1.5334987526180961E+00    1.3514014111157758E+01    2.1232089721610752E+01
H    1.6221567630995999E+00    1.3412336563562707E+01    8.3645986044087017E+00
H    9.3557523363379431E+00    9.0380391631551724E+00    2.1185644494491061E+01
H    1.1071874832469957E+01    2.1821634749376360E+00    1.9854653861649052E+01
H    9.4524640831079214E+00    8.9537809141736560E+00    8.4087399785607051E+00
H    1.1176744306414632E+01    2.0980972544058378E+00    9.7030258281487214E+00
H    1.3551099227898263E+01    6.4988982416068550E+00    1.0294071819442856E+01
H    2.1073895947639002E+01    2.3056506299400379E+00    1.1787042457062894E+01
H    1.8492128428598409E+01    6.6285767556157191E+00    1.1743249770218254E+01
H    1.8398074372214847E+01    6.7202610404853571E+00    1.7817193813130590E+01
H    2.0988254114757893E+01    2.4025450441152940E+00    1.7796485746958762E+01
H    1.3454219081343751E+01    6.5791984995302348E+00    1.9276248590607626E+01
H    6.5663531321745348E+00    1.3591446086984655E+01    2.1297485302645789E+01
H    1.2685671251740225E+00    1.8234905029111193E+01    1.9974240741268304E+01
H    6.2672287934099344E+00    1.8311647897525194E+01    1.9368515026894020E+01
H    6.6555079825279373E+00    1.3491234388405326E+01    8.3431738425065429E+00
H    6.3533850541217234E+00    1.8222381409594895E+01    1.0250833901369377E+01
H    1.3567014914769189E+00    1.8146444067517294E+01    9.6324675563875104E+00
N    4.2377506645418253E+00    6.3152026624277591E+00    2.0984901041533746E+01
N    2.9298989100133648E+00    8.2411520474010569E+00    2.1552122796400912E+01
N    5.2749901304649773E+00    8.3070104577992936E+00    2.1750950752433454E+01
N    5.3743927584160902E+00    8.2195965439391880E+00    7.8437490145221052E+00
N    3.0291285616860040E+00    8.1412352913921442E+00    7.9993155713387960E+00
N    4.3366983556065728E+00    6.2170759222929091E+00    8.5768466875693061E+00
N    1.7888416137944854E+00    1.0307433215365245E+01    2.1147565804365232E+01
N    4.0639530664269374E+00    1.0286440377776549E+01    2.1820113448242516E+01
N    4.1602746697631510E+00    1.0194910518518968E+01    7.7424330253729456E+00
N    1.8829275266810179E+00    1.0204607220192655E+01    8.4107288707774170E+00
N    1.6960023817911551E+01    2.7799641148122070E+00    1.2246748485528808E+01
N    1.4633709614793410E+01    2.7692163559427092E+00    1.1894334174099956E+01
N    1.5858045531155529E+01    7.2243124380843871E-01    1.1907779015115025E+01
N    1.5852741908668667E+01    4.8212908802705217E+00    1.1724561729520707E+01
N    1.8244640169047425E+01    8.4438543740282879E-01    1.1733204483721842E+01
N    1.3650516040233962E+01    7.8824383476700166E-01    1.0988664925749040E+01
N    1.4539644339219217E+01    2.8492163976918570E+00    1.7675161407379189E+01
N    1.5775555757096090E+01    8.0823470475379022E-01    1.7703451112855536E+01
N    1.6872369357554994E+01    2.8634231793217038E+00    1.7356765289913998E+01
N    1.3560121890978516E+01    8.7173824666998756E-01    1.8597860190638503E+01
N    1.8161014147376566E+01    9.3362458745172716E-01    1.7879031181876861E+01
N    1.5756434367710376E+01    4.9047074600052456E+00    1.7850910421539002E+01
N    6.4335042366268773E+00    1.0380745055731515E+01    2.1611451457589471E+01
N    6.5285902442209753E+00    1.0292938955600736E+01    7.9893428424516308E+00
S   -1.7584985667865505E+00    7.2480526990301621E+00    1.1892935481928280E+01
S   -9.4395128778462678E-02    4.4589029944266390E+00    1.1950210207942227E+01
S   -1.8546156075948923E+00    7.3441267362541911E+00    1.7650267933771183E+01
S   -1.8633827303487127E-01    4.5590148066758660E+00    1.7596720766054588E+01
S    9.7146212169894834E+00    4.1190425726676860E+00    2.1395418793753283E+01
S    1.1315023581772680E+01    6.9565309334324041E+00    2.1133953664683347E+01
S    9.8175915895125971E+00    4.0375928698778658E+00    8.1667086480457112E+00
S    1.1413221467618939E+01    6.8761941444574042E+00    8.4375019590604179E+00
S    2.3806189328788361E+00    1.6197658196901376E+01    2.1594315953616562E+01
S    5.6251763751752044E+00    1.6291308540173222E+01    2.1290416228903570E+01
S    2.4703594495743335E+00    1.6097434814462254E+01    8.0293990431091995E+00
S    5.7168813853216820E+00    1.6188989702422234E+01    8.3466270086937566E+00
H    4.1221543070466611E+00    8.6328601379425205E+00    3.3782089765300172E+00
H    3.8612141149345613E+00    8.8133733697960395E+00    2.6188663149481570E+01
     &END COORD
     &KIND H
       BASIS_SET DZVP-MOLOPT-GTH
       POTENTIAL GTH-PBE-q1
       &POTENTIAL
 1
  0.2000000000000000E+00 2 -0.4178900440000000E+01  0.7244633100000000E+00
 0
         # Potential name:  GTH-PBE-Q1  for symbol:  H
         # Potential read from the potential filename: POTENTIAL
       &END POTENTIAL
     &END KIND
     &KIND C
       BASIS_SET DZVP-MOLOPT-GTH
       POTENTIAL GTH-PBE-q4
       &POTENTIAL
 2 2
  0.3384712400000000E+00 2 -0.8803673979999999E+01  0.1339210850000000E+01
 2
  0.3025757500000000E+00 1  0.9622486650000001E+01
  0.2915069400000000E+00 0
         # Potential name:  GTH-PBE-Q4  for symbol:  C
         # Potential read from the potential filename: POTENTIAL
       &END POTENTIAL
     &END KIND
     &KIND N
       BASIS_SET DZVP-MOLOPT-GTH
       POTENTIAL GTH-PBE-q5
       &POTENTIAL
 2 3
  0.2837905100000000E+00 2 -0.1241522559000000E+02  0.1868095920000000E+01
 2
  0.2554050000000000E+00 1  0.1363026257000000E+02
  0.2454945300000000E+00 0
         # Potential name:  GTH-PBE-Q5  for symbol:  N
         # Potential read from the potential filename: POTENTIAL
       &END POTENTIAL
     &END KIND
     &KIND B
       BASIS_SET DZVP-MOLOPT-SR-GTH
       POTENTIAL GTH-PBE-q3
       &POTENTIAL
 2 1
  0.4189914500000000E+00 2 -0.5859461710000000E+01  0.9037564300000001E+00
 2
  0.3713204600000000E+00 1  0.6297280180000000E+01
  0.3645630800000000E+00 0
         # Potential name:  GTH-PBE-Q3  for symbol:  B
         # Potential read from the potential filename: POTENTIAL
       &END POTENTIAL
     &END KIND
     &KIND S
       BASIS_SET DZVP-MOLOPT-GTH
       POTENTIAL GTH-PBE-q6
       &POTENTIAL
 2 4
  0.4200000000000000E+00 1 -0.5986260380000000E+01
 2
  0.3648203500000000E+00 2  0.1314354448000000E+02 -0.4241830450000000E+01
  0.5476179570000000E+01
  0.4094804800000000E+00 1  0.3700890570000000E+01
         # Potential name:  GTH-PBE-Q6  for symbol:  S
         # Potential read from the potential filename: POTENTIAL
       &END POTENTIAL
     &END KIND
     &TOPOLOGY
       COORD_FILE_NAME cof.xyz
       COORD_FILE_FORMAT  XYZ
       NUMBER_OF_ATOMS  288
       MULTIPLE_UNIT_CELL  1 1 1
     &END TOPOLOGY
   &END SUBSYS
 &END FORCE_EVAL
