 # Version information for this restart file 
 # current date 2021-06-24 15:37:18.912
 # current working dir /panfs/panfs.cbls.ccr.buffalo.edu/scratch/grp-cyberwksp21/ub2053/cof/opt-cell
 # Program compiled at                              Thu Apr 22 21:44:59 EDT 2021
 # Program compiled on                cpn-k07-07-02.compute.cbls.ccr.buffalo.edu
 # Program compiled for                                                    local
 # Source code revision number                                       git:36754bb
 &GLOBAL
   EXTENDED_FFT_LENGTHS  T
   PRINT_LEVEL  MEDIUM
   PROJECT_NAME COF
   RUN_TYPE  CELL_OPT
 &END GLOBAL
 &MOTION
   &GEO_OPT
     OPTIMIZER  BFGS
     MAX_ITER  550
     MAX_DR     2.0000000000000000E-03
     MAX_FORCE     2.9999999999999997E-04
     RMS_DR     2.0000000000000000E-03
     RMS_FORCE     2.9999999999999997E-04
     &BFGS
     &END BFGS
   &END GEO_OPT
   &CELL_OPT
     OPTIMIZER  BFGS
     MAX_ITER  550
     MAX_DR     2.0000000000000000E-03
     MAX_FORCE     2.9999999999999997E-04
     RMS_DR     2.0000000000000000E-03
     RMS_FORCE     2.9999999999999997E-04
     STEP_START_VAL  4
     TYPE  DIRECT_CELL_OPT
     EXTERNAL_PRESSURE     1.0000000000000000E+02    0.0000000000000000E+00    0.0000000000000000E+00    0.0000000000000000E+00 \
         1.0000000000000000E+02    0.0000000000000000E+00    0.0000000000000000E+00    0.0000000000000000E+00    1.0000000000000000E+02
     KEEP_SYMMETRY  F
     PRESSURE_TOLERANCE     1.0000000000000000E+02
   &END CELL_OPT
   &PRINT
     &TRAJECTORY  SILENT
       &EACH
         GEO_OPT  1
       &END EACH
     &END TRAJECTORY
     &FORCES  ON
     &END FORCES
     &RESTART  SILENT
       BACKUP_COPIES  1
       &EACH
         GEO_OPT  1
       &END EACH
     &END RESTART
   &END PRINT
 &END MOTION
 &FORCE_EVAL
   METHOD  QS
   STRESS_TENSOR  ANALYTICAL
   &DFT
     BASIS_SET_FILE_NAME BASIS_MOLOPT
     POTENTIAL_FILE_NAME POTENTIAL
     MULTIPLICITY  1
     &SCF
       MAX_SCF  50
       EPS_SCF     9.9999999999999995E-07
       SCF_GUESS  ATOMIC
       ADDED_MOS  50
       &DIAGONALIZATION  T
         ALGORITHM  DAVIDSON
       &END DIAGONALIZATION
       &SMEAR  T
         METHOD  FERMI_DIRAC
       &END SMEAR
       &MIXING  T
         METHOD  BROYDEN_MIXING
         ALPHA     2.9999999999999999E-01
         NBUFFER  8
       &END MIXING
     &END SCF
     &QS
       EPS_DEFAULT     1.0000000000000000E-14
       METHOD  GPW
     &END QS
     &MGRID
       NGRIDS  6
       CUTOFF     1.0000000000000000E+03
       REL_CUTOFF     6.0000000000000000E+01
     &END MGRID
     &XC
       DENSITY_CUTOFF     1.0000000000000000E-10
       GRADIENT_CUTOFF     1.0000000000000000E-10
       TAU_CUTOFF     1.0000000000000000E-10
       &XC_GRID
         XC_DERIV  SPLINE2_SMOOTH
       &END XC_GRID
       &XC_FUNCTIONAL  NO_SHORTCUT
         &PBE  T
         &END PBE
       &END XC_FUNCTIONAL
       &VDW_POTENTIAL
         POTENTIAL_TYPE  PAIR_POTENTIAL
         &PAIR_POTENTIAL
           TYPE  DFTD3
           PARAMETER_FILE_NAME dftd3.dat
           REFERENCE_FUNCTIONAL PBE
         &END PAIR_POTENTIAL
       &END VDW_POTENTIAL
     &END XC
     &POISSON
       POISSON_SOLVER  PERIODIC
       PERIODIC  XYZ
     &END POISSON
     &PRINT
       &MO_CUBES  SILENT
         WRITE_CUBE  F
         NLUMO  3
         NHOMO  3
       &END MO_CUBES
       &PDOS  SILENT
         COMPONENTS  T
         APPEND  T
         NLUMO  -1
       &END PDOS
       &MULLIKEN  OFF
       &END MULLIKEN
       &HIRSHFELD  OFF
       &END HIRSHFELD
     &END PRINT
   &END DFT
   &SUBSYS
     &CELL
       A     2.3026769281171049E+01    0.0000000000000000E+00    0.0000000000000000E+00
       B    -1.2316338186162112E+01    2.0129403773025690E+01    0.0000000000000000E+00
       C    -3.6343763661710993E-01    2.6392276482631483E-01    3.8842571088600337E+01
       PERIODIC  XYZ
       MULTIPLE_UNIT_CELL  1 1 1
     &END CELL
     &COORD
B    4.0282444780042654E+00    8.8836814138308604E+00    2.2341179082280505E+01
B    4.1373204281422078E+00    8.7888237602495511E+00    7.2251794250564947E+00
B    1.5712649397206043E+01    2.0333518974538287E+00    1.2647067242141402E+01
B    1.5633138842149460E+01    2.1089321151211338E+00    1.6945871143726229E+01
C    3.0663068093547685E+00    6.9923906391408686E+00    2.0991816720706836E+01
C    1.8456666557879953E+00    6.7824705593105730E+00    2.0235794110185900E+01
C    6.7607758474284223E+00    6.7594927248765533E+00    2.1153875434137465E+01
C    5.3392961806043715E+00    7.0085618654089830E+00    2.1325724350406649E+01
C   -7.1725413081504166E-02    8.1492949167439832E+00    1.9532124991534111E+01
C    1.0926613327711914E+00    8.0067687312534428E+00    2.0282972984403902E+01
C    7.4734078788931360E+00    5.5736673536990740E+00    2.1021442012995379E+01
C    1.8574261206051819E+00    8.9576545951954571E+00    2.1073693927025115E+01
C    1.4210929951644951E+00    5.7130127134069717E+00    1.9451698965069980E+01
C    4.0989788542342005E+00    8.6505457013422546E+00    4.4551004472985483E+00
C    3.9193023810991789E+00    8.7858177918824687E+00    2.3896359359272502E+01
C    4.0718762445650931E+00    8.6720467322741115E+00    5.6687307766339607E+00
C    3.8882871783697452E+00    8.8003562058708464E+00    2.5109974715701576E+01
C    5.4401002422838047E+00    6.9175164464037158E+00    8.2537897892449994E+00
C    1.1885532171313720E+00    7.9010510454234888E+00    9.2596299681881593E+00
C    1.9402754620705962E+00    6.6766883852627359E+00    9.3061649699461366E+00
C    1.5128588580657221E+00    5.6069166039134908E+00    1.0088875967868667E+01
C    2.3406160038245128E-02    8.0446895452110443E+00    1.0008663168345791E+01
C   -3.8174639399014804E-01    6.9810876870205663E+00    1.0818876450475212E+01
C    3.5479171601783194E-01    5.7661907589343624E+00    1.0853537518078127E+01
C    3.1643285473831106E+00    6.8903531382630936E+00    8.5563798857901272E+00
C    1.9546838799098969E+00    8.8542687377393268E+00    8.4750869109731060E+00
C    7.5747088293545639E+00    5.4847672035364550E+00    8.5536780176454670E+00
C    6.8609932015283226E+00    6.6704148654360385E+00    8.4290980858510878E+00
C   -2.5850291098278433E+00    5.6888896221985581E+00    1.1788397805649687E+01
C   -1.0649875528161159E+01    1.9937338678590077E+01    1.2614297751326406E+01
C    4.1954924044372843E+00    1.1530686994850854E-01    1.1335820288025182E+01
C    3.4867696250732019E+00    1.2438143277779370E+00    1.1759102993111780E+01
C   -1.8558799299031008E+00    4.4704124005620081E+00    1.1804541071715663E+01
C   -1.1296461788054806E+01    1.9609915773775501E+01    1.3873689844880253E+01
C    4.1882732241080225E+00    2.3467629009049173E+00    1.2393643963444719E+01
C   -1.0102238448274534E+01    1.7712255698824357E+01    1.3154349692997858E+01
C   -6.3436070221596381E+00    1.8798457719056177E+01    1.1856496314778077E+01
C    2.1034048429562877E+00    2.0918480192680331E+00    1.3457684136549521E+01
C    3.3322976277528964E+00    2.8704140747967006E+00    1.3446144819603532E+01
C   -7.5730907276539901E+00    1.8021864592761435E+01    1.1866339263291442E+01
C   -8.6715579201946031E+00    1.8916787754057221E+01    1.1543757894073204E+01
C   -9.9125763954279318E+00    1.8764806063290141E+01    1.2170379479626925E+01
C   -7.7550175896651270E+00    1.7008993672582154E+01    1.2813049701735160E+01
C    2.1981213414302188E+00    1.0872667412893595E+00    1.2412656612523158E+01
C    6.3106817905439607E+00    1.1037215887519958E+00    1.2138246061093559E+01
C   -6.6830505368927726E+00    2.0172591441311823E+01    1.1527480367749723E+01
C    5.5742471050936624E+00    2.2772208834470757E+00    1.2581000752040426E+01
C   -5.3396216633686127E+00    1.8534452870152126E+01    1.2793325423141738E+01
C   -9.0431634417027897E+00    1.6852441806859865E+01    1.3470008761218358E+01
C    4.2960033318700708E+00    2.7023631756837894E+00    1.6886925842468393E+01
C   -4.9421661787277067E+00    1.7934122138562966E+01    1.5030159956373044E+01
C    3.5710117990404964E+00    6.5482570217415095E+00    1.5537330468113199E+01
C    3.2528832879524692E+00    2.9748592181027216E+00    1.5911341733715057E+01
C   -1.0720030142291371E+01    1.7876298812487313E+01    1.5538986799426437E+01
C   -1.0812976591046528E+01    1.8880565799124373E+01    1.6585927389425642E+01
C    2.0688948867835877E+00    2.2276472427107210E+00    1.5920481822803707E+01
C    1.4806134515829379E+00    1.7781587597931197E+00    1.4669969604645217E+01
C   -5.5288564748236029E+00    1.7482955760224172E+01    1.3779246973825009E+01
C    4.8174148751864312E+00    6.3730373938473672E+00    1.4809439684450700E+01
C   -9.6198603386842727E+00    1.6982359124113120E+01    1.5867427306107446E+01
C   -1.1139539856715182E+01    2.0204232623215088E+01    1.6264973472403902E+01
C   -1.0957185278586538E+01    1.8235054666646853E+01    1.4207888350875393E+01
C    6.0294107738559282E+00    6.7640531299548527E+00    1.5387783676118554E+01
C    9.3026585787538707E-01    4.4770108001992692E-01    1.4881885413905918E+01
C    1.8800602616675497E+00    1.1755170723198689E+00    1.6905273593473279E+01
C   -8.7968505051994441E+00    1.6480243763718118E+01    1.4852960221903977E+01
C   -6.7126851547008100E+00    1.6735239544691670E+01    1.3788852534976773E+01
C   -7.3572498940623392E+00    1.6408058112171911E+01    1.5049766943975559E+01
C   -6.7922149820997451E+00    1.6841400799616714E+01    1.6253853864886100E+01
C   -5.5624433616033206E+00    1.7618627414120891E+01    1.6243708711231019E+01
C    3.8981212303957653E+00    3.2966802982539436E+00    1.4650569680745043E+01
C   -7.6532549495178746E+00    1.9594017169929991E+01    1.8364764257852947E+01
C    2.8855617955537323E+00    9.1048275609753004E-01    1.7840174103699649E+01
C   -5.6557276954522377E+00    1.8622571508904578E+01    1.7290125932753892E+01
C   -7.6467580052318356E+00    1.7363991446280700E+01    1.7306925370915007E+01
C   -4.7423604436133182E-01    7.0849997260717599E+00    1.8721375143926622E+01
C   -2.6776314853714740E+00    5.7840264608611598E+00    1.7765529477378937E+01
C   -1.9462959225454206E+00    4.5669320584725632E+00    1.7754121913444859E+01
C   -9.0911577591709456E+00    1.9666186818403190E+01    1.8170196872918165E+01
C    2.6329197096489820E-01    5.8705658626816390E+00    1.8687116941666908E+01
C    4.1144229347441286E+00    1.6876016219831929E+00    1.7831783801918775E+01
C    5.2131641147426455E+00    7.9290726345540463E-01    1.8155277440848010E+01
C   -6.9441216530998036E+00    1.8465317166610191E+01    1.7944380894841746E+01
C   -9.7689755026200480E+00    1.8606653265281803E+01    1.7560024696421493E+01
C   -9.0323989198406878E+00    1.7433207882922442E+01    1.7117898196014991E+01
C    2.6206762439142279E+00    1.3523172966215807E+01    2.1261933534164797E+01
C    2.9214411007885248E+00    1.0955651600851052E+01    2.1480517025116679E+01
C    3.3459178094147624E+00    1.2341199238853706E+01    2.1356448826173182E+01
C    3.0148414346191115E+00    1.0857549517734711E+01    8.0844062328500890E+00
C    3.4361127179372346E+00    1.2241292250109705E+01    8.2354546082241740E+00
C    2.7099499484795189E+00    1.3421711075327996E+01    8.3417022897568724E+00
C    2.7687462490874570E+00    7.9761228033991207E+00    1.2357817083898768E+01
C    2.1289222041940881E+00    1.0230194559118017E+01    1.2154654382918979E+01
C    5.1216766825085136E+00    8.3195523764870458E+00    1.1682188977136876E+01
C    1.9018220750687684E+00    1.1410812829677688E+01    1.2869073106804514E+01
C    1.7540987174822569E+00    8.9480380999719742E+00    1.2729213118438857E+01
C    3.1541382163809182E+00    6.9839325864303055E+00    1.3264670711823030E+01
C    5.5244553589103331E+00    7.2906081352480658E+00    1.2627778895403635E+01
C    3.7695180186500834E+00    8.6560183965444075E+00    1.1552010272072062E+01
C    3.3749651201552369E+00    1.0049740875382522E+01    1.1428124888442431E+01
C    4.5597529716856808E+00    6.6385375645878248E+00    1.3403894003621781E+01
C    1.1625009677611216E+00    8.8925514198160265E+00    1.3996059763305697E+01
C    1.2912376130108203E+00    1.1354702858300490E+01    1.4187948194185619E+01
C    1.9243044243328919E+00    1.2366279952486225E+01    1.5018678647075445E+01
C    6.0449216598328226E+00    7.3516763049119893E+00    1.6717827440063139E+01
C    1.5657016087471827E+00    7.8632518278139880E+00    1.4940822404015076E+01
C    9.2878901662497115E-01    1.0120674610922441E+01    1.4740091087912816E+01
C    2.5415592439220860E+00    6.9263665754265427E+00    1.4582423293811026E+01
C    1.1874317245785508E+00    9.8505850203191798E+00    1.6145388219456894E+01
C    1.5838245645149325E+00    8.4566024543999063E+00    1.6267498536805196E+01
C    3.5865777147718290E+00    7.1161494000556784E+00    1.6815643016318010E+01
C    3.2077077988852887E+00    9.1030379561403141E+00    1.8013235683699325E+01
C    2.1714475073687387E+00    1.2107533912100417E+01    1.6371702802494696E+01
C    2.8265629132101608E+00    1.0443162175238205E+01    1.7897074529862255E+01
C    1.7966027481749485E+00    1.0824964014078517E+01    1.6945171220679182E+01
C    4.8461690207144468E+00    7.5244570745344808E+00    1.7418316846747082E+01
C    2.5761637086471358E+00    8.0924451109342517E+00    1.7182437964517565E+01
C    4.6110598858015752E+00    8.7531128706432568E+00    1.8160272739891308E+01
C    3.8350965967454003E+00    1.1488857574019976E+01    1.7915938994581552E+01
C    8.8310605309944368E+00    8.0808531625862887E+00    2.1161810565234397E+01
C    9.5471533034811831E+00    6.8779122749753743E+00    2.1091057923208552E+01
C    7.4427467916785544E+00    8.0211537628506733E+00    2.1287202593728352E+01
C    1.1117082544950410E+01    4.2880780461354870E+00    2.0349355957600341E+01
C    6.4281842024100468E+00    9.0282757313045625E+00    2.1595968757731395E+01
C    1.1582777772350500E+01    3.1333078157241774E+00    1.9724492965974072E+01
C    8.8675957540860360E+00    5.6318836063253634E+00    2.1094457984928020E+01
C    1.1794793242191645E+01    5.5286590596497227E+00    2.0198837773534052E+01
C    6.5262647815798980E+00    8.9408097684165000E+00    8.0004595208542444E+00
C    8.9290785232124712E+00    7.9958663348563048E+00    8.4273095235648086E+00
C    7.5411025528305782E+00    7.9341439108256617E+00    8.3047789351965928E+00
C    9.6459675416242199E+00    6.7933404961597672E+00    8.4876918677542879E+00
C    8.9684769988017727E+00    5.5462939735890346E+00    8.4788268327495029E+00
C    1.1686729265638117E+01    3.0499163855271822E+00    9.8332787337764422E+00
C    1.2832827638692871E+01    3.1413745182657613E+00    1.0610557265469204E+01
C    1.1895537870339499E+01    5.4464898077068113E+00    9.3653267585369946E+00
C    1.3034611086473317E+01    5.5450925353731533E+00    1.0174810914102119E+01
C    1.1220295478732664E+01    4.2053705297537629E+00    9.2107768317412617E+00
C    1.8155883397278739E+01    2.1564859198268813E+00    1.2022781037718349E+01
C    1.4717947139799616E+01    4.1043729778490476E+00    1.1568099434965713E+01
C    1.9120777207731550E+01    3.2380590719377222E+00    1.1907092988554254E+01
C    1.6970416433649358E+01    4.1296545205983470E+00    1.2013676932397882E+01
C    1.3625536770135273E+01    2.1092200256894955E+00    1.1238648386325945E+01
C    1.8381530222396567E+01    4.4710506431957127E+00    1.1898969296938663E+01
C    2.0509225028517150E+01    3.2387884173711150E+00    1.1809026454591875E+01
C    1.9042917871270419E+01    5.6908377659586353E+00    1.1785330872427542E+01
C    1.7077732075652165E+01    1.8330606927053128E-01    1.1571110229201089E+01
C    7.3542415366812079E+00    8.2951775527699878E-01    1.3112528578360461E+01
C    1.4805830525970935E+01    1.4897848180911180E-01    1.1235431511095513E+01
C    7.2618154718904755E+00    1.8337348054653051E+00    1.4160002776983486E+01
C    6.1617677930234649E+00    2.7273160811968382E+00    1.3831763554893429E+01
C    1.3511835015580793E+01    4.3901780806848683E+00    1.0799492779542843E+01
C   -4.6372523510694661E+00    1.9635385158909269E+01    1.3434021174787809E+01
C    1.5483753324291962E+01    1.9826661094940066E+00    1.5405091812897323E+01
C    1.5519756533489787E+01    1.9480315844738560E+00    1.4185536120777181E+01
C    6.6444877233650637E+00    1.9990574810133781E+00    1.6545322696237459E+01
C   -4.3913154958885592E+00    1.9263427308389236E+01    1.4817022745263964E+01
C   -4.4801600638084906E+00    2.0229962727867790E+01    1.5825378202297415E+01
C    7.4991430521735598E+00    1.4757877116712899E+00    1.5491499973704627E+01
C    5.5848563642163809E+00    2.8586243863872083E+00    1.6229809247792286E+01
C    5.3377059753625833E+00    3.2254532966966423E+00    1.4846453644826042E+01
C    1.4621364075818001E+01    4.1860571233754742E+00    1.7999328251352200E+01
C    1.8950241531944076E+01    5.7827876204368067E+00    1.7778510125888783E+01
C    1.8069455320410025E+01    2.2442541518172887E+00    1.7581154805596462E+01
C    1.3530492928351061E+01    2.1903149104643260E+00    1.8331305426528594E+01
C    1.2934362350168245E+01    5.6267255818103665E+00    1.9389365385201078E+01
C    1.6878620099193629E+01    4.2149493515900787E+00    1.7573543197264605E+01
C    1.2731221868559411E+01    3.2238273412881151E+00    1.8949548777634419E+01
C    2.0421422642930715E+01    3.3338713143239920E+00    1.7768481155727915E+01
C    1.3410647502043130E+01    4.4725251259910124E+00    1.8761650459039366E+01
C    1.9032262154715788E+01    3.3291519872395057E+00    1.7682564475996081E+01
C    1.8289912447887577E+01    4.5608450170645884E+00    1.7682140368932920E+01
C    1.6994433894716167E+01    2.7131443065446048E-01    1.8041402875212004E+01
C    1.4720148834759144E+01    2.3485976795747079E-01    1.8366613473388540E+01
C    6.4540051050772398E+00    9.4553752690725168E-01    1.7529021865831673E+01
C   -5.1255080160595989E+00    1.9902121304836466E+01    1.7085648284107503E+01
C    4.5758478327880727E+00    1.7350783079771485E+01    2.0332802206341483E+01
C    3.3192235873959017E+00    1.4732658765786676E+01    2.1307137883726675E+01
C    4.7378139960263956E+00    1.4758835075012367E+01    2.1267886075351679E+01
C    5.2259662889998602E+00    1.0989983649688632E+01    2.1665523633838166E+01
C    4.7844754420898816E+00    1.2363398514447645E+01    2.1436993073677804E+01
C    3.1635240643042946E+00    1.7326342346643926E+01    2.0493317678752788E+01
C    5.4748805641686999E+00    1.3568196465105030E+01    2.1309921244960414E+01
C    2.3472677044389902E+00    1.8246594329530897E+01    1.9837510758644957E+01
C    5.1828350052912482E+00    1.8289152595287888E+01    1.9489662013914813E+01
C    5.3197765755208914E+00    1.0897263034141755E+01    7.9232988932414079E+00
C    5.5644684994284734E+00    1.3468205361495707E+01    8.3195779572877093E+00
C    4.8750370179112315E+00    1.2265530905287461E+01    8.1696096914174454E+00
C    3.4084586567936048E+00    1.4631993083240763E+01    8.3147768973017300E+00
C    4.8267972038646256E+00    1.4658236032508714E+01    8.3643934153135913E+00
C    2.4349043316469006E+00    1.8155850552110749E+01    9.7716859681753014E+00
C    3.2515858631646601E+00    1.7230356086437048E+01    9.1239559125443055E+00
C    4.6636088386606422E+00    1.7255278514842082E+01    9.2887542472404476E+00
C    5.2689685662590451E+00    1.8198827480471905E+01    1.0126929108795805E+01
C    3.0374483256747680E+00    1.9109320193971175E+01    1.0583053276348403E+01
C    4.4574636640613416E+00    1.9131221060459254E+01    1.0776297082099861E+01
C    6.3823216358787507E+00    1.1720767717572947E+01    1.2410378226542399E+01
C    6.1310330455178397E+00    9.3664516087799701E+00    1.1697764115056325E+01
C    5.7502368197150542E+00    1.0708166973925321E+01    1.1579974829018456E+01
C    7.1580517113960020E+00    8.9838865049045662E+00    1.2653856301873798E+01
C    6.7833433076350174E+00    7.7016176592176757E+00    1.3228622897108581E+01
C    5.3687847090954754E+00    1.2695022613042161E+01    1.2783670042249565E+01
C    7.7650224787462054E+00    9.9581347998537275E+00    1.3454647532932793E+01
C    7.3699528881963348E+00    1.1351965374010879E+01    1.3330802392033840E+01
C    4.3457921476365033E+00    1.1056749139874109E+01    1.1440309138661449E+01
C    2.9117186365940566E+00    1.2457519811999029E+01    1.2884804156994589E+01
C    4.1099225490826043E+00    1.2285225260897231E+01    1.2182806343223790E+01
C    4.1369992111470779E+00    1.3443546677592453E+01    1.4791964540266504E+01
C    5.3819723331286538E+00    1.3263110053022750E+01    1.4063303253276038E+01
C    7.3837976433160986E+00    1.1942969931092502E+01    1.4659391738734564E+01
C    2.9255475921201275E+00    1.3047505492145426E+01    1.4213791510266889E+01
C    7.6631764456667213E+00    8.4542722792317200E+00    1.5413403258515823E+01
C    7.7873569861210257E+00    1.0914639968237394E+01    1.5604496182405594E+01
C    7.0545553682136877E+00    8.3983789713841830E+00    1.6733397675042482E+01
C    6.4090948269261441E+00    1.2880412288835513E+01    1.5019001395982407E+01
C    8.0225875271421696E+00    9.6880216211815977E+00    1.4859994174097165E+01
C    4.3947194487187433E+00    1.3174008252160265E+01    1.6197869763186514E+01
C    7.0304768063756597E+00    7.4428351310395122E+00    1.4582163986646966E+01
C    6.1885383749981306E+00    1.1835621676825863E+01    1.7248493924671884E+01
C    4.3723176741209224E+00    1.9219851092364326E+01    1.8836413247504570E+01
C    3.4308747397248918E+00    1.2518921870840856E+01    1.6972587999705496E+01
C    2.9512014321828395E+00    1.9198018014096011E+01    1.9025178106627394E+01
C    5.7997395721708074E+00    1.2825770761352128E+01    1.6338386865926250E+01
C    7.2022168337701293E+00    1.0861714382313901E+01    1.6874758159071064E+01
C    5.1871705185283856E+00    1.1154187018025814E+01    1.8052549365537409E+01
C    5.5826873380264699E+00    9.7603390423115943E+00    1.8177162185806953E+01
C    6.8288897960934163E+00    9.5792611475471077E+00    1.7450120699062740E+01
H    6.9624273629403337E+00    4.6132897225439766E+00    2.0954615444879991E+01
H   -6.4011783471769268E-01    9.0790084871351677E+00    1.9548426693847620E+01
H    1.9903606167193855E+00    4.7840938513525897E+00    1.9414006903295270E+01
H   -5.4358766323649199E-01    8.9750648064917904E+00    9.9904414265739820E+00
H    2.0820190098702973E+00    4.6779083964618406E+00    1.0128381726271831E+01
H    7.0650105423669638E+00    4.5233220997297954E+00    8.6137277998622679E+00
H    1.5313370213484523E+00    1.3513792116148958E+01    2.1231398419612795E+01
H    1.6204203865765356E+00    1.3412058005738785E+01    8.3636417060186385E+00
H    9.3561626211739899E+00    9.0362743575899334E+00    2.1184415220868082E+01
H    1.1067722330872353E+01    2.1820203967319620E+00    1.9856275104241945E+01
H    9.4533667888327368E+00    8.9517819553810440E+00    8.4080494907085832E+00
H    1.1173363801443946E+01    2.0980972856675963E+00    9.6993219334273206E+00
H    1.3547594098827238E+01    6.5000609214315492E+00    1.0290665037833934E+01
H    2.1072546260621042E+01    2.3059314307422736E+00    1.1785614081416494E+01
H    1.8490671707050229E+01    6.6296895959065436E+00    1.1742290912047320E+01
H    1.8396936364032495E+01    6.7210998883342850E+00    1.7816450450025105E+01
H    2.0987127054283079E+01    2.4024456975777166E+00    1.7796043063197232E+01
H    1.3451379874365845E+01    6.5801924207660720E+00    1.9278210186532519E+01
H    6.5648797806551835E+00    1.3592061528744376E+01    2.1296680596393220E+01
H    1.2664158251670143E+00    1.8229927675786627E+01    1.9975543895364940E+01
H    6.2662098385265415E+00    1.8307334206199499E+01    1.9369790086297662E+01
H    6.6543421821469382E+00    1.3491802517299968E+01    8.3425037435093756E+00
H    6.3521287573044196E+00    1.8218311889944236E+01    1.0247424301281834E+01
H    1.3544719352922685E+00    1.8141577551225968E+01    9.6291556113845438E+00
N    4.2357800138733586E+00    6.3153948217211475E+00    2.0982450459002564E+01
N    2.9286339577313458E+00    8.2401261018530825E+00    2.1545462846464922E+01
N    5.2745367901424380E+00    8.3053803448417600E+00    2.1746954300535972E+01
N    5.3741333499056330E+00    8.2177697488301487E+00    7.8456215050072498E+00
N    3.0281208034620213E+00    8.1399266688048417E+00    8.0040266456643696E+00
N    4.3351847988918601E+00    6.2169501053735576E+00    8.5766393251930477E+00
N    1.7874683504576196E+00    1.0305089751355668E+01    2.1148107864361798E+01
N    4.0623908823269597E+00    1.0285150085391814E+01    2.1816687614641026E+01
N    4.1586232216312320E+00    1.0193202830375078E+01    7.7444808402300991E+00
N    1.8817371024176452E+00    1.0202136278660749E+01    8.4086868615274071E+00
N    1.6957315252038509E+01    2.7796361855458169E+00    1.2244430718397149E+01
N    1.4632009738777931E+01    2.7689305227815280E+00    1.1890961325068563E+01
N    1.5855678590244144E+01    7.2358254494211638E-01    1.1904293120598622E+01
N    1.5849945941275379E+01    4.8204417240386510E+00    1.1725276894476385E+01
N    1.8241064842765073E+01    8.4415771045788679E-01    1.1733828680372424E+01
N    1.3648175250787922E+01    7.8781339571316855E-01    1.0989219297150992E+01
N    1.4538277844522510E+01    2.8490549064195658E+00    1.7677673820864268E+01
N    1.5773108024467497E+01    8.0964254238128186E-01    1.7705234556947655E+01
N    1.6869444244697419E+01    2.8632497162032000E+00    1.7357318561584073E+01
N    1.3557594769568853E+01    8.7166570092473195E-01    1.8595687086740842E+01
N    1.8157157458593414E+01    9.3349671522472732E-01    1.7877287159467240E+01
N    1.5753410773095021E+01    4.9040775527503753E+00    1.7848973601017427E+01
N    6.4309888790155449E+00    1.0379088649398222E+01    2.1611421219846552E+01
N    6.5258638620614660E+00    1.0291138929475110E+01    7.9881295486272181E+00
S   -1.7582976130322814E+00    7.2446432864645169E+00    1.1889710578050087E+01
S   -9.6723328052182103E-02    4.4583122107281481E+00    1.1946916952520182E+01
S   -1.8539488097267163E+00    7.3412891916860126E+00    1.7651410849866007E+01
S   -1.8835429412274429E-01    4.5582721924471237E+00    1.7598792625529782E+01
S    9.7136565223282059E+00    4.1184221034191442E+00    2.1394203305210933E+01
S    1.1312979910578342E+01    6.9530003510444267E+00    2.1133698244988711E+01
S    9.8164812874698768E+00    4.0368575112127489E+00    8.1668908801367479E+00
S    1.1410526365896244E+01    6.8724223519560823E+00    8.4362741448553109E+00
S    2.3820618152430408E+00    1.6196214775878861E+01    2.1592384830720626E+01
S    5.6201831567306648E+00    1.6290385097357213E+01    2.1290440841239793E+01
S    2.4714966816241306E+00    1.6095268798577152E+01    8.0288125032383952E+00
S    5.7120459178431036E+00    1.6187453573178804E+01    8.3450792510531180E+00
H    4.1235267616558309E+00    8.6340863038229685E+00    3.3868682420878837E+00
H    3.8620991933509985E+00    8.8152800487294645E+00    2.6178132123712746E+01
     &END COORD
     &KIND H
       BASIS_SET DZVP-MOLOPT-GTH
       POTENTIAL GTH-PBE-q1
       &POTENTIAL
 1
  0.2000000000000000E+00 2 -0.4178900440000000E+01  0.7244633100000000E+00
 0
         # Potential name:  GTH-PBE-Q1  for symbol:  H
         # Potential read from the potential filename: POTENTIAL
       &END POTENTIAL
     &END KIND
     &KIND C
       BASIS_SET DZVP-MOLOPT-GTH
       POTENTIAL GTH-PBE-q4
       &POTENTIAL
 2 2
  0.3384712400000000E+00 2 -0.8803673979999999E+01  0.1339210850000000E+01
 2
  0.3025757500000000E+00 1  0.9622486650000001E+01
  0.2915069400000000E+00 0
         # Potential name:  GTH-PBE-Q4  for symbol:  C
         # Potential read from the potential filename: POTENTIAL
       &END POTENTIAL
     &END KIND
     &KIND N
       BASIS_SET DZVP-MOLOPT-GTH
       POTENTIAL GTH-PBE-q5
       &POTENTIAL
 2 3
  0.2837905100000000E+00 2 -0.1241522559000000E+02  0.1868095920000000E+01
 2
  0.2554050000000000E+00 1  0.1363026257000000E+02
  0.2454945300000000E+00 0
         # Potential name:  GTH-PBE-Q5  for symbol:  N
         # Potential read from the potential filename: POTENTIAL
       &END POTENTIAL
     &END KIND
     &KIND B
       BASIS_SET DZVP-MOLOPT-SR-GTH
       POTENTIAL GTH-PBE-q3
       &POTENTIAL
 2 1
  0.4189914500000000E+00 2 -0.5859461710000000E+01  0.9037564300000001E+00
 2
  0.3713204600000000E+00 1  0.6297280180000000E+01
  0.3645630800000000E+00 0
         # Potential name:  GTH-PBE-Q3  for symbol:  B
         # Potential read from the potential filename: POTENTIAL
       &END POTENTIAL
     &END KIND
     &KIND S
       BASIS_SET DZVP-MOLOPT-GTH
       POTENTIAL GTH-PBE-q6
       &POTENTIAL
 2 4
  0.4200000000000000E+00 1 -0.5986260380000000E+01
 2
  0.3648203500000000E+00 2  0.1314354448000000E+02 -0.4241830450000000E+01
  0.5476179570000000E+01
  0.4094804800000000E+00 1  0.3700890570000000E+01
         # Potential name:  GTH-PBE-Q6  for symbol:  S
         # Potential read from the potential filename: POTENTIAL
       &END POTENTIAL
     &END KIND
     &TOPOLOGY
       COORD_FILE_NAME cof.xyz
       COORD_FILE_FORMAT  XYZ
       NUMBER_OF_ATOMS  288
       MULTIPLE_UNIT_CELL  1 1 1
     &END TOPOLOGY
   &END SUBSYS
 &END FORCE_EVAL
